Authorization required, but no authorization protocol specified

Authorization required, but no authorization protocol specified

Authorization required, but no authorization protocol specified

Authorization required, but no authorization protocol specified

LAMMPS (22 Jul 2025 - Update 3)
KOKKOS mode with Kokkos version 4.6.2 is enabled
  will use up to 1 GPU(s) per node
  using 1 OpenMP thread(s) per MPI task
Reading data file ...
  orthogonal box = (0 0 0) to (51.046552 51.046552 51.046552)
  1 by 1 by 1 MPI processor grid
  reading atoms ...
  6320 atoms
  scanning bonds ...
  4 = max bonds/atom
  scanning angles ...
  12 = max angles/atom
  scanning dihedrals ...
  21 = max dihedrals/atom
  scanning impropers ...
  8 = max impropers/atom
  orthogonal box = (0 0 0) to (51.046552 51.046552 51.046552)
  1 by 1 by 1 MPI processor grid
  reading bonds ...
  6310 bonds
  reading angles ...
  11200 angles
  reading dihedrals ...
  13970 dihedrals
  reading impropers ...
  6300 impropers
Finding 1-2 1-3 1-4 neighbors ...
  special bond factors lj:    0        0        1       
  special bond factors coul:  0        0        1       
     4 = max # of 1-2 neighbors
     6 = max # of 1-3 neighbors
    10 = max # of special neighbors
  special bonds CPU = 0.003 seconds
  read_data CPU = 0.141 seconds
PPPM Kokkos initialization ...
  using 12-bit tables for long-range coulomb
  G vector (1/distance) = 0.33160826
  grid = 54 54 54
  stencil order = 5
  estimated absolute RMS force accuracy = 0.00035492389
  estimated relative force accuracy = 1.0688427e-06
  using double precision cuFFT
  3d grid and FFT values/proc = 226981 157464
Generated 21 of 21 mixed pair_coeff terms from sixthpower/sixthpower mixing rule
Neighbor list info ...
  update: every = 1 steps, delay = 0 steps, check = yes
  max neighbors/atom: 4000, page size: 100000
  master list distance cutoff = 11.5
  ghost atom cutoff = 11.5
  binsize = 11.5, bins = 5 5 5
  1 neighbor lists, perpetual/occasional/extra = 1 0 0
  (1) pair lj/class2/coul/long/kk, perpetual
      attributes: full, newton off, kokkos_device
      pair build: full/bin/kk/device
      stencil: full/bin/3d
      bin: kk/device
Setting up cg/kk style minimization ...
  Unit style    : real
  Current step  : 0
WARNING: Fix MINIMIZE/kk not compatible with sending data in Kokkos communication (src/KOKKOS/comm_kokkos.cpp:767)
WARNING: Fix with atom-based arrays not compatible with sending data in Kokkos communication, switching to classic exchange/border communication (src/KOKKOS/comm_kokkos.cpp:780)
WARNING: Fix MINIMIZE/kk not compatible with Kokkos sorting on device (src/KOKKOS/atom_kokkos.cpp:212)
WARNING: Fix with atom-based arrays not compatible with Kokkos sorting on device, switching to classic host sorting (src/KOKKOS/atom_kokkos.cpp:218)
Per MPI rank memory allocation (min/avg/max) = 46.61 | 46.61 | 46.61 Mbytes
   Step          Time           Temp          Press          TotEng         PotEng         E_bond        E_angle        E_dihed        E_impro         E_vdwl         E_coul         E_long         Volume           Lx             Ly             Lz          Density    
         0   0              0              13354.241      35723.037      35723.037      2659.0538      7102.7927      2273.1836      220.70306      1686.3606      64107.137     -42326.194      133014.58      51.046552      51.046552      51.046552      0.62999999   
       500   500            0             -657.11932      16665.542      16665.542      710.51869      2836.3363     -4076.8483      21.760646     -1908.5972      62175.186     -43092.814      133014.58      51.046552      51.046552      51.046552      0.62999999   
      1000   1000           0             -762.31177      15671.039      15671.039      721.7446       2774.0793     -4512.4872      15.094514     -2165.4172      61991.01      -43152.985      133014.58      51.046552      51.046552      51.046552      0.62999999   
      1078   1078           0             -783.76761      15595.473      15595.473      719.80046      2764.6513     -4541.0008      14.95608      -2186.5113      61981.78      -43158.203      133014.58      51.046552      51.046552      51.046552      0.62999999   
Loop time of 7.58032 on 1 procs for 1078 steps with 6320 atoms

99.9% CPU use with 1 MPI tasks x 1 OpenMP threads

Minimization stats:
  Stopping criterion = energy tolerance
  Energy initial, next-to-last, final = 
      35723.0369179342   15595.4803254636   15595.4725496328
  Force two-norm initial, final = 2881.1577 27.610831
  Force max component initial, final = 117.75077 16.712635
  Final line search alpha, max atom move = 0.015446768 0.25815619
  Iterations, force evaluations = 1078 2127

MPI task timing breakdown:
Section |  min time  |  avg time  |  max time  |%varavg| %total
---------------------------------------------------------------
Pair    | 2.5544     | 2.5544     | 2.5544     |   0.0 | 33.70
Bond    | 1.1709     | 1.1709     | 1.1709     |   0.0 | 15.45
Kspace  | 3.0935     | 3.0935     | 3.0935     |   0.0 | 40.81
Neigh   | 0.36539    | 0.36539    | 0.36539    |   0.0 |  4.82
Comm    | 0.07528    | 0.07528    | 0.07528    |   0.0 |  0.99
Output  | 0.0075921  | 0.0075921  | 0.0075921  |   0.0 |  0.10
Modify  | 0          | 0          | 0          |   0.0 |  0.00
Other   |            | 0.3133     |            |       |  4.13

Nlocal:           6320 ave        6320 max        6320 min
Histogram: 1 0 0 0 0 0 0 0 0 0
Nghost:          12809 ave       12809 max       12809 min
Histogram: 1 0 0 0 0 0 0 0 0 0
Neighs:              0 ave           0 max           0 min
Histogram: 1 0 0 0 0 0 0 0 0 0
FullNghs:  2.29795e+06 ave 2.29795e+06 max 2.29795e+06 min
Histogram: 1 0 0 0 0 0 0 0 0 0

Total # of neighbors = 2297950
Ave neighs/atom = 363.59968
Ave special neighs/atom = 5.5411392
Neighbor list builds = 46
Dangerous builds = 0
System init for write_data ...
PPPM Kokkos initialization ...
  using 12-bit tables for long-range coulomb
  G vector (1/distance) = 0.33160826
  grid = 54 54 54
  stencil order = 5
  estimated absolute RMS force accuracy = 0.00035492389
  estimated relative force accuracy = 1.0688427e-06
  using double precision cuFFT
  3d grid and FFT values/proc = 226981 157464
Generated 21 of 21 mixed pair_coeff terms from sixthpower/sixthpower mixing rule
System init for write_restart ...
PPPM Kokkos initialization ...
  using 12-bit tables for long-range coulomb
  G vector (1/distance) = 0.33160826
  grid = 54 54 54
  stencil order = 5
  estimated absolute RMS force accuracy = 0.00035492389
  estimated relative force accuracy = 1.0688427e-06
  using double precision cuFFT
  3d grid and FFT values/proc = 226981 157464
Generated 21 of 21 mixed pair_coeff terms from sixthpower/sixthpower mixing rule
STAGE COMPLETE: minimization
