Authorization required, but no authorization protocol specified

Authorization required, but no authorization protocol specified

Authorization required, but no authorization protocol specified

Authorization required, but no authorization protocol specified

LAMMPS (22 Jul 2025 - Update 3)
KOKKOS mode with Kokkos version 4.6.2 is enabled
  will use up to 1 GPU(s) per node
  using 1 OpenMP thread(s) per MPI task
Reading data file ...
  orthogonal box = (4.6275509 4.6275509 4.6275509) to (49.656319 49.656319 49.656319)
  1 by 1 by 1 MPI processor grid
  reading atoms ...
  7860 atoms
  reading velocities ...
  7860 velocities
  scanning bonds ...
  4 = max bonds/atom
  scanning angles ...
  14 = max angles/atom
  scanning dihedrals ...
  34 = max dihedrals/atom
  scanning impropers ...
  11 = max impropers/atom
  orthogonal box = (4.6275509 4.6275509 4.6275509) to (49.656319 49.656319 49.656319)
  1 by 1 by 1 MPI processor grid
  reading bonds ...
  8340 bonds
  reading angles ...
  14700 angles
  reading dihedrals ...
  23430 dihedrals
  reading impropers ...
  6860 impropers
Finding 1-2 1-3 1-4 neighbors ...
  special bond factors lj:    0        0        1       
  special bond factors coul:  0        0        1       
     4 = max # of 1-2 neighbors
     8 = max # of 1-3 neighbors
    12 = max # of special neighbors
  special bonds CPU = 0.005 seconds
  read_data CPU = 0.292 seconds
PPPM Kokkos initialization ...
  using 12-bit tables for long-range coulomb
  G vector (1/distance) = 0.29514796
  grid = 30 30 30
  stencil order = 5
  estimated absolute RMS force accuracy = 0.00039202981
  estimated relative force accuracy = 1.1805861e-06
  using double precision cuFFT
  3d grid and FFT values/proc = 50653 27000
Generated 6 of 6 mixed pair_coeff terms from sixthpower/sixthpower mixing rule
Neighbor list info ...
  update: every = 1 steps, delay = 0 steps, check = yes
  max neighbors/atom: 4000, page size: 100000
  master list distance cutoff = 11.5
  ghost atom cutoff = 11.5
  binsize = 11.5, bins = 4 4 4
  1 neighbor lists, perpetual/occasional/extra = 1 0 0
  (1) pair lj/class2/coul/long/kk, perpetual
      attributes: full, newton off, kokkos_device
      pair build: full/bin/kk/device
      stencil: full/bin/3d
      bin: kk/device
Setting up Verlet run ...
  Unit style    : real
  Current step  : 0
  Time step     : 1
Per MPI rank memory allocation (min/avg/max) = 46.44 | 46.44 | 46.44 Mbytes
   Step          Time           Temp          Press         Enthalpy        TotEng         KinEng         PotEng         E_bond        E_angle        E_dihed        E_impro         E_vdwl         E_coul         E_long         E_tail         Volume           Lx             Ly             Lz          Density          Pxx            Pyy            Pzz      
         0   0              498.17921      1645.3593      23528.429      21337.608      11670.439      9667.1691      5331.4273      4809.2039     -1582.1827      420.85527      820.02614      4605.4208     -4737.5815     -472.53414      91299.881      45.028769      45.028769      45.028769      0.9285773      2980.334       1509.7256      446.01832    
      1000   1000           500.31066     -1027.7911      19830.994      21202.189      11720.371      9481.8185      5202.4811      4734.0173     -1520.524       407.95281      785.67298      4611.7612     -4739.5429     -471.61198      91478.403      45.058098      45.058098      45.058098      0.92676516    -263.00007     -1722.4654     -1097.9077    
      2000   2000           500.74848      2159.3248      24235.411      21362.873      11730.627      9632.246       5310.9264      4709.0801     -1521.9472      414.07781      844.10854      4612.6768     -4736.6765     -472.96768      91216.192      45.015006      45.015006      45.015006      0.92942925     540.90902      3022.8167      2914.2487    
      3000   3000           499.72201     -181.13591      21006.359      21247.671      11706.581      9541.0903      5235.3319      4828.1022     -1613.7534      402.04358      802.9007       4616.4393     -4729.974      -472.28602      91347.848      45.036653      45.036653      45.036653      0.9280897      528.26012     -87.496676     -984.17117    
      4000   4000           497.96076      308.71408      21576.015      21160.923      11665.321      9495.6017      5273.7266      4735.4648     -1569.7917      388.64495      803.15317      4603.0244     -4738.6205     -467.94191      92195.87       45.175589      45.175589      45.175589      0.91955309    -454.31064      787.57695      592.87594    
      5000   5000           500.41869      359.41597      21808.323      21327.08       11722.901      9604.1783      5219.8777      4806.5552     -1567.3108      403.38787      854.30683      4623.9089     -4736.5473     -469.9072       91810.279      45.112521      45.112521      45.112521      0.92341509    -620.46597      994.80774      703.90616    
      6000   6000           492.50284     -240.08103      20826.878      21145.161      11537.463      9607.6977      5321.5766      4714.1319     -1530.9116      391.99015      829.24021      4621.7472     -4740.0768     -474.59591      90903.251      44.963468      44.963468      44.963468      0.93262888     542.81266     -515.66005     -747.3957     
      7000   7000           490.42078     -1718.5333      18592.101      20878.883      11488.689      9390.1947      5249.1874      4659.7537     -1516.5657      418.18978      684.1416       4631.1138     -4735.6259     -472.83816      91241.179      45.019116      45.019116      45.019116      0.92917472    -2389.7492     -1258.7023     -1507.1485    
      8000   8000           492.44099     -694.79821      20337.604      21263.638      11536.014      9727.6242      5329.7327      4799.1742     -1541.4362      411.5078       846.56289      4613.4454     -4731.3626     -472.07457      91388.763      45.043376      45.043376      45.043376      0.92767419    -1287.5677      199.14551     -995.97244    
      9000   9000           489.59511      1838.9803      23377.886      20913.218      11469.346      9443.8719      5278.4995      4738.9962     -1661.95        400.39477      801.69991      4617.2523     -4731.0208     -469.4593       91897.873      45.126864      45.126864      45.126864      0.92253492     1295.6841      2514.7518      1706.5049    
     10000   10000          496.71193     -394.8209       20721.789      21249.176      11636.066      9613.1099      5367.4323      4749.8655     -1560.255       416.94487      752.70474      4621.5914     -4735.1739     -471.03139      91591.159      45.076604      45.076604      45.076604      0.92562424    -2376.8854      598.02673      594.39595    
     11000   11000          493.95395     -1529.1125      19024.369      21070.822      11571.457      9499.365       5118.2658      4795.7516     -1469.288       387.97474      781.13277      4620.2571     -4734.729      -470.12881      91767.001      45.105432      45.105432      45.105432      0.92385058    -1987.334      -931.8104      -1668.193     
     12000   12000          500.62943     -50.958033      21247.61       21316.054      11727.838      9588.2161      5262.2577      4745.8048     -1519.8364      403.99427      815.68602      4610.4453     -4730.1355     -468.44266      92097.314      45.159486      45.159486      45.159486      0.92053713     689.44015      551.47622     -1393.7905    
     13000   13000          496.68038      520.75         21802.941      21107.072      11635.327      9471.7454      5261.0267      4662.165      -1564.5357      420.63081      818.03593      4608.3312     -4733.9086     -470.84874      91626.688      45.082431      45.082431      45.082431      0.92526532    -50.39408       2138.1543     -525.51028    
     14000   14000          502.64869      1306.7668      23021.172      21279.844      11775.142      9504.7027      5349.0106      4709.2787     -1606.4717      400.53185      793.49749      4600.8589     -4742.0032     -472.16847      91370.588      45.04039       45.04039       45.04039       0.92785872     512.24415      1749.3887      1658.6675    
     15000   15000          489.98683     -1107.238       19531.484      21000.058      11478.523      9521.5352      5273.3525      4741.7881     -1527.6901      406.31543      753.42049      4609.7468     -4735.3981     -474.37775      90945.057      44.97036       44.97036       44.97036       0.93220016    -662.76368     -1558.6637     -1100.2866    
     16000   16000          497.65679     -423.9237       20535.341      21106.507      11658.201      9448.3065      5308.0448      4648.9582     -1588.0177      398.1484       810.15003      4602.7674     -4731.7447     -466.98662      92384.47       45.206372      45.206372      45.206372      0.91767585     119.56038     -705.90937     -685.4221     
     17000   17000          506.41994     -1575.0081      19255.02       21348.47       11863.488      9484.9827      5235.9716      4689.9351     -1471.8602      411.11177      732.52414      4617.2243     -4729.9241     -473.36859      91138.938      45.002294      45.002294      45.002294      0.93021708    -1362.9306     -1624.7576     -1737.3361    
     18000   18000          493.9333      -673.50797      20166.621      21064.722      11570.973      9493.7484      5168.0653      4807.3818     -1521.5611      387.34546      789.39383      4599.3029     -4736.1797     -471.84235      91433.74       45.050764      45.050764      45.050764      0.92721786     782.09418     -155.12065     -2647.4974    
     19000   19000          498.7912      -1184.0082      19538.23       21131.342      11684.775      9446.5667      5224.6743      4617.1447     -1494.6         423.12568      793.71435      4613.3996     -4730.892      -467.6142       92260.481      45.186139      45.186139      45.186139      0.91890911    -2002.0666     -169.17337     -1380.7846    
     20000   20000          499.75034      626.37538      22050.297      21216.256      11707.244      9509.0115      5253.2172      4775.1883     -1617.6226      420.80415      788.51383      4623.5927     -4734.6821     -472.52701      91301.259      45.028995      45.028995      45.028995      0.92856329     609.37105      29.391873      1240.3632    
     21000   21000          494.28802     -1571.9487      18831.527      20932.048      11579.283      9352.7648      5140.9979      4620.3773     -1431.87        398.50293      743.16677      4613.6325     -4732.0427     -470.85861      91624.768      45.082116      45.082116      45.082116      0.92528471    -2853.8527     -2777.5745      915.58117    
     22000   22000          487.81592     -2177.9671      18052.41       20974.832      11427.667      9547.1656      5347.8141      4697.4834     -1527.6459      405.78594      731.0747       4620.4426     -4727.7893     -468.90811      92005.897      45.144539      45.144539      45.144539      0.92145178     631.3533      -3968.5997     -3196.6549    
     23000   23000          489.66619     -328.03018      20593.029      21029.421      11471.011      9558.4095      5330.034       4724.9529     -1553.9516      406.04168      771.90482      4612.81       -4733.3824     -472.95167      91219.281      45.015514      45.015514      45.015514      0.92939777     782.91832     -1533.3129     -233.69593    
     24000   24000          499.79046      611.51231      22058.114      21244.95       11708.184      9536.7656      5221.6965      4744.6629     -1580.6042      424.55325      839.644        4618.4012     -4731.5881     -473.15823      91179.459      45.008963      45.008963      45.008963      0.92980368     1933.2719     -575.65308      476.9181     
     25000   25000          506.156        1547.2709      23528.215      21466.128      11857.305      9608.8236      5332.8919      4688.2341     -1564.5387      408.97109      865.6661       4617.1611     -4739.562      -472.10509      91382.855      45.042405      45.042405      45.042405      0.92773417     1574.1692      2953.8296      113.81384    
     26000   26000          494.75312      836.04938      22230.444      21116.92       11590.179      9526.7411      5187.2095      4878.6775     -1582.1583      400.30321      760.74595      4620.5963     -4738.6331     -472.40193      91325.434      45.032969      45.032969      45.032969      0.92831748     910.244        267.73485      1330.1693    
     27000   27000          488.87634      680.77706      21772.625      20864.5        11452.508      9411.9921      5192.1206      4703.45       -1546.4387      401.34487      779.43028      4615.5497     -4733.4646     -471.67025      91467.103      45.056243      45.056243      45.056243      0.92687966     1336.3052      185.12462      520.90136    
     28000   28000          499.7434      -430.14448      20656.587      21230.84       11707.082      9523.7579      5175.0853      4794.488      -1471.9423      409.62419      737.48577      4611.5229     -4732.506      -471.29293      91540.332      45.068264      45.068264      45.068264      0.92613818     438.5481      -570.38377     -1158.5978    
     29000   29000          497.95206     -1250.4119      19721.691      21388.335      11665.118      9723.2176      5379.5358      4695.4196     -1417.6409      408.46109      773.2231       4618.3051     -4734.0861     -472.0516       91393.211      45.044107      45.044107      45.044107      0.92762905    -2305.4644     -721.55345     -724.21774    
     30000   30000          490.61796     -2404.5138      17809.589      21031.537      11493.308      9538.2292      5158.2507      4815.9688     -1409.5921      413.9426       659.21848      4633.9803     -4733.5396     -469.55671      91878.808      45.123743      45.123743      45.123743      0.92272635    -862.46912     -2410.5652     -3940.507     
     31000   31000          507.22091      235.41494      21758.819      21445.443      11882.251      9563.1919      5221.5739      4763.286      -1525.8909      408.39243      803.33331      4622.2954     -4729.7983     -472.65923      91275.719      45.024796      45.024796      45.024796      0.92882311     726.81408      700.93185     -721.50111    
     32000   32000          497.20272     -1750.5931      18834.47       21193.884      11647.564      9546.3204      5333.4938      4753.5982     -1563.7205      395.64059      723.27054      4626.7172     -4722.6794     -466.83167      92415.132      45.211373      45.211373      45.211373      0.91737137    -1415.5692     -1931.6803     -1904.5298    
     33000   33000          496.36777      1814.4093      23499.435      21105.201      11628.004      9477.1976      5233.2633      4757.9455     -1617.2177      404.42625      824.81944      4611.6106     -4737.6498     -476.81301      90480.567      44.893669      44.893669      44.893669      0.9369857      2001.015       1274.7686      2167.4443    
     34000   34000          489.0841      -1562.4487      18898.699      20995.38       11457.375      9538.0045      5365.7495      4659.5147     -1532.6421      413.50693      753.0773       4609.3967     -4730.5986     -468.8704       92013.296      45.145749      45.145749      45.145749      0.92137768    -3253.5483     -1087.6536     -346.14416    
     35000   35000          490.23936      2125.5113      23707.541      20878.551      11484.438      9394.1123      5199.3304      4780.3537     -1721.5351      393.3679       849.08908      4627.7323     -4734.2261     -472.72787      91262.465      45.022617      45.022617      45.022617      0.928958       2784.4147      2558.4389      1033.6804    
     36000   36000          500.57778     -1627.7895      19075.294      21250.927      11726.628      9524.2991      5279.6962      4744.4867     -1512.4825      403.93705      728.89286      4616.7238     -4736.9551     -470.75163      91645.591      45.085531      45.085531      45.085531      0.92507447    -1734.0662     -831.86866     -2317.4337    
     37000   37000          492.88289     -233.1794       20646.12       20955.227      11546.366      9408.8608      5200.0216      4700.3893     -1555.1339      409.08642      775.45705      4616.0158     -4736.9755     -474.63644      90895.488      44.962188      44.962188      44.962188      0.93270853    -2876.7234      1300.2373      876.94799    
     38000   38000          494.8986      -623.78763      20117.408      20951.006      11593.587      9357.4193      5138.5343      4694.4073     -1479.5842      410.47967      715.81006      4611.2354     -4733.4633     -470.82491      91631.326      45.083192      45.083192      45.083192      0.92521848    -577.56638     -288.6062      -1005.1903    
     39000   39000          502.59268      45.125632      21155.56       21095.731      11773.83       9321.901       5069.1407      4763.131      -1501.3883      416.07056      687.82688      4622.043      -4734.9229     -474.55639      90910.82       44.964716      44.964716      44.964716      0.93255123    -121.84556      561.70759     -304.48514    
     40000   40000          490.75136      680.10356      21749.302      20843.782      11496.433      9347.3497      5204.7152      4634.6899     -1539.3688      397.42139      765.47074      4618.3154     -4733.8941     -472.55961      91294.961      45.02796       45.02796       45.02796       0.92862734     655.15581      1126.6271      258.52776    
     41000   41000          491.88567      240.42196      21344.824      21027.231      11523.005      9504.2252      5341.8098      4654.7131     -1556.8413      409.81285      769.22912      4619.3967     -4733.895      -476.30128      90577.776      44.909741      44.909741      44.909741      0.93598011     476.39971      1103.2354     -858.36921    
     42000   42000          486.45863      2516.1572      24222.029      20880.339      11395.87       9484.4687      5320.6259      4621.757      -1674.3381      399.54676      951.98602      4601.1586     -4736.2675     -473.75181      91065.216      44.990157      44.990157      44.990157      0.93097014     2123.6011      2638.3118      2786.5586    
     43000   43000          487.89028     -884.3938       19793.272      20975.274      11429.409      9545.865       5282.0819      4715.3127     -1457.6477      415.99745      703.43899      4623.3446     -4736.6629     -470.76817      91642.371      45.085003      45.085003      45.085003      0.92510698    -1775.2705      379.0518      -1256.9627    
     44000   44000          485.53806      222.95344      21224.19       20927.29       11374.305      9552.9854      5196.178       4771.1729     -1508.958       438.81671      792.26791      4603.8431     -4740.3352     -472.47998      91310.348      45.030489      45.030489      45.030489      0.92847086     110.41418      1091.9656     -533.51943    
     45000   45000          492.77498     -671.34816      20026.756      20927.133      11543.838      9383.2942      5262.5252      4600.5559     -1528.8981      416.47763      734.59637      4630.436      -4732.3988     -469.14047      91960.326      45.137084      45.137084      45.137084      0.9219084     -2004.3779     -502.4036       492.73701    
     46000   46000          491.55605     -261.65992      20600.07       20948.151      11515.284      9432.8674      5314.8757      4622.095      -1534.1195      407.97973      754.73611      4605.6319     -4738.3314     -472.97274      91215.217      45.014846      45.014846      45.014846      0.92943919    -93.295767     -302.44575     -389.23825    
     47000   47000          497.16413     -480.45708      20513.718      21153.708      11646.66       9507.0481      5294.7218      4768.9257     -1551.524       398.34589      735.92339      4599.5928     -4738.9374     -472.34643      91336.163      45.034733      45.034733      45.034733      0.92820843    -1037.2199     -83.972276     -320.17903    
     48000   48000          498.56585      156.87522      21464.754      21254.967      11679.496      9575.4702      5327.2414      4807.6281     -1598.4352      389.80017      766.86734      4617.5388     -4735.1704     -470.49475      91695.627      45.093735      45.093735      45.093735      0.92456968     218.12283      582.61177     -330.10893    
     49000   49000          485.9528       1477.8503      22867.549      20896.37       11384.021      9512.3493      5377.7902      4644.9775     -1591.9444      405.06967      805.41863      4607.8633     -4736.8256     -471.71923      91457.605      45.054683      45.054683      45.054683      0.92697591     2400.7168      783.84145      1248.9928    
     50000   50000          495.86073     -1240.8899      19585.49       21229.681      11616.126      9613.5551      5363.8214      4745.7244     -1535.9202      407.11976      751.43144      4612.3672     -4730.9888     -474.85426      90853.793      44.955313      44.955313      44.955313      0.93313657    -1759.7145      237.14871     -2200.104     
     51000   51000          495.20657     -1120.0129      19484.795      20978.582      11600.801      9377.7804      5227.9161      4692.7998     -1578.5048      390.58147      753.49321      4620.0762     -4728.5815     -471.75204      91451.245      45.053639      45.053639      45.053639      0.92704038    -2693.921      -702.62158      36.50393     
     52000   52000          491.16659      1.1256477      20988.631      20987.133      11506.16       9480.9733      5319.1622      4676.0268     -1609.1949      417.77964      786.82993      4624.7308     -4734.3612     -472.79441      91249.622      45.020505      45.020505      45.020505      0.92908874    -931.89768      1238.3066     -303.03196    
     53000   53000          500.68514     -671.33647      20294.338      21187.632      11729.143      9458.4885      5230.9642      4772.9673     -1556.8259      404.64753      722.76595      4615.5905     -4731.6211     -472.85175      91238.555      45.018684      45.018684      45.018684      0.92920144    -355.54836     -422.49855     -1235.9625    
     54000   54000          492.5679      -1209.1224      19358.472      20980.347      11538.987      9441.3595      5278.5794      4663.6584     -1562.2441      409.86764      746.49438      4630.1929     -4725.1891     -469.06409      91975.301      45.139534      45.139534      45.139534      0.9217583     -2296.1246     -138.3151      -1192.9275    
     55000   55000          492.78945      169.22389      21296.425      21070.583      11544.177      9526.406       5228.4633      4745.9425     -1555.3875      417.12127      812.59082      4613.863      -4736.1874     -471.45195      91509.455      45.063196      45.063196      45.063196      0.92645068    -1076.4922      321.68664      1262.4772    
     56000   56000          494.04158     -266.98736      20581.788      20935.219      11573.51       9361.709       5316.8688      4661.9306     -1634.8643      389.41286      743.3901       4615.7915     -4730.8205     -475.29731      90769.105      44.94134       44.94134       44.94134       0.93400719    -922.75584      1292.9127     -1171.119     
     57000   57000          491.3198      -1269.4648      19067.312      20774.143      11509.749      9264.394       5106.4773      4683.5354     -1581.9453      401.74449      769.85142      4616.5509     -4731.8202     -467.96066      92192.174      45.174985      45.174985      45.174985      0.91958995    -1362.5509     -1232.1414     -1213.702     
     58000   58000          491.26135      157.53319      20967.898      20757.926      11508.38       9249.5462      5206.7798      4592.6057     -1635.9181      393.92468      797.82537      4628.7211     -4734.3924     -472.05166      91393.198      45.044104      45.044104      45.044104      0.92762918     831.06188      2352.7897     -2711.252     
     59000   59000          492.79377     -811.24999      19928.286      20998.837      11544.279      9454.5587      5166.8884      4736.8964     -1464.106       411.00822      739.19075      4605.0274     -4740.3464     -476.78945      90485.038      44.894409      44.894409      44.894409      0.9369394     -544.49378     -195.80106     -1693.4551    
     60000   60000          485.04818      124.33453      20903.866      20735.382      11362.829      9372.5533      5264.2779      4621.3404     -1609.2183      408.62831      790.50163      4625.4364     -4728.413      -464.31581      92915.878      45.292884      45.292884      45.292884      0.91242744    -239.84749     -243.0125       855.86357    
     61000   61000          498.62383     -1262.8917      19557.096      21228.487      11680.855      9547.6329      5325.4165      4730.0118     -1493.0636      419.45495      706.00533      4603.0678     -4743.2598     -475.40888      90747.802      44.937824      44.937824      44.937824      0.93422645    -835.30792     -2927.4477     -25.91945     
     62000   62000          492.27707      338.64612      21285.563      20834.911      11532.174      9302.7365      5159.4602      4649.4534     -1597.8401      394.49607      819.05542      4612.5287     -4734.4172     -472.80736      91247.122      45.020093      45.020093      45.020093      0.9291142      1925.6691     -337.29565     -572.43513    
     63000   63000          492.09953      263.75649      21207.622      20858.282      11528.015      9330.267       5216.9986      4587.907      -1534.209       400.61639      781.17186      4619.4779     -4741.6957     -475.04481      90817.351      44.949301      44.949301      44.949301      0.93351101     1082.0339     -555.37215      264.60773    
     64000   64000          491.84374      136.64736      21116.853      20933.854      11522.023      9411.8311      5193.4789      4738.0449     -1593.9145      406.94828      796.68649      4605.5292     -4734.9423     -469.82156      91827.014      45.115262      45.115262      45.115262      0.92324681     25.722739      153.15558      231.06376    
     65000   65000          490.99868      649.48396      21894.881      21023.848      11502.227      9521.6218      5159.996       4771.7788     -1525.2276      399.18124      841.08597      4605.7074     -4730.9        -469.15141      91958.182      45.136733      45.136733      45.136733      0.9219299      1807.0837      53.681906      87.686262    
     66000   66000          491.85391      1204.699       22711.315      21094.382      11522.261      9572.1209      5259.0625      4764.4322     -1595.4563      418.74481      830.38729      4627.5282     -4732.5779     -468.77655      92031.717      45.148762      45.148762      45.148762      0.92119325     1132.4255      816.36988      1665.3017    
     67000   67000          492.8429      -337.4668       20697.4        21151.409      11545.43       9605.9795      5260.92        4704.2069     -1450.0222      416.57078      802.6088       4602.6371     -4730.9418     -467.67672      92248.148      45.184126      45.184126      45.184126      0.91903197     432.15304     -1212.2489     -232.30457    
     68000   68000          490.31725     -2052.8801      18080.424      20818.184      11486.263      9331.9209      5276.3346      4693.2265     -1555.6108      387.06611      664.65822      4609.5536     -4743.3073     -471.78867      91444.145      45.052473      45.052473      45.052473      0.92711236    -1846.0529     -2421.4886     -1891.0989    
     69000   69000          487.3439       1529.0366      22753.346      20720.853      11416.609      9304.2446      5314.231       4621.5548     -1680.2548      403.07208      767.75031      4618.5489     -4740.6576     -473.33453      91145.497      45.003374      45.003374      45.003374      0.93015015     613.52858      1641.7435      2331.8379    
     70000   70000          495.37989     -923.62284      19750.715      20988.916      11604.862      9384.0539      5236.7839      4691.9038     -1592.9648      411.86556      775.21183      4598.4105     -4737.1569     -469.33493      91922.226      45.13085       45.13085       45.13085       0.92229051    -241.12835     -1672.4501     -857.29005    
     71000   71000          492.01847     -442.26731      20246.069      20832.293      11526.116      9306.1765      5243.5317      4617.0166     -1594.8856      408.3615       765.06685      4607.6782     -4740.5928     -474.68003      90887.141      44.960812      44.960812      44.960812      0.93279419     759.65517     -870.24001     -1216.2171    
     72000   72000          488.63539     -398.04178      20451.512      20982.167      11446.864      9535.3031      5268.9835      4743.5966     -1537.7704      422.11682      749.48602      4624.9698     -4736.0792     -471.9497       91412.942      45.047348      45.047348      45.047348      0.92742882     57.157611     -917.76687     -333.51609    
     73000   73000          486.19956      1357.7626      22796.382      21000.873      11389.801      9611.0716      5312.1621      4817.6743     -1588.67        413.74344      775.38266      4616.518      -4735.7389     -475.7903       90675.054      44.925813      44.925813      44.925813      0.93497598     791.77685      1393.2619      1888.249     
     74000   74000          490.40856      1849.5845      23381.281      20894.293      11488.402      9405.8905      5208.6686      4737.2736     -1641.3559      399.86689      819.00768      4614.6262     -4732.1965     -467.92872      92198.468      45.176013      45.176013      45.176013      0.91952717     1863.513       28.646471      3656.5939    
     75000   75000          486.42086     -582.77895      19969.095      20748.126      11394.986      9353.14        5119.4249      4731.1761     -1546.1637      410.07176      758.13682      4614.8778     -4734.3838     -470.68303      91658.947      45.087721      45.087721      45.087721      0.92493968    -633.98252      67.966382     -1182.3207    
     76000   76000          498.74382      1191.5652      22597.728      21028.25       11683.666      9344.5848      5217.0835      4706.8711     -1612.0664      405.8555       742.63137      4618.4952     -4734.2855     -477.68529      90315.344      44.866327      44.866327      44.866327      0.93869982     1076.1304      2045.3559      453.20938    
     77000   77000          489.58497      458.22294      21367.586      20756.246      11469.109      9287.1378      5132.6768      4733.2035     -1669.9892      401.49995      805.39509      4620.1852     -4735.8334     -471.59953      91480.818      45.058495      45.058495      45.058495      0.9267407     -1570.0976      130.20002      2814.5664    
     78000   78000          489.06958      393.64664      21167.775      20645.152      11457.035      9188.1171      5109.1283      4649.2664     -1602.9154      390.4691       764.53371      4613.6739     -4736.0388     -473.91148      91034.534      44.985104      44.985104      44.985104      0.93128391     2126.0571     -135.25062     -809.86653    
     79000   79000          489.02839      294.05192      21258.639      20866.53       11456.07       9410.4597      5211.7119      4680.5751     -1602.5923      410.62699      817.16174      4626.7201     -4733.7438     -471.84232      91433.747      45.050765      45.050765      45.050765      0.92721779     1183.9481      996.71688     -1298.5092    
     80000   80000          494.94154     -448.69566      20389.507      20991.479      11594.593      9396.8858      5144.423       4694.1905     -1602.6268      413.49922      859.84892      4620.0856     -4732.5346     -468.98115      91991.568      45.142195      45.142195      45.142195      0.9215953      145.67545     -863.33436     -628.42807    
     81000   81000          488.83907     -758.5566       19773.586      20789.691      11451.635      9338.0561      5187.4669      4746.5308     -1585.6957      396.5597       709.62031      4614.9677     -4731.3937     -469.70883      91849.053      45.118871      45.118871      45.118871      0.92302527     894.10129     -1162.9984     -2006.7727    
     82000   82000          491.83921      2009.0481      23662.083      20989.541      11521.917      9467.6245      5301.8771      4670.2037     -1614.8098      396.38851      852.10992      4598.2995     -4736.4445     -472.98259      91213.317      45.014533      45.014533      45.014533      0.92945854     4759.0891      839.55972      428.49532    
     83000   83000          482.35245     -655.95511      19663.31       20542.094      11299.678      9242.4154      5166.8802      4562.9628     -1544.4149      415.3979       755.69024      4621.0248     -4735.1257     -469.64693      91861.158      45.120853      45.120853      45.120853      0.92290364    -336.87558     -325.9067      -1305.083     
     84000   84000          491.69933     -1459.1369      18928.67       20864.037      11518.64       9345.3964      5149.0368      4647.723      -1472.259       413.30704      725.50317      4618.8026     -4736.7173     -474.36443      90947.611      44.970781      44.970781      44.970781      0.93217399    -783.78893     -2526.2404     -1067.3815    
     85000   85000          494.18938      108.78337      21201.028      21055.724      11576.972      9478.7513      5255.3604      4770.2128     -1614.3282      405.70317      776.21435      4616.9203     -4731.3315     -471.04506      91588.501      45.076167      45.076167      45.076167      0.9256511      632.8133      -921.00396      614.54077    
     86000   86000          494.28031      321.26807      21275.833      20849.9        11579.103      9270.7979      5154.718       4690.6046     -1637.9251      388.60522      776.04351      4629.3386     -4730.5869     -474.57648      90906.973      44.964082      44.964082      44.964082      0.93259069     511.68528     -901.1283       1353.2472    
     87000   87000          485.02096     -145.53554      20561.917      20756.756      11362.191      9394.5648      5160.7806      4708.927      -1574.4134      422.4957       786.01511      4623.2957     -4732.5359     -469.97321      91797.383      45.110409      45.110409      45.110409      0.92354482     807.46974     -236.1912      -1007.8852    
     88000   88000          497.98239      373.35391      21516.715      21017.922      11665.828      9352.0942      5199.9122      4661.2326     -1570.129       407.34759      773.69048      4611.8316     -4731.7913     -470.95541      91605.936      45.079027      45.079027      45.079027      0.92547493    -241.29828      779.38781      581.97221    
     89000   89000          493.44531     -1146.1164      19431.867      20960.127      11559.542      9400.5857      5187.1105      4668.3555     -1533.6874      416.48372      761.35978      4627.9097     -4726.9462     -471.85716      91430.871      45.050293      45.050293      45.050293      0.92724696    -1313.4281     -725.43101     -1399.4902    
     90000   90000          484.39879      404.39394      21216.623      20680.028      11347.616      9332.4122      5241.3658      4694.7205     -1671.5598      405.91176      773.93261      4623.3275     -4735.2863     -474.17386      90984.161      44.976805      44.976805      44.976805      0.93179952     1810.3188     -507.07252     -90.064504    
     91000   91000          491.59155     -1020.8584      19522.125      20885.07       11516.115      9368.9546      5214.674       4585.6499     -1417.8512      422.41577      679.14996      4616.3137     -4731.3975     -471.26632      91545.501      45.069112      45.069112      45.069112      0.92608589    -1882.5928     -821.21432     -358.76801    
     92000   92000          487.53783      7.4640378      20724.552      20714.557      11421.152      9293.4046      5182.1234      4692.1854     -1647.1191      394.86235      787.50807      4617.7437     -4733.8992     -469.86019      91819.464      45.114026      45.114026      45.114026      0.92332272     87.856082      255.24903     -320.71299    
     93000   93000          484.97176      601.53387      21496.451      20690.161      11361.039      9329.1223      5222.9103      4695.7066     -1654.5213      402.90724      766.5536       4622.0526     -4726.4868     -469.40518      91908.468      45.128598      45.128598      45.128598      0.92242858    -142.07279      2577.2628     -630.58841    
     94000   94000          486.95149      1021.8559      22274.253      20912.927      11407.416      9505.5107      5274.4476      4705.1593     -1600.0057      411.42737      828.81266      4616.9869     -4731.3175     -472.28803      91347.459      45.036589      45.036589      45.036589      0.92809366     1339.0081      2321.5608     -595.00109    
     95000   95000          489.63969     -872.21032      19472.279      20639.946      11470.391      9169.5552      5133.5413      4610.143      -1572.6132      421.89167      689.67185      4618.0184     -4731.0978     -469.98242      91795.584      45.110115      45.110115      45.110115      0.92356291    -2786.3953      913.38226     -743.61793    
     96000   96000          489.97014     -703.89305      19821.347      20763.696      11478.132      9285.5643      5144.0214      4650.1848     -1551.9652      410.07172      760.7363       4605.2131     -4732.6977     -469.97454      91797.125      45.110367      45.110367      45.110367      0.92354741    -1117.337      -483.13614     -511.20602    
     97000   97000          486.06084      2233.9597      23651.712      20670.178      11386.552      9283.6264      5246.0986      4633.6058     -1719.5307      402.27246      848.61693      4608.9544     -4736.3911     -471.42756      91514.189      45.063973      45.063973      45.063973      0.92640275     2054.4544      2683.9794      1963.4453    
     98000   98000          488.89842     -1384.3649      19049.798      20881.772      11453.025      9428.747       5250.2685      4767.0748     -1582.8658      416.65693      699.04212      4614.4758     -4735.9054     -475.45603      90738.804      44.936339      44.936339      44.936339      0.93431909    -1417.1385     -421.70938     -2314.2468    
     99000   99000          488.27882     -676.07998      19875.491      20776.172      11438.511      9337.6617      5200.3099      4699.049      -1579.3129      393.84617      754.01131      4603.3149     -4733.5567     -472.28718      91347.622      45.036616      45.036616      45.036616      0.92809199    -66.835309     -1508.5773     -452.82735    
    100000   100000         487.78908     -2045.0725      17959.694      20711.318      11427.038      9284.2801      5175.613       4696.0425     -1592.5654      394.97556      744.94457      4603.4135     -4738.1435     -467.62639      92258.076      45.185747      45.185747      45.185747      0.91893307    -2831.8857     -1044.1494     -2259.1825    
    101000   101000         490.92843     -1183.3481      19230.936      20817.729      11500.581      9317.1483      5182.1385      4670.6453     -1615.7212      385.33969      816.13078      4610.4786     -4731.8633     -469.21456      91945.807      45.134709      45.134709      45.134709      0.92205398    -1962.4587     -899.82644     -687.75911    
    102000   102000         487.78012      2134.4079      23619.789      20750.438      11426.828      9323.6103      5178.9374      4742.0121     -1750.8197      377.34516      899.05996      4607.0574     -4729.9821     -468.0294       92178.635      45.172774      45.172774      45.172774      0.91972502     2331.2579      1522.3891      2549.5767    
    103000   103000         495.80553      1264.4315      22616.502      20913.812      11614.833      9298.979       5145.1739      4721.8824     -1659.2268      401.8049       800.45578      4618.2484     -4729.3596     -467.23888      92334.592      45.198235      45.198235      45.198235      0.91817157    -866.77969      2854.7971      1805.2772    
    104000   104000         482.05985      457.76491      21316.841      20710.814      11292.824      9417.9897      5281.7345      4659.7095     -1530.6021      398.03016      721.32568      4619.225      -4731.4331     -475.25842      90776.533      44.942566      44.942566      44.942566      0.93393077     256.54725     -223.7616       1340.5091    
    105000   105000         491.92748     -792.16852      19758.642      20821.325      11523.985      9297.3399      5184.724       4730.3356     -1631.8374      390.30077      734.11095      4620.6603     -4730.9544     -469.02217      91983.522      45.140879      45.140879      45.140879      0.92167591    -301.51683     -1359.7601     -715.22868    
    106000   106000         489.47446      1265.5777      22414.908      20724.976      11466.52       9258.4566      5123.9648      4636.0553     -1618.725       400.17241      830.50201      4617.163      -4730.6759     -471.19306      91559.734      45.071448      45.071448      45.071448      0.92594193     422.87736      1915.7093      1458.1463    
    107000   107000         486.94098     -253.61744      20400.094      20736.306      11407.17       9329.1364      5190.114       4624.3107     -1529.3853      408.80439      744.86693      4619.4548     -4729.0291     -474.61792      90899.035      44.962773      44.962773      44.962773      0.93267214    -2521.8821      1916.5058     -155.47603    
    108000   108000         491.25997     -64.112783      20872.477      20958.882      11508.347      9450.5344      5252.5301      4723.1579     -1628.7265      396.44898      808.57889      4620.7008     -4722.1559     -466.85682      92410.155      45.210561      45.210561      45.210561      0.91742078    -1029.7522      5.9952114      831.41863    
    109000   109000         483.12183      1456.0739      22537.299      20602.021      11317.702      9284.319       5273.9227      4628.9515     -1603.2048      405.29915      700.20409      4610.7863     -4731.6399     -473.39025      91134.769      45.001608      45.001608      45.001608      0.93025963     3699.3055     -221.05595      889.97224    
    110000   110000         491.68583     -76.826175      20843.123      20946.545      11518.324      9428.2214      5248.0968      4624.2415     -1582.3271      398.42458      853.9212       4609.6046     -4723.7402     -467.38498      92305.728      45.193525      45.193525      45.193525      0.91845868    -390.30833      351.98501     -192.1552     
    111000   111000         487.892        62.679767      20779.356      20695.036      11429.449      9265.5875      5121.9196      4601.5618     -1550.1955      408.96233      806.73415      4605.1647     -4728.5595     -467.7126       92241.072      45.182971      45.182971      45.182971      0.91910247    -1111.5989      2792.3277     -1492.6894    
    112000   112000         488.01125      1089.0876      22177.422      20726.941      11432.243      9294.6981      5213.2398      4678.7639     -1688.5441      394.36942      808.77467      4620.1157     -4732.0212     -472.4219       91321.572      45.032334      45.032334      45.032334      0.92835674     561.16716      1043.924       1662.1717    
    113000   113000         495.39435     -175.12973      20643.448      20878.105      11605.2        9272.905       5176.7468      4624.187      -1589.1719      397.21455      762.23932      4627.4783     -4725.7891     -469.5756       91875.112      45.123138      45.123138      45.123138      0.92276347    -625.09125     -626.91759      726.61966    
    114000   114000         487.33939      1099.0366      22080.032      20608.469      11416.503      9191.9656      5150.2344      4561.9647     -1620.5675      391.75248      820.56936      4616.8317     -4728.8196     -469.90786      91810.15       45.1125        45.1125        45.1125        0.92341639     1942.0024     -341.09143      1696.1988    
    115000   115000         493.11848      1573.762       23037.34       20943.135      11551.885      9391.2495      5213.4852      4720.5243     -1625.1609      392.72506      810.49973      4608.5864     -4729.4102     -472.82354      91244          45.01958       45.01958       45.01958       0.92914599     791.79324      1462.916       2466.5767    
    116000   116000         485.03643      21.122607      20619.034      20590.954      11362.554      9228.4001      5201.2931      4639.3644     -1600.2841      411.19837      694.01793      4611.7444     -4728.934      -473.28264      91155.49       45.005018      45.005018      45.005018      0.93004818    -27.464834      121.10569     -30.273031    
    117000   117000         477.55968     -284.37907      20013.983      20396.753      11187.402      9209.3515      5147.5515      4664.0061     -1659.7518      386.46311      795.99297      4601.3989     -4726.3092     -467.45405      92292.09       45.191299      45.191299      45.191299      0.9185944     -702.04904     -1190.4788      1039.3906    
    118000   118000         490.03202      252.27184      21126.435      20791.777      11479.581      9312.1955      5166.0715      4734.2393     -1598.533       407.12335      714.73846      4620.8541     -4732.2982     -474.29261      90961.381      44.973051      44.973051      44.973051      0.93203286    -1840.2871      1842.5256      754.57696    
    119000   119000         488.12079      158.96738      20998.31       20784.46       11434.809      9349.6511      5249.2815      4629.2873     -1628.5984      403.32143      791.77546      4625.3498     -4720.7659     -467.7105       92241.486      45.183038      45.183038      45.183038      0.91909834     319.03023      674.22662     -516.35471    
    120000   120000         479.79896      1913.1961      23083.002      20545.632      11239.86       9305.772       5196.951       4689.6077     -1636.3616      402.25945      772.08095      4608.709      -4727.4745     -474.41113      90938.658      44.969305      44.969305      44.969305      0.93226576     2444.1925      1563.195       1732.2009    
    121000   121000         490.3356       295.9381       21230.333      20831.453      11486.693      9344.7603      5223.9747      4654.922      -1573.8053      399.33393      762.86071      4602.596      -4725.1217     -466.80851      92419.718      45.212121      45.212121      45.212121      0.91732586     2374.8402     -718.41919     -768.60668    
    122000   122000         490.48541      305.05301      21101.447      20690.868      11490.203      9200.6657      5123.5609      4573.298      -1579.6851      395.63917      808.69732      4605.0215     -4725.8662     -467.47455      92288.041      45.190638      45.190638      45.190638      0.9186347      202.6733      -693.32834      1405.8141    
    123000   123000         479.3802       388.96657      20944.235      20421.877      11230.05       9191.8271      5167.168       4598.5611     -1689.701       392.1921       845.22271      4607.184      -4728.7998     -468.51465      92083.163      45.157173      45.157173      45.157173      0.9206786      866.76186     -837.30919      1137.447     
    124000   124000         486.91504     -443.24889      20171.408      20766.96       11406.562      9360.3976      5106.6547      4683.1026     -1463.07        406.39539      724.25223      4627.9852     -4724.9225     -468.28173      92128.964      45.164658      45.164658      45.164658      0.92022089    -37.527845     -77.211646     -1215.0072    
    125000   125000         488.30669      172.92932      20882.865      20652.405      11439.163      9213.242       5041.6262      4655.8399     -1547.368       386.78122      796.52817      4608.4208     -4728.5863     -472.12042      91379.889      45.041918      45.041918      45.041918      0.92776429     1226.3111     -18.985408     -688.53772    
    126000   126000         479.55852     -1755.5085      18194.731      20559.334      11234.227      9325.1073      5266.2365      4592.4344     -1540.3724      402.1594       743.46096      4592.3833     -4731.1949     -467.11515      92359.048      45.202225      45.202225      45.202225      0.91792844    -77.148593     -1301.5333     -3887.8437    
    127000   127000         487.64213     -336.69749      20177.277      20626.854      11423.595      9203.2586      5227.3308      4598.0381     -1657.5112      393.27142      761.47235      4607.3445     -4726.6874     -471.21034      91556.375      45.070897      45.070897      45.070897      0.9259759     -11.147435     -476.17981     -522.76521    
    128000   128000         487.27829     -0.6560119      20694.517      20695.401      11415.072      9280.3292      5147.866       4711.1564     -1624.5806      388.3907       762.98734      4617.6626     -4723.1533     -467.03794      92374.317      45.204716      45.204716      45.204716      0.91777671    -179.35941     -315.15371      492.54508    
    129000   129000         483.86612      362.04927      20919.707      20439.786      11335.138      9104.6483      5017.2774      4631.7746     -1626.3468      400.59937      786.68876      4623.2704     -4728.6153     -474.65461      90892.009      44.961615      44.961615      44.961615      0.93274423     1893.4531      363.98303     -1171.2883    
    130000   130000         489.91915      628.23751      21566.313      20729.746      11476.937      9252.8091      5193.197       4646.7551     -1635.8762      396.7718       767.74754      4614.9146     -4730.7006     -472.50103      91306.279      45.02982       45.02982       45.02982       0.92851224     448.04211      406.43017      1030.2402    
    131000   131000         489.4272      -508.49101      20016.32       20697.813      11465.413      9232.4001      5217.2664      4699.0662     -1729.0909      387.76964      770.00842      4613.8951     -4726.5147     -469.46281      91897.186      45.126752      45.126752      45.126752      0.92254181    -109.87396     -1540.6398      125.04071    
    132000   132000         480.33238      816.39296      21500.745      20403.058      11252.356      9150.7023      5012.5889      4733.7635     -1645.2511      395.18943      762.63611      4617.9497     -4726.1741     -467.95082      92194.113      45.175302      45.175302      45.175302      0.91957061     684.4675       1289.3019      475.40949    
    133000   133000         488.31228      315.84268      21069.409      20649.446      11439.294      9210.1519      5040.906       4726.833      -1608.4655      414.54245      748.86186      4617.5771     -4730.1029     -473.19468      91172.435      45.007807      45.007807      45.007807      0.92987532    -450.14514      5.2174146      1392.4558    
    134000   134000         481.37861      1881.0748      23053.138      20536.595      11276.865      9259.73        5217.3003      4647.9221     -1765.5716      410.45377      862.3258       4618.7774     -4731.4778     -470.30654      91732.322      45.099749      45.099749      45.099749      0.92419984     1654.0725      3335.7536      653.39824    
    135000   135000         481.31309     -772.24225      19554.634      20594.172      11275.33       9318.8421      5180.8466      4700.0297     -1571.8125      398.89598      718.47762      4620.5279     -4728.1232     -467.40381      92302.01       45.192918      45.192918      45.192918      0.91849567    -354.06993     -692.10842     -1270.5484    
    136000   136000         486.69048      1031.2496      22165.976      20788.432      11401.302      9387.1305      5260.2547      4776.6412     -1714.7095      397.56726      775.07764      4623.3465     -4731.0472     -471.01839      91593.686      45.077018      45.077018      45.077018      0.9255987      176.06958      2630.189       287.49018    
    137000   137000         480.53843      975.32975      21776.833      20487.652      11257.183      9230.4693      5131.2657      4723.1498     -1677.288       381.42691      782.0797       4626.7069     -4736.8717     -476.01101      90633.011      44.918868      44.918868      44.918868      0.93540969    -97.521019      315.44963      2708.0606    
    138000   138000         475.17688     -691.95655      19515.787      20439.24       11131.582      9307.6578      5149.733       4665.1058     -1536.7128      391.15205      741.40612      4629.6856     -4732.7119     -471.45847      91508.189      45.062988      45.062988      45.062988      0.9264635     -326.13966     -259.52197     -1490.208     
    139000   139000         486.70565     -662.43883      19702.69       20581.253      11401.657      9179.5955      5184.2831      4638.83       -1617.1582      393.26746      706.2525       4615.437      -4741.3164     -474.40844      90939.172      44.96939       44.96939       44.96939       0.93226049     2001.1833     -2488.0724     -1500.4274    
    140000   140000         482.39522     -372.50944      20122.615      20623.646      11300.68       9322.9661      5357.8873      4598.4126     -1712.494       402.44537      776.37517      4630.7827     -4730.443      -467.79078      92225.655      45.180453      45.180453      45.180453      0.91925611    -1028.4568      280.87255     -369.94413    
    141000   141000         481.67439      112.33882      20522.065      20373.124      11283.794      9089.3296      5081.6292      4569.3738     -1600.7798      397.18817      755.80891      4623.5417     -4737.4322     -474.56425      90909.315      44.964468      44.964468      44.964468      0.93256666    -2295.2722      1993.2733      639.01536    
    142000   142000         483.41578      650.3093       21437.327      20566.743      11324.588      9242.1547      5144.1522      4684.9572     -1622.1895      418.02532      719.31857      4632.4406     -4734.5497     -469.99006      91794.092      45.10987       45.10987       45.10987       0.92357792    -686.70026      1308.7705      1328.8576    
    143000   143000         485.25095     -821.79154      19397.094      20492.089      11367.579      9124.5102      5205.064       4631.5443     -1693.8369      384.91013      728.26859      4607.6818     -4739.1217     -472.20307      91363.893      45.03929       45.03929       45.03929       0.92792671    -8.1643107     -393.56434     -2063.646     
    144000   144000         488.49392     -219.10836      20283.804      20577.039      11443.549      9133.4898      5031.544       4623.0223     -1561.7551      409.10419      755.35122      4606.5471     -4730.3239     -470.13359      91766.069      45.105279      45.105279      45.105279      0.92385996    -1220.8071     -591.38729      1154.8693    
    145000   145000         481.01546     -60.713828      20358.583      20439.325      11268.358      9170.9677      5093.6494      4615.7582     -1585.8957      392.12995      774.921        4612.0975     -4731.6926     -473.1153       91187.732      45.010324      45.010324      45.010324      0.92971933    -2216.8509      1217.7431      816.96629    
    146000   146000         492.15363      874.69466      21875.859      20711.798      11529.283      9182.516       5142.4621      4699.2414     -1685.2367      391.60613      736.32621      4626.3945     -4728.2778     -472.78109      91252.193      45.020927      45.020927      45.020927      0.92906257     423.83011      1035.6799      1164.574     
    147000   147000         489.27241      340.87973      21038.209      20590.441      11461.787      9128.6546      5069.9936      4666.7283     -1637.5252      395.20529      751.712        4619.3817     -4736.8411     -478.99084      90069.178      44.825527      44.825527      44.825527      0.94126536     840.18844      950.20056     -767.74982    
    148000   148000         479.62223     -174.2917       20086.405      20318.597      11235.72       9082.8773      5033.2055      4604.5849     -1574.4634      409.47868      712.24474      4626.6848     -4728.8579     -472.29066      91346.949      45.036505      45.036505      45.036505      0.92809884    -1021.6425     -678.37028      1177.1377    
    149000   149000         486.73281     -1053.9227      19248.882      20662.978      11402.293      9260.6843      5168.4938      4596.5837     -1575.0039      420.38117      779.51676      4602.8401     -4732.1273     -468.93134      92001.339      45.143793      45.143793      45.143793      0.92149743    -2697.1258     -552.75663      88.114174    
    150000   150000         481.28919     -995.84378      19094.991      20422.3        11274.77       9147.5297      5095.7426      4551.895      -1523.3159      411.93134      731.65918      4605.6014     -4725.9839     -472.06138      91391.316      45.043795      45.043795      45.043795      0.92764828    -1368.6978     -1796.6705      177.837      
    151000   151000         488.02573      1787.8893      23299.539      20891.079      11432.582      9458.4971      5237.817       4719.8884     -1628.6769      408.69548      819.97472      4627.9814     -4727.1831     -467.06838      92368.298      45.203734      45.203734      45.203734      0.91783652     2574.1383      2408.7461      380.78366    
    152000   152000         476.8219      -254.12832      20167.281      20505.224      11170.119      9335.1056      5185.0775      4760.3178     -1633.8368      377.66324      765.18141      4612.7667     -4732.0644     -473.13835      91183.29       45.009593      45.009593      45.009593      0.92976462     417.81117     -336.73727     -843.45885    
    153000   153000         489.59731      593.22133      21383.778      20584.184      11469.398      9114.7858      5123.091       4679.1688     -1721.2831      381.40896      771.12232      4612.0149     -4730.737      -466.79503      92422.388      45.212556      45.212556      45.212556      0.91729936     1037.0129      179.49816      563.15292    
    154000   154000         485.22862     -211.55059      20313.129      20595.671      11367.056      9228.6153      5174.6319      4596.7904     -1570.5416      400.0417       742.10111      4611.6944     -4726.1025     -471.09624      91578.552      45.074535      45.074535      45.074535      0.92575167     1280.1347     -70.074722     -1844.7118    
    155000   155000         479.24883     -334.48054      19920.918      20372.449      11226.972      9145.4769      5220.1355      4458.0128     -1596.2669      400.34597      765.82833      4620.7492     -4723.3281     -466.08232      92563.715      45.23559       45.23559       45.23559       0.91589882    -1046.0376      1016.8554     -974.2594     
    156000   156000         482.74736      1351.3577      22257.166      20457.672      11308.929      9148.7422      5145.4537      4605.3661     -1671.3044      386.51542      797.10255      4616.1595     -4730.5506     -472.49717      91307.026      45.029943      45.029943      45.029943      0.92850464     2204.7595     -5.9446274      1855.2581    
    157000   157000         477.08314     -624.63727      19465.058      20311.452      11176.239      9135.2135      5124.1254      4557.6463     -1586.2295      398.2505       755.01316      4612.3658     -4725.9582     -464.33846      92911.345      45.292148      45.292148      45.292148      0.91247196    -1737.9199      1220.6706     -1356.6625    
    158000   158000         477.7738      -64.270095      20245.442      20332.256      11192.418      9139.8376      5146.698       4667.3985     -1722.2073      385.90815      770.93298      4619.6972     -4728.5899     -465.80258      92619.304      45.244643      45.244643      45.244643      0.91534911    -816.45846     -48.46518       672.11336    
    159000   159000         483.14145      1381.0798      22383.822      20531.796      11318.161      9213.635       4990.9301      4747.3043     -1619.8699      396.05903      827.2405       4604.8725     -4732.9014     -469.19253      91950.124      45.135415      45.135415      45.135415      0.92201069     1643.5587      360.99669      2138.6839    
    160000   160000         468.64996      609.66151      21025.258      20211.085      10978.681      9232.4041      5229.0632      4658.6573     -1646.823       396.26795      715.39657      4614.0252     -4734.1831     -471.14144      91569.764      45.073093      45.073093      45.073093      0.92584051     382.82794      247.76325      1198.3933    
    161000   161000         491.57332     -423.83968      20130.233      20693.901      11515.688      9178.2125      5099.9961      4736.0287     -1662.2893      387.52347      741.59318      4612.3752     -4737.0149     -473.10546      91189.628      45.010636      45.010636      45.010636      0.9297        -1484.7241      722.14554     -508.94044    
    162000   162000         477.37248     -1361.8135      18580.474      20404.521      11183.017      9221.5046      5177.3484      4657.0018     -1649.9326      401.81969      751.05146      4612.538      -4728.3223     -469.74365      91842.244      45.117756      45.117756      45.117756      0.9230937     -1893.3565      240.94903     -2433.0329    
    163000   163000         480.25758     -651.73573      19704.998      20579.666      11250.603      9329.0623      5214.2039      4633.622      -1542.1858      396.3467       745.42587      4613.1431     -4731.4934     -468.82151      92022.891      45.147318      45.147318      45.147318      0.92128161     93.467592     -527.83042     -1520.8444    
    164000   164000         476.22881      1418.2967      22218.193      20328.07       11156.225      9171.8454      5098.6814      4584.6456     -1633.2202      403.81553      823.08788      4622.0958     -4727.2607     -472.1243       91379.137      45.041794      45.041794      45.041794      0.92777191     1213.5766      1526.7661      1514.5473    
    165000   165000         487.15514     -42.846962      20585.42       20642.755      11412.187      9230.5676      5262.7462      4601.6843     -1668.7736      409.67985      729.88412      4628.7638     -4733.417      -470.20182      91752.752      45.103097      45.103097      45.103097      0.92399405    -841.58949      357.31315      355.73545    
    166000   166000         477.83301     -349.03799      19972.229      20437.138      11193.805      9243.3328      5253.0942      4645.2912     -1655.4817      399.65512      721.85402      4615.5103     -4736.5903     -472.37157      91331.302      45.033934      45.033934      45.033934      0.92825783    -735.35517      98.406309     -410.1651     
    167000   167000         480.30791     -554.66758      19748.334      20495.641      11251.782      9243.8584      5080.5243      4635.4172     -1552.1601      371.85068      818.22609      4619.653      -4729.6527     -466.99592      92382.63       45.206072      45.206072      45.206072      0.91769412    -105.05787     -177.59843     -1381.3464    
    168000   168000         489.10232      1277.0019      22403.367      20700.952      11457.802      9243.1498      5187.034       4689.2073     -1746.3615      397.53388      847.55653      4604.3823     -4736.2028     -471.96015      91410.918      45.047016      45.047016      45.047016      0.92744935     587.41021      1359.8088      1883.7867    
    169000   169000         483.83885      511.47844      21223.108      20533.669      11334.499      9199.1697      5064.9991      4633.4149     -1596.0748      403.27565      796.02386      4624.8542     -4727.3232     -466.77819      92425.722      45.2131        45.2131        45.2131        0.91726626     1230.5157      90.80151       213.11814    
    170000   170000         477.11745      369.33481      20794.489      20303.642      11177.042      9126.5993      5084.0327      4661.5877     -1675.1081      412.14595      764.66699      4608.585      -4729.3109     -473.42686      91127.721      45.000448      45.000448      45.000448      0.93033158     971.85631     -533.71952      669.86763    
    171000   171000         482.46544      584.79779      21291.888      20502.662      11302.325      9200.3369      5207.5547      4632.1956     -1710.524       401.78677      784.30798      4612.7498     -4727.734      -466.21258      92537.852      45.231376      45.231376      45.231376      0.9161548      1605.388      -636.4532       785.45862    
    172000   172000         476.55045     -1624.7441      17972.579      20153.181      11163.76       8989.4214      5069.9192      4484.16       -1542.4253      396.19126      700.16747      4610.7338     -4729.3252     -468.8003       92027.055      45.147999      45.147999      45.147999      0.92123993    -2593.9747     -554.19272     -1726.0648    
    173000   173000         473.30332     -979.1387       19121.173      20440.073      11087.692      9352.3818      5277.6707      4624.3504     -1610.4367      408.58338      766.48596      4612.9274     -4727.1993     -467.10166      92361.716      45.202661      45.202661      45.202661      0.91790192    -853.98165     -1934.9883     -148.44614    
    174000   174000         484.46359      657.20417      21289.126      20412.406      11349.134      9063.2718      5000.7041      4677.0544     -1650.9729      401.07972      745.28787      4619.6994     -4729.5808     -471.64883      91471.257      45.056925      45.056925      45.056925      0.92683756     36.930427      1338.8412      595.8409     
    175000   175000         473.89108      1130.9646      21769.977      20259.404      11101.461      9157.9431      5122.1596      4645.4405     -1712.4554      416.17048      797.27965      4621.0448     -4731.6965     -471.07124      91583.411      45.075332      45.075332      45.075332      0.92570255     1072.3073      797.75816      1522.8284    
    176000   176000         483.98836      224.47846      20815.094      20512.687      11338.001      9174.6854      5056.4248      4680.4232     -1646.2859      395.85804      799.52736      4620.8534     -4732.1155     -467.04829      92372.271      45.204382      45.204382      45.204382      0.91779704    -828.11891     -1618.5363      3120.0906    
    177000   177000         480.84684      453.16899      20826.744      20216.483      11264.408      8952.0758      5128.9017      4468.7268     -1711.8899      386.52243      787.93808      4615.558      -4723.6813     -467.22312      92337.706      45.198743      45.198743      45.198743      0.9181406     -470.69143      1986.6772     -156.47884    
    178000   178000         479.28062      201.54416      20668.027      20399.217      11227.717      9171.4997      5134.0993      4653.385      -1665.6451      394.35302      767.87028      4612.8569     -4725.4198     -471.73997      91453.584      45.054023      45.054023      45.054023      0.92701667     409.46256      1266.5671     -1071.3972    
    179000   179000         473.57812     -398.06542      19804.687      20331.258      11094.129      9237.1291      5128.8284      4693.8246     -1607.3249      400.13055      716.74273      4639.2375     -4734.3098     -475.63791      90704.104      44.93061       44.93061       44.93061       0.93467652     820.53511     -1589.16       -425.57137    
    180000   180000         486.44766      1037.6874      21954.708      20576.871      11395.614      9181.257       5185.7534      4638.8988     -1639.7386      403.92779      706.20186      4618.222      -4732.0082     -473.85779      91044.85       44.986803      44.986803      44.986803      0.93117839     928.83815      695.68648      1488.5376    
    181000   181000         471.45071      295.5447       20534.058      20141.354      11044.292      9097.0617      5064.0286      4601.3425     -1588.3344      396.55947      747.46913      4606.1741     -4730.1778     -473.51857      91110.072      44.997543      44.997543      44.997543      0.9305118      2133.2685     -2963.5382      1716.9038    
    182000   182000         486.16208      1745.8502      22711.645      20398.197      11388.924      9009.2739      4947.1847      4578.4572     -1657.3624      403.97373      841.89686      4627.3713     -4732.2475     -474.81728      90860.869      44.95648       44.95648       44.95648       0.9330639      1197.4104      2359.1999      1680.9402    
    183000   183000         481.65756      1294.9938      22366.114      20633.696      11283.4        9350.2964      5233.0212      4659.5397     -1621.9009      402.2527       803.56085      4608.0522     -4734.2294     -470.32099      91729.504      45.099288      45.099288      45.099288      0.92422822     780.24431      2071.4635      1033.2736    
    184000   184000         481.09062      717.89753      21338.905      20371.427      11270.118      9101.3086      5048.7116      4672.3889     -1714.7844      388.49343      822.43283      4612.7243     -4728.658      -466.87508      92406.54       45.209972      45.209972      45.209972      0.91745667     2729.1021      1874.455      -2449.8645    
    185000   185000         486.47096     -207.6457       20228.915      20504.802      11396.159      9108.643       5061.6406      4614.6767     -1572.364       393.02826      714.26739      4626.0019     -4728.6078     -473.55585      91102.899      44.996362      44.996362      44.996362      0.93058507     564.21975     -339.82027     -847.33658    
    186000   186000         473.39492     -1426.4018      18341.776      20252.007      11089.838      9162.1693      5081.3945      4652.2697     -1594.0203      390.40244      743.28601      4620.757      -4731.9201     -469.82403      91826.53       45.115183      45.115183      45.115183      0.92325166    -2509.8478     -518.11112     -1251.2465    
    187000   187000         480.64228     -63.765871      20446.735      20532.263      11259.616      9272.6478      5103.6457      4653.9572     -1562.2667      419.10921      767.43391      4618.1758     -4727.4073     -469.09019      91970.183      45.138697      45.138697      45.138697      0.92180959    -1569.6773      102.43709      1275.9426    
    188000   188000         478.02455      332.55102      20841.542      20396.899      11198.292      9198.6065      5179.7807      4637.6674     -1675.1152      395.26105      771.47927      4615.6812     -4726.148      -470.57147      91680.678      45.091284      45.091284      45.091284      0.92472044     250.46226      769.42795     -22.237163    
    189000   189000         476.61014     -202.52926      19920.827      20189.865      11165.158      9024.7067      5198.8662      4527.2606     -1691.3917      386.49786      738.62224      4606.7915     -4741.94       -473.6462       91085.52       44.9935        44.9935        44.9935        0.93076261    -1383.0148      22.136803      753.29023    
    190000   190000         483.40903      14.91081       20461.256      20441.592      11324.43       9117.1618      5234.5679      4549.0471     -1692.374       387.23154      749.03916      4622.5356     -4732.8854     -477.09887      90426.354      44.884701      44.884701      44.884701      0.93754744    -890.78578      2169.3587     -1233.8405    
    191000   191000         471.13525      304.40798      20512.413      20107.222      11036.902      9070.3196      5055.2796      4577.2079     -1579.7039      409.27827      721.64956      4617.1163     -4730.5082     -472.68832      91270.102      45.023872      45.023872      45.023872      0.92888027     298.54743      1129.2212     -514.54474    
    192000   192000         478.68654     -778.32161      19329.112      20364.36       11213.8        9150.5597      5082.142       4644.7175     -1605.4896      387.83745      738.36992      4634.0357     -4731.0533     -473.03613      91202.994      45.012835      45.012835      45.012835      0.92956375    -199.87874     -1455.6589     -679.42719    
    193000   193000         491.12649      471.54484      21231.599      20602.781      11505.221      9097.5609      5148.4344      4618.9372     -1671.9764      399.2955       707.67975      4623.74       -4728.5496     -471.82106      91437.866      45.051442      45.051442      45.051442      0.92717602     1401.6436      1563.7243     -1550.7334    
    194000   194000         477.55348     -331.2066       19848.456      20288.97       11187.257      9101.7131      5137.9414      4612.7315     -1671.1436      394.88088      743.65571      4616.0913     -4732.4441     -473.06269      91197.873      45.011992      45.011992      45.011992      0.92961595    -1059.1526     -94.355531      159.88831    
    195000   195000         474.85381     -428.12954      19731.803      20303.633      11124.014      9179.6188      5169.0387      4613.3064     -1598.7142      404.44098      706.28685      4614.9909     -4729.7309     -471.07251      91583.165      45.075292      45.075292      45.075292      0.92570504    -1568.5757      450.06211     -165.87508    
    196000   196000         479.76092     -1700.2612      18096.722      20366.372      11238.969      9127.4035      5045.2726      4624.3935     -1615.8425      392.67785      786.38721      4621.4334     -4726.9186     -471.34185      91530.83       45.066704      45.066704      45.066704      0.92623433    -1828.8874     -3805.966       534.06995    
    197000   197000         478.48925     -256.18379      19823.778      20166.301      11209.178      8957.1225      5045.8306      4556.5743     -1670.4914      388.07463      760.17001      4608.849      -4731.8847     -470.58824      91677.41       45.090749      45.090749      45.090749      0.9247534     -983.70835      2162.4144     -1947.2575    
    198000   198000         477.19436     -334.39342      19751.761      20199.12       11178.844      9020.2763      4987.3683      4613.4646     -1667.8259      381.63146      825.61369      4612.6379     -4732.6137     -470.3057       91732.486      45.099776      45.099776      45.099776      0.92419818    -230.39687      841.54527     -1614.3287    
    199000   199000         479.90742     -1363.8898      18640.068      20484.974      11242.401      9242.5731      5278.6829      4603.4386     -1683.9784      392.37815      763.30758      4618.6749     -4729.9306     -465.14065      92751.109      45.266096      45.266096      45.266096      0.91404834    -2683.3425     -185.79891     -1222.528     
    200000   200000         482.0548       1588.2505      22523.354      20414.221      11292.705      9121.5153      5116.6583      4573.5721     -1668.2389      406.74638      787.96267      4630.4211     -4725.6064     -473.79925      91056.098      44.988655      44.988655      44.988655      0.93106337    -271.59394      1963.8237      3072.5218    
    201000   201000         469.45025     -314.52666      19510.101      19926.527      10997.429      8929.0975      5076.7645      4517.0533     -1658.2347      381.70294      725.40984      4623.8271     -4737.4254     -475.22461      90782.99       44.943631      44.943631      44.943631      0.93386434     435.71412      72.592964     -1451.8871    
    202000   202000         469.52915      384.81802      20810.015      20298.136      10999.277      9298.8585      5234.8376      4655.1082     -1661.3372      408.38769      770.08167      4625.0727     -4733.2921     -473.00672      91208.663      45.013768      45.013768      45.013768      0.92950597     608.01547      955.3007      -408.8621     
    203000   203000         479.97078      235.81094      20646.43       20331.715      11243.885      9087.8298      5043.4074      4706.0208     -1718.8629      381.76576      782.88341      4621.1419     -4728.5265     -471.43936      91511.899      45.063597      45.063597      45.063597      0.92642594    -574.73784      772.94427      509.2264     
    204000   204000         470.52801     -113.47392      20011.259      20164.364      11022.677      9141.6876      5131.1987      4658.0266     -1675.9392      403.44329      740.75822      4618.5204     -4734.3204     -466.31954      92516.628      45.227918      45.227918      45.227918      0.91636497    -1674.2412      305.08914      1028.7303    
    205000   205000         483.95411     -1742.4728      18055.159      20361.686      11337.199      9024.4873      4996.1359      4623.3812     -1534.103       392.36086      651.50297      4629.6289     -4734.4194     -475.32074      90764.629      44.940601      44.940601      44.940601      0.93405325    -130.54617     -2860.5876     -2236.2846    
    206000   206000         472.40176     -330.38698      19603.207      20043.727      11066.571      8977.1557      5132.3442      4486.0925     -1694.8048      407.06656      747.1245       4631.6005     -4732.2677     -471.88549      91425.382      45.049391      45.049391      45.049391      0.92730263    -118.54277     -321.75344     -550.86475    
    207000   207000         477.68187      1222.7982      21895.987      20266.297      11190.264      9076.0322      5073.6415      4607.3953     -1638.8929      404.20604      754.40703      4609.2082     -4733.9329     -472.09466      91384.874      45.042737      45.042737      45.042737      0.92771367     1522.4267      2260.869      -114.90128    
    208000   208000         478.9108      -1200.0073      18745.726      20350.685      11219.053      9131.6316      5183.9744      4507.9863     -1575.4358      385.68469      748.80757      4611.938      -4731.3236     -470.43444      91707.383      45.095662      45.095662      45.095662      0.92445116    -737.85546      449.86643     -3312.0329    
    209000   209000         474.39007     -2.7591549      20029.62       20033.265      11113.15       8920.1149      5067.4124      4551.7237     -1653.0645      402.93548      652.19482      4633.5136     -4734.6006     -476.28851      90580.205      44.910143      44.910143      44.910143      0.93595501     776.15634     -214.14722     -570.28659    
    210000   210000         475.66178     -1322.7522      18319.385      20092.783      11142.941      8949.8416      4977.748       4432.3871     -1529.8645      411.86553      774.58325      4608.9989     -4725.8765     -469.30106      91928.86       45.131935      45.131935      45.131935      0.92222396    -1115.541      -2156.2528     -696.46258    
    211000   211000         487.25909     -919.4103       19340.613      20565.1        11414.622      9150.4783      5179.9596      4510.3957     -1566.7418      400.42353      738.47358      4617.7387     -4729.771      -472.42667      91320.652      45.032183      45.032183      45.032183      0.9283661     -675.94035     -1170.0406     -912.24999    
    212000   212000         474.36397      913.83132      21461.482      20246.874      11112.539      9134.3351      5126.1099      4649.4881     -1700.5277      386.70715      780.78776      4621.4035     -4729.6337     -473.379        91136.935      45.001965      45.001965      45.001965      0.93023752     1018.1589      1671.7472      51.58786     
    213000   213000         472.88714     -1193.9964      18545.168      20149.485      11077.942      9071.5424      5106.4604      4629.0206     -1660.0995      393.3249       715.94409      4619.1241     -4732.2323     -468.2657       92132.119      45.165174      45.165174      45.165174      0.92018937    -269.94511     -152.00296     -3160.0411    
    214000   214000         479.67244     -710.92409      19417.615      20361.982      11236.896      9125.0861      5092.209       4628.3545     -1645.9698      388.32494      772.56799      4621.4862     -4731.8867     -473.6546       91083.905      44.993234      44.993234      44.993234      0.93077912    -1957.0168     -1315.4623      1139.7068    
    215000   215000         475.42585      606.76542      20757.18       19951.517      11137.415      8814.1025      4954.1394      4484.5887     -1670.4726      399.61047      760.42018      4620.7614     -4734.945      -473.85612      91045.169      44.986855      44.986855      44.986855      0.93117512     2009.007       33.285686     -221.99646    
    216000   216000         477.29953     -2284.0823      17096.864      20179.655      11181.308      8998.3473      5028.5309      4533.2332     -1558.0676      400.74647      715.11697      4609.1599     -4730.3726     -466.1729       92545.73       45.23266       45.23266       45.23266       0.91607681    -1923.883      -3227.1368     -1701.2273    
    217000   217000         482.92602      149.75341      20522.99       20323.055      11313.115      9009.9402      5080.2851      4582.83       -1647.8872      396.12385      734.911        4596.8005     -4733.123      -471.26802      91545.171      45.069058      45.069058      45.069058      0.92608923     422.55618     -9.6253383      36.329375    
    218000   218000         473.02059      1229.4362      21767.167      20127.373      11081.068      9046.3047      5083.453       4545.3438     -1652.8829      388.57104      791.25753      4621.9896     -4731.4273     -471.73282      91454.97       45.054251      45.054251      45.054251      0.92700262     616.33894      2411.5244      660.44533    
    219000   219000         471.42878      301.82395      20583.011      20179.184      11043.778      9135.4051      5226.7402      4519.1317     -1682.2092      409.46719      781.5744       4610.2488     -4729.5479     -470.2594       91741.518      45.101256      45.101256      45.101256      0.9241072     -275.7976       1332.9878     -151.71837    
    220000   220000         482.43746     -103.06463      20110.631      20247.656      11301.67       8945.9859      5022.5242      4639.9159     -1706.4565      374.64744      724.4195       4622.9809     -4732.0455     -473.24868      91162.032      45.006095      45.006095      45.006095      0.92998144     0.90508837    -331.38153      21.282555    
    221000   221000         484.75352     -335.34277      20021.697      20473.5        11355.926      9117.5741      5117.9076      4627.7573     -1687.1931      387.54732      783.48957      4614.7932     -4726.7277     -467.00194      92381.439      45.205878      45.205878      45.205878      0.91770596     53.42909      -29.187051     -1030.2704    
    222000   222000         474.45359      460.6622       20772.555      20161.414      11114.638      9046.7754      5183.6032      4553.116      -1713.0342      394.06247      731.48155      4628.6632     -4731.1169     -474.2639       90966.888      44.973958      44.973958      44.973958      0.93197645    -738.7085       867.56187      1253.1332    
    223000   223000         476.99543      81.492214      20354.63       20246.054      11174.184      9071.8703      5105.7216      4580.5824     -1668.4714      404.77383      758.86917      4617.9741     -4727.5795     -472.23828      91357.082      45.03817       45.03817       45.03817       0.92799589    -1222.8822      133.78516      1333.5737    
    224000   224000         474.85604     -1150.2642      18717.646      20250.497      11124.066      9126.4307      5114.7627      4541.4771     -1599.9573      408.44215      770.61739      4619.2911     -4728.2025     -472.14696      91374.752      45.041074      45.041074      45.041074      0.92781644    -2080.3227      834.31178     -2204.7818    
    225000   225000         471.54379     -1017.7083      18826.516      20181.392      11046.473      9134.9189      5125.477       4635.0021     -1657.652       396.89273      738.65022      4626.7238     -4730.175      -472.61045      91285.14       45.026345      45.026345      45.026345      0.92872725    -2213.1962     -1572.3052      732.37641    
    226000   226000         479.24559     -411.90188      19640.485      20196.595      11226.896      8969.6989      4979.6097      4504.5867     -1587.9844      407.63924      775.3202       4616.2507     -4725.7233     -466.02801      92574.503      45.237347      45.237347      45.237347      0.91579209     1135.8122     -2212.9072     -158.6107     
    227000   227000         479.48731     -17.489366      20407.375      20430.755      11232.559      9198.1964      5060.3342      4640.0956     -1607.0037      413.28605      796.68842      4627.1515     -4732.3556     -470.65649      91664.117      45.088569      45.088569      45.088569      0.92488751     273.95879     -926.64151      600.21463    
    228000   228000         476.34091     -854.5143       18922.026      20063.323      11158.851      8904.4725      5086.9681      4501.0294     -1645.2728      386.76995      687.59492      4623.0625     -4735.6795     -471.08577      91580.587      45.074869      45.074869      45.074869      0.92573109    -823.33294     -1270.2074     -470.0026     
    229000   229000         465.4088      -692.66293      18953.167      19871.963      10902.753      8969.2099      5052.2072      4574.6435     -1658.1653      400.9594       718.33838      4618.7409     -4737.5142     -474.33187      90953.853      44.97181       44.97181       44.97181       0.93211001    -1425.4193     -981.04664      328.47714    
    230000   230000         477.47179     -144.26526      20044.683      20237.196      11185.343      9051.8532      4993.0969      4534.5962     -1594.4649      405.39812      831.59838      4613.0803     -4731.4518     -471.49948      91500.23       45.061682      45.061682      45.061682      0.92654409     957.07053     -867.29191     -522.57441    
    231000   231000         477.69005     -107.81582      20212.12       20355.488      11190.456      9165.0316      5041.8847      4669.1275     -1631.6644      408.36664      789.2904       4616.8002     -4728.7736     -473.16416      91178.316      45.008775      45.008775      45.008775      0.92981534     1178.572      -1320.219      -181.80046    
    232000   232000         472.9738      -1028.4658      18731.2        20098.686      11079.972      9018.7132      5081.4948      4503.6739     -1567.2688      404.5411       731.38782      4604.0129     -4739.1287     -473.20186      91171.05       45.007579      45.007579      45.007579      0.92988944    -2111.4871     -853.66361     -120.24662    
    233000   233000         473.34396      1665.7443      22150.415      19946.779      11088.644      8858.1348      4832.2215      4671.451      -1680.3057      395.50422      748.79142      4622.2735     -4731.8011     -475.60646      90710.103      44.9316        44.9316        44.9316        0.93461471     1303.3374      1755.7204      1938.175     
    234000   234000         477.80181     -681.77461      19288.764      20192.576      11193.074      8999.5013      5111.4257      4502.2237     -1611.0165      392.84         731.24386      4605.343      -4732.5584     -474.61578      90899.445      44.962841      44.962841      44.962841      0.93266793    -623.97421     -1647.9743      226.62468    
    235000   235000         473.97531      0.94328207     20003.943      20002.7        11103.434      8899.2657      5014.3934      4564.3899     -1630.0053      390.82152      654.06431      4636.7086     -4731.1068     -477.16938      90412.992      44.88249       44.88249       44.88249       0.937686       462.88139      113.56046     -573.612      
    236000   236000         475.64633     -236.87274      19926.446      20241.239      11142.58       9098.6592      5049.0223      4717.8133     -1690.1868      400.3663       725.57335      4621.5206     -4725.4498     -473.44518      91124.195      44.999868      44.999868      44.999868      0.93036758     490.11907     -1260.9124      60.175131    
    237000   237000         477.34163     -151.19927      19888.205      20089.326      11182.294      8907.0324      5034.1339      4517.1883     -1686.5023      389.04239      769.64621      4616.2817     -4732.7577     -473.01186      91207.674      45.013605      45.013605      45.013605      0.92951605     624.6213       333.35749     -1411.5766    
    238000   238000         476.53548     -426.24206      19683.925      20253.666      11163.409      9090.2574      5152.7023      4608.7608     -1705.6217      394.558        759.31372      4611.3915     -4730.8472     -470.71473      91652.775      45.086709      45.086709      45.086709      0.92500196    -733.94978     -520.81766     -23.958755    
    239000   239000         470.09499      708.85632      21106.613      20156.147      11012.533      9143.6141      5023.3542      4718.2693     -1662.9         395.10943      774.52341      4619.1179     -4723.86       -469.24646      91939.556      45.133686      45.133686      45.133686      0.92211666    -19.379248      1489.7788      656.16941    
    240000   240000         472.9564      -536.36811      19197.133      19916.422      11079.565      8836.8568      5176.0812      4476.2283     -1756.3449      386.84483      683.1058       4599.2628     -4728.3212     -469.17938      91952.7        45.135837      45.135837      45.135837      0.92198485    -940.56701      801.06651     -1469.6038    
    241000   241000         475.8659       1523.564       22129.51       20118.25       11147.723      8970.5267      5116.511       4579.8607     -1710.9581      392.50896      703.39582      4614.8345     -4725.6261     -476.6194       90517.321      44.899747      44.899747      44.899747      0.93660524    -604.04802      3192.4808      1982.2591    
    242000   242000         471.35611     -651.0103       18974.099      19854.847      11042.076      8812.771       5035.9075      4449.5209     -1717.3318      386.77343      772.04585      4609.3495     -4723.4945     -465.06675      92765.848      45.268493      45.268493      45.268493      0.91390311    -597.19031     -263.80296     -1092.0376    
    243000   243000         469.06825     -596.12355      19266.035      20063.081      10988.48       9074.6005      5184.4005      4510.1716     -1633.3138      396.29664      734.15332      4610.5919     -4727.6996     -470.57896      91679.218      45.091045      45.091045      45.091045      0.92473517     248.03747     -2174.4694      138.06133    
    244000   244000         471.32182      455.49517      20715.529      20106.796      11041.273      9065.5235      5126.542       4549.4781     -1690.6372      402.46817      791.17147      4615.3835     -4728.8826     -470.79987      91636.2        45.083991      45.083991      45.083991      0.92516928     1398.009       443.0149      -474.53836    
    245000   245000         468.03897      1332.6504      21620.622      19850.266      10964.368      8885.8984      4952.3066      4563.9251     -1701.6014      389.45059      784.70639      4625.5016     -4728.3904     -473.62533      91089.535      44.994161      44.994161      44.994161      0.9307216      1561.8432      1458.8984      977.20964    
    246000   246000         474.8762       797.71888      21305.098      20237.408      11124.538      9112.87        5158.2468      4603.5924     -1704.4623      384.10817      783.86055      4615.5877     -4728.0632     -470.09323      91773.947      45.10657       45.10657       45.10657       0.92378065    -304.29675      2079.0595      618.39389    
    247000   247000         473.6033       98.183105      20121.462      19990.702      11094.719      8895.9834      5061.4938      4519.8515     -1687.2832      401.206        713.88938      4616.0898     -4729.2638     -472.43534      91318.974      45.031907      45.031907      45.031907      0.92838315     295.81054      86.467141     -87.728364    
    248000   248000         468.99115      1721.6488      22213.801      19913.321      10986.674      8926.6468      5083.7667      4576.8        -1740.4821      390.97462      739.85769      4600.3107     -4724.5808     -470.87471      91621.635      45.081603      45.081603      45.081603      0.92531635     2160.3677      2941.2919      63.28672     
    249000   249000         467.18098     -2880.9686      16138.622      20007.261      10944.269      9062.9918      5103.8353      4527.7775     -1527.8114      400.42463      686.10109      4599.2672     -4726.6026     -468.55401      92075.428      45.155908      45.155908      45.155908      0.92075594    -2377.8703     -3444.1939     -2820.8416    
    250000   250000         475.99286      156.83563      20508.361      20297.692      11150.697      9146.9952      5087.0679      4661.4053     -1608.4615      394.49277      722.93635      4615.7683     -4726.2139     -468.40785      92104.16       45.160605      45.160605      45.160605      0.92046871    -638.46624      151.73905      957.23407    
Loop time of 1135.03 on 1 procs for 250000 steps with 7860 atoms

Performance: 19.030 ns/day, 1.261 hours/ns, 220.258 timesteps/s, 1.731 Matom-step/s
100.0% CPU use with 1 MPI tasks x 1 OpenMP threads

MPI task timing breakdown:
Section |  min time  |  avg time  |  max time  |%varavg| %total
---------------------------------------------------------------
Pair    | 487.02     | 487.02     | 487.02     |   0.0 | 42.91
Bond    | 175.2      | 175.2      | 175.2      |   0.0 | 15.44
Kspace  | 200.54     | 200.54     | 200.54     |   0.0 | 17.67
Neigh   | 172.42     | 172.42     | 172.42     |   0.0 | 15.19
Comm    | 10.708     | 10.708     | 10.708     |   0.0 |  0.94
Output  | 3.5927     | 3.5927     | 3.5927     |   0.0 |  0.32
Modify  | 64.862     | 64.862     | 64.862     |   0.0 |  5.71
Other   |            | 20.7       |            |       |  1.82

Nlocal:           7860 ave        7860 max        7860 min
Histogram: 1 0 0 0 0 0 0 0 0 0
Nghost:          18930 ave       18930 max       18930 min
Histogram: 1 0 0 0 0 0 0 0 0 0
Neighs:              0 ave           0 max           0 min
Histogram: 1 0 0 0 0 0 0 0 0 0
FullNghs:  4.26959e+06 ave 4.26959e+06 max 4.26959e+06 min
Histogram: 1 0 0 0 0 0 0 0 0 0

Total # of neighbors = 4269586
Ave neighs/atom = 543.20433
Ave special neighs/atom = 5.8625954
Neighbor list builds = 13537
Dangerous builds = 0
System init for write_data ...
PPPM Kokkos initialization ...
  using 12-bit tables for long-range coulomb
  G vector (1/distance) = 0.29491684
  grid = 30 30 30
  stencil order = 5
  estimated absolute RMS force accuracy = 0.00039539915
  estimated relative force accuracy = 1.1907328e-06
  using double precision cuFFT
  3d grid and FFT values/proc = 50653 27000
Generated 6 of 6 mixed pair_coeff terms from sixthpower/sixthpower mixing rule
System init for write_restart ...
PPPM Kokkos initialization ...
  using 12-bit tables for long-range coulomb
  G vector (1/distance) = 0.29491684
  grid = 30 30 30
  stencil order = 5
  estimated absolute RMS force accuracy = 0.00039539915
  estimated relative force accuracy = 1.1907328e-06
  using double precision cuFFT
  3d grid and FFT values/proc = 50653 27000
Generated 6 of 6 mixed pair_coeff terms from sixthpower/sixthpower mixing rule
STAGE COMPLETE: NPT T=498.0->473.0K P=1.0->1.0atm steps=250000
