LAMMPS (22 Jul 2025 - Update 3)
KOKKOS mode with Kokkos version 4.6.2 is enabled
  will use up to 1 GPU(s) per node
  using 1 OpenMP thread(s) per MPI task
Reading data file ...
  orthogonal box = (3.4322078 3.4322078 3.4322078) to (47.305772 47.305772 47.305772)
  1 by 1 by 1 MPI processor grid
  reading atoms ...
  6140 atoms
  reading velocities ...
  6140 velocities
  scanning bonds ...
  3 = max bonds/atom
  scanning angles ...
  9 = max angles/atom
  scanning dihedrals ...
  18 = max dihedrals/atom
  scanning impropers ...
  4 = max impropers/atom
  orthogonal box = (3.4322078 3.4322078 3.4322078) to (47.305772 47.305772 47.305772)
  1 by 1 by 1 MPI processor grid
  reading bonds ...
  6670 bonds
  reading angles ...
  10620 angles
  reading dihedrals ...
  15820 dihedrals
  reading impropers ...
  3420 impropers
Finding 1-2 1-3 1-4 neighbors ...
  special bond factors lj:    0        0        1       
  special bond factors coul:  0        0        1       
     3 = max # of 1-2 neighbors
     6 = max # of 1-3 neighbors
     9 = max # of special neighbors
  special bonds CPU = 0.003 seconds
  read_data CPU = 0.206 seconds
Finding SHAKE clusters ...
    2180 = # of size 2 clusters
       0 = # of size 3 clusters
       0 = # of size 4 clusters
       0 = # of frozen angles
  find clusters CPU = 0.002 seconds
PPPM Kokkos initialization ...
  using 12-bit tables for long-range coulomb
  G vector (1/distance) = 0.31240372
  grid = 36 36 36
  stencil order = 5
  estimated absolute RMS force accuracy = 0.00026284998
  estimated relative force accuracy = 7.915649e-07
  using double precision cuFFT
  3d grid and FFT values/proc = 79507 46656
Generated 21 of 21 mixed pair_coeff terms from sixthpower/sixthpower mixing rule
Neighbor list info ...
  update: every = 1 steps, delay = 0 steps, check = yes
  max neighbors/atom: 4000, page size: 100000
  master list distance cutoff = 11.5
  ghost atom cutoff = 11.5
  binsize = 11.5, bins = 4 4 4
  1 neighbor lists, perpetual/occasional/extra = 1 0 0
  (1) pair lj/class2/coul/long/kk, perpetual
      attributes: full, newton off, kokkos_device
      pair build: full/bin/kk/device
      stencil: full/bin/3d
      bin: kk/device
Setting up Verlet run ...
  Unit style    : real
  Current step  : 0
  Time step     : 1
Per MPI rank memory allocation (min/avg/max) = 30.62 | 30.62 | 30.62 Mbytes
   Step          Time           Temp          Press         Enthalpy        TotEng         KinEng         PotEng         E_bond        E_angle        E_dihed        E_impro         E_vdwl         E_coul         E_long         E_tail         Volume           Lx             Ly             Lz          Density          Pxx            Pyy            Pzz      
         0   0              869.38091      613.93284      36508.585      35752.439      14025.842      21726.597      4185.2231      6136.2377      6530.6702      814.56033      288.01788      11277.627     -7505.7389     -470.81489      84451.772      43.873565      43.873565      43.873565      1.020786       1479.418       608.76318     -246.38267    
       500   500            774.80974     -844.78672      32908.038      33932.781      12500.112      21432.669      4202.6635      5997.9258      6449.3945      772.19843      244.17603      11274.194     -7507.8836     -478.04287      83174.867      43.651319      43.651319      43.651319      1.0364571      138.86175      80.075372     -2753.2973    
      1000   1000           772.95246      432.76817      34236.753      33718.667      12470.148      21248.518      4091.2207      6062.948       6418.3694      741.24056      153.55961      11290.828     -7509.6478     -484.38222      82086.316      43.460053      43.460053      43.460053      1.0502016      1018.8467     -791.1499       1070.6077    
      1500   1500           769.60349     -1884.7132      31751.089      34022.242      12416.119      21606.124      4005.3554      6117.2554      6728.0494      815.62096      166.4955       11288.522     -7515.1747     -481.20898      82627.618      43.555374      43.555374      43.555374      1.0433217     -1054.8341     -2733.6648     -1865.6407    
      2000   2000           761.80488     -1120.9216      32376.779      33738.642      12290.303      21448.34       4167.8598      6078.2954      6463.3224      753.45069      210.34205      11281.259     -7506.1897     -477.28352      83307.197      43.674456      43.674456      43.674456      1.0348108     -966.54936     -1675.7906     -720.42471    
      2500   2500           762.77849      492.23601      34357.169      33759.416      12306.01       21453.406      4254.2026      6044.3905      6379.6503      753.88819      214.1148       11307.864     -7500.7044     -477.51467      83266.869      43.667408      43.667408      43.667408      1.0353119      82.828349     -1026.5388      2420.4184    
      3000   3000           773.10779     -1122.2994      32430.753      33803.141      12472.654      21330.486      3996.1515      6052.686       6503.9839      748.97794      251.55724      11286.876     -7509.7465     -474.20558      83847.921      43.768746      43.768746      43.768746      1.0281374     -767.91709     -1926.4273     -672.55373    
      3500   3500           763.60691     -1751.8799      31757.016      33902.519      12319.375      21583.144      4033.9568      6055.6281      6751.8727      772.59573      173.51302      11304.557     -7508.9794     -473.48916      83974.789      43.79081       43.79081       43.79081       1.0265841     -2759.1973     -1864.7029     -631.73963    
      4000   4000           763.19808     -942.31585      32804.855      33947.232      12312.78       21634.453      4034.5225      6088.4751      6617.8147      803.32645      318.7782       11280.383     -7508.8468     -478.3235       83126.068      43.642781      43.642781      43.642781      1.0370656      982.47532     -1031.5033     -2777.9195    
      4500   4500           784.75222     -614.42467      33548.012      34295.324      12660.516      21634.809      4306.7033      6100.5171      6402.2156      760.59467      298.50906      11275.604     -7509.3353     -476.76161      83398.392      43.690387      43.690387      43.690387      1.0336792     -2290.4836      109.65105      337.55856    
      5000   5000           787.69321     -1696.0132      32154.04       34230.808      12707.963      21522.845      4135.3002      6215.0491      6482.6607      721.30782      202.01663      11284.878     -7518.3676     -473.56124      83962.006      43.788587      43.788587      43.788587      1.0267404     -2508.6703      129.31967     -2708.6891    
      5500   5500           779.74515      699.17158      34751.488      33902.977      12579.736      21323.241      4146.831       6045.6762      6331.5237      766.02877      264.62912      11284.528     -7515.9757     -477.81603      83214.353      43.658226      43.658226      43.658226      1.0359653      1561.5983      251.52037      284.39605    
      6000   6000           762.16522     -756.83302      32892.648      33808.242      12296.116      21512.125      4204.7523      6222.7366      6368.9495      761.83399      195.14         11273.297     -7514.5834     -479.32721      82952.003      43.612297      43.612297      43.612297      1.0392417     -980.52425      1582.1705     -2872.1454    
      6500   6500           766.77668      512.66007      34303.468      33685.466      12370.514      21314.953      4114.1837      6209.1711      6310.0308      728.05067      176.06297      11290.828     -7513.3749     -481.03289      82657.866      43.560688      43.560688      43.560688      1.0429399      1228.5939      1159.1936     -849.80734    
      7000   7000           762.48864     -23.856592      33582.961      33611.857      12301.334      21310.523      4075.7945      5989.6292      6386.7064      787.37862      304.44522      11282.442     -7515.8736     -478.75494      83051.157      43.629667      43.629667      43.629667      1.038001       1521.3528     -450.96301     -1141.9596    
      7500   7500           765.319       -820.67526      32914.924      33907.963      12346.997      21560.966      4188.2037      6060.4217      6562.9165      769.79762      211.69403      11284.913     -7516.9805     -479.22571      82969.572      43.615376      43.615376      43.615376      1.0390217     -390.54836     -182.19208     -1889.2853    
      8000   8000           773.25568     -1209.057       32571.905      34058.479      12475.04       21583.439      4115.6427      5980.5739      6621.8898      758.95669      347.55029      11271.847     -7513.0218     -471.62323      84307.025      43.848485      43.848485      43.848485      1.0225385     -478.48547     -1279.7493     -1868.9361    
      8500   8500           761.60268      371.46049      34241.339      33785.273      12287.041      21498.232      4192.9724      6180.3261      6285.731       749.35294      325.9799       11277.037     -7513.167      -472.3023       84185.811      43.82746       43.82746       43.82746       1.0240108      1109.0252     -1060.3877      1065.744     
      9000   9000           754.42132      1112.6773      35149.655      33787.066      12171.183      21615.883      4206.891       6199.7629      6409.8452      765.73312      253.81096      11292.817     -7512.9781     -473.52068      83969.199      43.789838      43.789838      43.789838      1.0266524      1823.3413      2511.7786     -997.088      
      9500   9500           759.44995     -1568.995       32165.222      34065.906      12252.311      21813.595      4161.3138      6259.312       6636.6232      804.67924      167.71639      11298.139     -7514.1883     -478.68155      83063.89       43.631896      43.631896      43.631896      1.0378419     -1098.5715     -2075.0584     -1533.3552    
     10000   10000          775.32778      2334.7623      36951.193      34151.13       12508.47       21642.66       4261.1471      6168.6206      6412.3898      753.93101      271.92213      11285.256     -7510.6067     -483.51465      82233.603      43.486031      43.486031      43.486031      1.0483206      3590.3785      2583.8283      830.08001    
     10500   10500          770.67993     -1546.0061      32115.981      33997.484      12433.485      21563.998      4016.06        6154.326       6545.7441      769.06381      325.4555       11264.646     -7511.2969     -476.47624      83448.341      43.699108      43.699108      43.699108      1.0330605      101.36731     -1713.4794     -3025.9062    
     11000   11000          756.8954       370.68023      34146.406      33692.995      12211.098      21481.897      4196.7866      6088.328       6350.9393      773.16752      291.88455      11289.159     -7508.3681     -474.06949      83871.992      43.772933      43.772933      43.772933      1.0278423      2120.7524      61.432612     -1070.1443    
     11500   11500          763.82978     -1206.9849      32344.642      33803.543      12322.971      21480.572      4039.2356      6113.2998      6586.2757      775.89316      198.27636      11288.374     -7520.7818     -479.74531      82879.71       43.599624      43.599624      43.599624      1.0401482     -1205.8047     -1497.9471     -917.2029     
     12000   12000          764.94576     -968.79745      32813.626      33972.171      12340.975      21631.196      4261.3799      6142.0085      6549.5574      761.58788      113.64051      11311.137     -7508.1153     -484.90308      81998.143      43.444487      43.444487      43.444487      1.0513309      313.55986     -986.58572     -2233.3665    
     12500   12500          785.27845      126.74557      34238.69       34086.906      12669.005      21417.9        4135.7006      6142.9539      6341.5751      775.20299      236.82883      11294.98      -7509.3415     -484.218        82114.156      43.464966      43.464966      43.464966      1.0498456      2399.2608     -1265.5224     -753.50163    
     13000   13000          787.39377      332.88746      34641.889      34239.418      12703.132      21536.286      4202.3         6161.5474      6401.7464      723.67232      260.34614      11298.99      -7512.3168     -479.6204       82901.295      43.603408      43.603408      43.603408      1.0398774      308.52394      139.80142      550.33701    
     13500   13500          774.03647     -1776.2816      31933.686      34092.331      12487.637      21604.694      4090.2768      6199.4802      6555.9491      801.38277      200.18053      11276.055     -7518.631      -477.16164      83328.475      43.678174      43.678174      43.678174      1.0345465     -1404.3299     -1673.8804     -2250.6346    
     14000   14000          762.68511     -11.700567      33762.563      33776.89       12304.504      21472.386      4229.2887      6113.6874      6389.2768      777.08339      204.97841      11277.987     -7519.9159     -473.58298      83958.152      43.787917      43.787917      43.787917      1.0267875      531.58443      248.88119     -815.56732    
     14500   14500          773.94791     -386.44689      33461.46       33928.787      12486.208      21442.579      4126.9806      5939.7577      6634.7871      760.6886       204.39354      11286.046     -7510.0752     -479.51725      82919.127      43.606534      43.606534      43.606534      1.0396538      155.80304     -1070.7268     -244.41694    
     15000   15000          761.59882      720.38186      34384.006      33525.683      12286.979      21238.704      4026.56        6053.5367      6330.4889      789.34255      273.93373      11280.661     -7515.8185     -486.68353      81698.167      43.391444      43.391444      43.391444      1.0551912      920.77826      248.5209       991.8464     
     15500   15500          755.08933     -793.11656      32665.466      33622.053      12181.96       21440.093      4061.3921      6136.4905      6437.7864      826.88584      203.15732      11290.423     -7516.0423     -480.78109      82701.156      43.568291      43.568291      43.568291      1.0423939     -661.45512     -1116.2796     -601.61491    
     16000   16000          768.40213     -458.36805      33276.546      33831.283      12396.737      21434.545      4110.1071      6036.2933      6533.7109      770.22647      209.0391       11293.25      -7518.082      -479.14022      82984.375      43.617969      43.617969      43.617969      1.0388363     -1994.813       266.01028      353.69854    
     16500   16500          769.0118      -743.25225      33153.672      34056.225      12406.573      21649.651      4187.4741      6056.0838      6689.0883      759.19941      188.95011      11281.393     -7512.5369     -477.5278       83264.581      43.667008      43.667008      43.667008      1.0353404      713.81803     -2347.5848     -595.98993    
     17000   17000          774.2694       79.336358      34275.759      34179.181      12491.395      21687.787      4097.1729      6186.9245      6599.3881      784.07795      250.62764      11286.817     -7517.2213     -476.35272      83469.979      43.702884      43.702884      43.702884      1.0327927     -2347.9385      1902.5244      683.4232     
     17500   17500          764.85986      1415.2758      35608.166      33892.433      12339.589      21552.843      4181.8246      6074.5898      6392.3057      779.46284      353.95446      11280.514     -7509.8083     -478.32849      83125.202      43.642629      43.642629      43.642629      1.0370764      2248.4142      353.029        1644.3844    
     18000   18000          772.20928     -911.59385      32661.875      33774.143      12458.159      21315.984      4007.4756      6122.0745      6402.174       730.53642      266.91608      11296.391     -7509.5831     -475.25544      83662.697      43.736493      43.736493      43.736493      1.0304136     -1223.5381     -273.34656     -1237.8969    
     18500   18500          756.38776     -1039.189       32510.342      33786.965      12202.908      21584.058      4150.8329      6122.6053      6455.2176      813.122        237.59022      11313.491     -7508.8011     -472.02676      84234.953      43.835986      43.835986      43.835986      1.0234134     -1621.3166      927.33904     -2423.5895    
     19000   19000          758.46353      1951.331       36296.389      33926.046      12236.396      21689.65       4179.312       6194.4792      6323.131       812.7216       402.91488      11288.728     -7511.6369     -477.36949      83292.194      43.671834      43.671834      43.671834      1.0349971      467.00114      1113.9115      4273.0803    
     19500   19500          771.71839      1296.9751      35493.528      33936.415      12450.239      21486.176      4153.2282      6257.2478      6299.0101      759.17847      216.42117      11301.798     -7500.7083     -482.99909      82321.38       43.501498      43.501498      43.501498      1.0472028      1545.7374      1094.9701      1250.2176    
     20000   20000          783.22287     -690.47566      33239.829      34075.846      12635.842      21440.004      4123.6926      6108.1933      6441.2959      756.62957      214.87797      11307.242     -7511.9278     -478.92581      83021.528      43.624478      43.624478      43.624478      1.0383714     -845.55421     -659.83858     -566.03421    
     20500   20500          765.27233     -24.757723      33947.337      33977.367      12346.244      21631.123      4153.2872      6105.0874      6565.8397      784.04089      225.50774      11300.886     -7503.5262     -478.07746      83168.848      43.650266      43.650266      43.650266      1.0365321     -113.29215      888.55638     -849.5374     
     21000   21000          765.89909     -3139.7945      30021.203      33908.273      12356.355      21551.917      4120.1868      5989.3604      6632.8223      786.19509      222.70113      11303.899     -7503.2469     -468.39653      84887.802      43.948942      43.948942      43.948942      1.0155426     -2810.706      -2570.1004     -4038.577     
     21500   21500          759.08124     -260.49157      33549.663      33871.099      12246.362      21624.737      4201.7871      6026.8286      6500.2413      756.13076      328.5883       11313.05      -7501.8896     -469.93049      84610.71       43.901071      43.901071      43.901071      1.0188685     -190.23034      749.25252     -1340.4969    
     22000   22000          758.21404     -841.94759      32737.384      33757.422      12232.371      21525.05       4194.2316      6049.7248      6498.5492      789.92927      194.20236      11302.331     -7503.918      -478.63439      83072.076      43.63333       43.63333       43.63333       1.0377396     -1056.3163      68.691785     -1538.2183    
     22500   22500          762.58211     -795.53692      32930.649      33890.481      12302.842      21587.639      4090.1808      6113.0366      6721.7398      773.69933      104.75186      11287.904     -7503.6734     -480.61804      82729.212      43.573217      43.573217      43.573217      1.0420404      501.88772     -3544.1653      655.6668     
     23000   23000          776.90393      704.72803      35060.674      34216.984      12533.898      21683.086      4075.1174      6282.6505      6464.2973      819.38657      261.68008      11289.981     -7510.0267     -484.36566      82089.122      43.460549      43.460549      43.460549      1.0501657     -68.320367      1892.6854      289.81902    
     23500   23500          762.11922      112.83837      33900.691      33763.361      12295.374      21467.987      4243.5458      6153.9325      6338.6962      731.09083      213.24856      11296.495     -7509.0216     -476.45969      83451.241      43.699614      43.699614      43.699614      1.0330246      672.90738      1024.6425     -1359.0348    
     24000   24000          764.21193     -1326.3712      32400.549      34000.277      12329.136      21671.141      4141.5195      6191.4042      6549.7564      799.49538      200.74677      11294.597     -7506.3786     -480.78824      82699.926      43.568075      43.568075      43.568075      1.0424094     -1852.3596     -922.59007     -1204.1641    
     24500   24500          766.8922       1062.6144      35198.945      33928.066      12372.377      21555.689      4181.3704      6178.8292      6475.9775      771.50644      159.05027      11301.443     -7512.4875     -484.84891      82007.303      43.446105      43.446105      43.446105      1.0512135      801.93818      936.27308      1449.6319    
     25000   25000          775.07509     -341.72099      33312.02       33725.392      12504.393      21220.999      3987.4498      6185.7308      6351.0689      733.80217      181.90102      11289.465     -7508.4181     -479.36395      82945.645      43.611182      43.611182      43.611182      1.0393214     -1385.0484     -318.18937      678.07485    
     25500   25500          784.23029      205.67021      34548.491      34301.328      12652.095      21649.233      4341.1075      6118.885       6530.7966      745.38206      102.33692      11311.903     -7501.178      -482.5281       82401.733      43.515647      43.515647      43.515647      1.0461817      638.18086      23.425105     -44.595346    
     26000   26000          768.22804     -1051.0066      32603.407      33864.449      12393.929      21470.52       4188.3441      6110.4084      6422.5685      782.678        193.59751      11282.691     -7509.7678     -483.29327      82271.271      43.49267       43.49267       43.49267       1.0478407     -2227.156      -999.47286      73.609184    
     26500   26500          761.52683     -962.34126      32605.88       33770.648      12285.817      21484.83       4146.7332      6055.5626      6476.3866      775.36015      240.89603      11302.09      -7512.1979     -479.09839      82991.62       43.619239      43.619239      43.619239      1.0387456     -192.72931     -920.1821      -1774.1124    
     27000   27000          755.9849       3255.5145      37635.928      33657.41       12196.408      21461.002      4318.4823      6142.278       6184.0153      751.34884      276.77771      11296.997     -7508.8971     -474.49664      83796.488      43.759794      43.759794      43.759794      1.0287685      4646.2388      1662.4744      3457.8302    
     27500   27500          764.92179      3024.7285      37327.252      33703.301      12340.588      21362.713      4142.0322      6058.5728      6376.5514      773.14918      222.4833       11294.417     -7504.4931     -483.9928       82152.363      43.471706      43.471706      43.471706      1.0493573      4085.6482      1622.4536      3366.0838    
     28000   28000          761.90705      1515.4556      35679.862      33867.259      12291.951      21575.308      4222.0493      6196.6485      6442.299       767.91976      157.34681      11294.797     -7505.7526     -484.81425      82013.167      43.44714       43.44714       43.44714       1.0511383      1937.8504      1138.8011      1469.7154    
     28500   28500          769.73176      241.96931      34381.935      34089.659      12418.188      21671.47       4172.4025      6233.9278      6448.6557      781.30849      239.31688      11302.659     -7506.7999     -480.06669      82824.226      43.589892      43.589892      43.589892      1.040845      -877.01762      904.51521      698.41034    
     29000   29000          770.68448     -733.51791      32909.992      33797.581      12433.559      21364.022      4128.1816      6024.5721      6509.0391      757.12192      164.37047      11297.23      -7516.4929     -479.21845      82970.829      43.615596      43.615596      43.615596      1.0390059     -161.76493     -1475.5892     -563.19963    
     29500   29500          778.94183      122.17131      34089.795      33942.34       12566.776      21375.564      4016.053       6016.4196      6496.0069      811.60846      254.05122      11295.678     -7514.2532     -480.446        82758.837      43.578418      43.578418      43.578418      1.0416674      1238.2011     -265.09426     -606.59293    
     30000   30000          774.04209      420.79445      34334.052      33827.734      12487.727      21340.006      3946.5958      6055.3403      6515.5196      768.48215      260.08835      11299.14      -7505.16       -481.92673      82504.559      43.53374       43.53374       43.53374       1.0448778      582.13636      432.8203       247.42668    
     30500   30500          757.08299      1137.5802      35293.99       33926.563      12214.124      21712.439      4323.794       6096.9064      6527.9693      772.61671      193.91444      11303.676     -7506.4379     -482.40608      82422.576      43.519316      43.519316      43.519316      1.0459171      2412.7266     -286.94375      1286.9577    
     31000   31000          775.2988       1967.3469      36219.306      33835.688      12508.002      21327.686      4106.3025      5948.1999      6422.5665      792.42326      283.7887       11285.731     -7511.3259     -478.60697      83076.835      43.634163      43.634163      43.634163      1.0376802      796.09009      2899.7769      2206.1737    
     31500   31500          772.90453     -423.11148      33299.461      33821.63       12469.375      21352.255      4215.459       6174.9919      6236.6118      718.31936      237.25757      11278.07      -7508.4544     -469.87035      84621.539      43.902944      43.902944      43.902944      1.0187381     -191.9595       24.416402     -1101.7913    
     32000   32000          774.09674     -442.22185      33592.617      34130.276      12488.609      21641.667      4214.3779      6105.1473      6393.2659      775.04854      351.44673      11306.886     -7504.5055     -476.94435      83366.438      43.684806      43.684806      43.684806      1.0340754     -673.34369     -1043.6595      390.33763    
     32500   32500          754.42462     -2107.2592      30930.551      33479.981      12171.236      21308.745      3935.2114      6085.2067      6632.6398      782.72664      65.451582      11306.955     -7499.4468     -479.30264      82956.255      43.613042      43.613042      43.613042      1.0391885     -1318.9878     -2132.4531     -2870.3368    
     33000   33000          773.88083     -1861.8877      31516.209      33793.961      12485.126      21308.835      4053.5759      5949.2244      6550.8592      766.81905      178.04413      11310.631     -7500.3188     -474.00383      83883.609      43.774954      43.774954      43.774954      1.0277        -2607.1144     -1849.0184     -1129.5302    
     33500   33500          782.14118      1739.4049      36107.436      33994.829      12618.391      21376.438      4097.1678      6042.9213      6444.8712      766.1031       240.21913      11285.79      -7500.6347     -477.43774      83280.286      43.669753      43.669753      43.669753      1.0351451      4366.4928      463.60047      388.12153    
     34000   34000          766.60777     -2268.2004      31391.254      34138.634      12367.789      21770.846      4156.1066      6137.2255      6708.1662      793.39579      202.58425      11274.883     -7501.5158     -478.73757      83054.171      43.630195      43.630195      43.630195      1.0379633     -2178.317      -1105.7522     -3520.5321    
     34500   34500          765.69261     -501.72951      33542.255      34151.417      12353.024      21798.393      4023.4338      6246.5254      6621.8328      825.66659      282.16495      11300.732     -7501.9622     -477.60778      83250.637      43.66457       43.66457       43.66457       1.0355138      1111.9473     -1783.5343     -833.60144    
     35000   35000          777.60466     -705.26859      33076.845      33936.963      12545.203      21391.76       4032.0226      6058.5721      6516.9788      782.0323       203.8277       11300.925     -7502.5987     -475.47888      83623.382      43.729641      43.729641      43.729641      1.0308981     -419.02314     -413.79892     -1282.9837    
     35500   35500          771.15568     -3138.9794      30028.344      33846.615      12441.161      21405.455      4063.7595      6046.7245      6546.799       754.66992      216.14243      11279.012     -7501.6531     -476.71249      83406.986      43.691888      43.691888      43.691888      1.0335727     -2490.3719     -3891.2573     -3035.309     
     36000   36000          752.3859      -2991.2459      30064.355      33675.358      12138.345      21537.013      3979.3045      6117.5644      6701.7506      766.14119      184.64993      11290.871     -7503.2692     -480.35147      82775.124      43.581276      43.581276      43.581276      1.0414624     -466.36753     -4381.0683     -4126.3018    
     36500   36500          763.31747      196.53662      34037.327      33803.196      12314.706      21488.49       4229.1239      6088.5939      6401.2189      763.69991      214.69474      11295.556     -7504.3973     -486.76416      81684.634      43.389048      43.389048      43.389048      1.055366       395.50885      103.44376      90.657241    
     37000   37000          763.25435      1171.8964      35315.345      33907.44       12313.687      21593.752      4160.9907      6232.488       6327.7096      786.19249      322.51304      11271.189     -7507.3298     -482.67058      82377.41       43.511365      43.511365      43.511365      1.0464906     -295.45829      3180.8871      630.26049    
     37500   37500          761.62183      340.53281      34213.255      33796.448      12287.35       21509.098      4174.7168      6176.3013      6396.0124      762.28465      220.35393      11291.443     -7512.0137     -473.76059      83926.677      43.782445      43.782445      43.782445      1.0271726      556.87997     -813.77237      1278.4908    
     38000   38000          777.61277      158.2104       34123.518      33929.539      12545.334      21384.205      4172.5157      6086.1051      6363.2857      763.46869      218.09825      11290.618     -7509.8861     -472.94847      84070.792      43.807491      43.807491      43.807491      1.0254118      698.6031      -635.88054      411.90865    
     38500   38500          782.51233     -1733.059       32034.978      34158.257      12624.379      21533.878      4076.4573      6164.5205      6547.0256      784.46294      185.37606      11287.518     -7511.4822     -473.30499      84007.463      43.796488      43.796488      43.796488      1.0261848     -952.24642     -3275.7049     -971.22571    
     39000   39000          780.0002      -628.4651       33519.467      34284.037      12583.851      21700.187      4063.0377      6146.2229      6662.1293      823.62124      220.74151      11291.754     -7507.3197     -476.64888      83418.117      43.693831      43.693831      43.693831      1.0334348     -870.59167     -1537.7054      522.90182    
     39500   39500          773.24743      1513.6052      35905.29       34071.705      12474.907      21596.798      4124.9976      6236.0657      6385.6923      785.06197      297.22694      11276.868     -7509.1152     -478.68126      83063.941      43.631905      43.631905      43.631905      1.0378412      1690.095       2136.8863      713.83444    
     40000   40000          770.50272      460.11424      34366.363      33807.696      12430.626      21377.069      4084.8732      6062.9434      6382.9623      771.22867      288.12602      11288.369     -7501.4331     -477.58114      83255.281      43.665382      43.665382      43.665382      1.035456       1000.5058      365.80025      14.036705    
     40500   40500          764.1852       1157.5873      35266.891      33849.24       12328.705      21520.535      4238.4885      6055.586       6401.005       759.58123      295.58725      11283.303     -7513.0155     -473.49951      83972.952      43.79049       43.79049       43.79049       1.0266066     -8.7061584      1341.8805      2139.5877    
     41000   41000          772.50804      1225.8976      35456.968      33978.38       12462.979      21515.402      4182.8193      6250.6931      6382.1791      755.83709      153.68804      11293.098     -7502.913      -480.77504      82702.197      43.568474      43.568474      43.568474      1.0423808      388.40825      1773.234       1516.0505    
     41500   41500          759.40688      1764.151       35899.9        33786.989      12251.616      21535.373      4322.0361      6073.5212      6359.6072      785.1355       198.42883      11302.177     -7505.5323     -484.16045      82123.916      43.466688      43.466688      43.466688      1.0497208      1994.5157      850.87061      2447.0666    
     42000   42000          770.55107      312.86813      34397.322      34020.185      12431.406      21588.779      4176.6187      6267.6963      6381.1305      784.35453      200.63854      11295.844     -7517.5045     -481.05704      82653.716      43.559959      43.559959      43.559959      1.0429922     -130.24224     -384.59401      1453.4406    
     42500   42500          771.91671      1494.3619      35784.98       33973.182      12453.438      21519.744      4020.0154      6326.3219      6332.5687      781.48427      263.00179      11311.342     -7514.9904     -478.27863      83133.867      43.644145      43.644145      43.644145      1.0369683      1788.7369      989.24732      1705.1013    
     43000   43000          750.51932     -1136.2208      32075.42       33460.319      12108.231      21352.087      4147.413       6066.3916      6403.3367      753.02313      204.37525      11294.682     -7517.1346     -475.75073      83575.598      43.72131       43.72131       43.72131       1.0314875     -2457.5967      462.15426     -1413.2199    
     43500   43500          771.38222     -527.17084      33244.558      33893.482      12444.815      21448.666      4226.4797      6130.1306      6288.4478      772.75586      239.95119      11292.572     -7501.6703     -471.07747      84404.699      43.865411      43.865411      43.865411      1.0213553     -2205.5391      820.94603     -196.91948    
     44000   44000          770.65481     -1750.5722      31884.487      34032.798      12433.08       21599.718      4229.9667      6109.0638      6525.8231      758.34953      198.25477      11282.496     -7504.2365     -472.51746      84147.477      43.820806      43.820806      43.820806      1.0244773     -2910.3707     -841.01659     -1500.3292    
     44500   44500          779.77544      1209.5343      35608.588      34149.03       12580.224      21568.805      4228.7128      6125.0203      6387.995       746.27009      311.12358      11276.746     -7507.0618     -480.54233      82742.246      43.575506      43.575506      43.575506      1.0418763     -46.307144      1438.0992      2236.8107    
     45000   45000          758.62087     -1334.496       32329.734      33935.653      12238.935      21696.718      4176.1333      6149.496       6593.5437      754.43681      229.12475      11296.762     -7502.7781     -481.8685       82514.529      43.535494      43.535494      43.535494      1.0447516     -691.89849     -556.3288      -2755.2606    
     45500   45500          751.36527     -481.38702      32829.362      33414.999      12121.879      21293.12       4145.9977      6203.4392      6190.0062      719.17297      260.81081      11284.558     -7510.8651     -476.65093      83417.757      43.693769      43.693769      43.693769      1.0334392     -676.86673      803.66822     -1570.9626    
     46000   46000          772.89642      1075.5054      35206.203      33894.412      12469.244      21425.168      4144.7052      6267.9273      6195.1327      734.01866      319.85547      11273.441     -7509.9129     -475.42597      83632.688      43.731263      43.731263      43.731263      1.0307834      1263.5661      2456.555      -493.60485    
     46500   46500          779.69664      228.52591      34410.361      34134.248      12578.953      21555.295      4186.8347      6038.8462      6511.0383      761.64666      294.22612      11269.647     -7506.9436     -479.93604      82846.772      43.593847      43.593847      43.593847      1.0405618      3317.2862     -1653.205      -978.50352    
     47000   47000          788.01131      1354.1195      35912.013      34275.78       12713.095      21562.685      4158.8157      6084.8007      6498.9647      802.8175       235.35955      11297.089     -7515.1625     -479.8956       82853.755      43.595072      43.595072      43.595072      1.0404741      409.15847      1914.9807      1738.2192    
     47500   47500          763.79288      324.95779      34284.287      33887.094      12322.376      21564.718      4259.6382      6131.2702      6341.4222      806.00669      267.46515      11270.778     -7511.8623     -474.41716      83810.527      43.762238      43.762238      43.762238      1.0285961      2560.0808     -684.77412     -900.43333    
     48000   48000          770.62345     -2045.7963      31383.795      33874.462      12432.574      21441.888      3977.4779      6150.6362      6558.0985      794.08733      169.51108      11298.063     -7505.9853     -476.3009       83479.061      43.704469      43.704469      43.704469      1.0326803     -1103.3652     -1621.7274     -3412.2962    
     48500   48500          753.73659     -1619.9162      31619.693      33550.156      12160.136      21390.02       4071.7964      6062.7664      6540.0261      819.82392      117.91897      11283.278     -7505.5901     -486.59298      81713.369      43.394135      43.394135      43.394135      1.0549948     -1399.3282     -1707.5265     -1752.8937    
     49000   49000          764.68962     -944.06264      32358.589      33482.533      12336.843      21145.691      4104.4233      6106.4664      6268.0461      776.37713      118.32547      11288.583     -7516.5305     -487.06935      81633.451      43.379984      43.379984      43.379984      1.0560277     -1699.0113     -1554.7964      421.61977    
     49500   49500          772.31729     -2746.7822      30551.972      33883.464      12459.901      21423.563      4135.8564      6140.05        6549.182       764.66117      43.888618      11297.78      -7507.8552     -478.10173      83164.628      43.649528      43.649528      43.649528      1.0365847     -4618.3694     -1807.6183     -1814.3589    
     50000   50000          761.2358      -108.88789      33741.824      33874.988      12281.122      21593.866      4257.5044      6181.4935      6349.3323      738.79065      262.33645      11312.425     -7508.0164     -474.16411      83855.254      43.770021      43.770021      43.770021      1.0280475      2039.4576     -668.51444     -1697.6068    
     50500   50500          786.05231     -2388.8184      31554.215      34474.307      12681.49       21792.816      4243.2502      6214.3526      6558.491       766.29309      199.79522      11316.827     -7506.1927     -474.37464      83818.039      43.763546      43.763546      43.763546      1.0285039     -647.57844     -2946.8125     -3572.0642    
     51000   51000          775.1589      -34.484982      34159.394      34200.917      12505.745      21695.172      4289.9876      6151.0406      6474.2259      813.62867      198.76397      11275.539     -7508.0142     -481.59043      82562.173      43.543871      43.543871      43.543871      1.0441487     -477.14319     -898.17951      1271.8678    
     51500   51500          767.33431     -1393.1164      32186.192      33874.264      12379.51       21494.754      4221.4579      6085.0431      6444.2218      762.60235      187.07876      11297.662     -7503.3121     -478.5544       83085.961      43.63576       43.63576       43.63576       1.0375662     -3076.2733      101.81576     -1204.8915    
     52000   52000          771.10592      399.59494      34337.101      33853.221      12440.358      21412.863      4096.9513      6091.5321      6388.2182      768.7688       271.14034      11300.275     -7504.023      -478.86961      83031.271      43.626184      43.626184      43.626184      1.0382496      764.62154     -546.24664      980.40993    
     52500   52500          764.25704      626.84351      34752.333      33990.365      12329.864      21660.501      4184.5484      6357.7821      6340.0774      751.84652      249.90564      11283.361     -7507.0206     -477.04268      83349.255      43.681805      43.681805      43.681805      1.0342886      768.97765      1437.3612     -325.80828    
     53000   53000          778.16699      1497.6436      35774.982      33972.942      12554.275      21418.667      4203.6213      6178.0024      6260.217       742.84557      251.14063      11293.29      -7510.4501     -481.92455      82504.932      43.533806      43.533806      43.533806      1.0448731      2079.505       526.19713      1887.2288    
     53500   53500          781.54921      356.73105      34632.188      34205.919      12608.841      21597.078      4207.0936      6073.8534      6577.9793      785.08815      146.4264       11312.622     -7505.9844     -485.27945      81934.547      43.433252      43.433252      43.433252      1.0521469      1954.934      -53.171532     -831.56932    
     54000   54000          775.26264      529.21959      34874.678      34236.343      12507.419      21728.924      4199.4684      6300.2289      6417.4323      793.08347      232.42402      11297.276     -7510.9892     -480.75298      82705.991      43.56914       43.56914       43.56914       1.042333       1221.5902     -1899.1302      2265.1988    
     54500   54500          765.44416      167.41214      33952.884      33754.103      12349.016      21405.087      4175.7452      6106.5932      6442.2189      766.62497      127.41117      11294.636     -7508.1429     -488.3684       81416.307      43.341486      43.341486      43.341486      1.0588442     -310.1846       1397.5363     -585.11523    
     55000   55000          768.86195      1469.5418      35499.889      33745.822      12404.156      21341.666      4078.7373      6072.5102      6519.8324      776.13005      99.52902       11306.936     -7512.0089     -485.81448      81844.313      43.417302      43.417302      43.417302      1.0533069      846.79061      3231.0934      330.74128    
     55500   55500          764.97         579.71331      34608.605      33914.903      12341.366      21573.537      4069.5144      6172.4         6497.0295      833.07719      211.29972      11300.719     -7510.5027     -484.59084      82050.977      43.453816      43.453816      43.453816      1.0506539     -241.54703      273.93479      1706.7522    
     56000   56000          771.62663      722.69913      34877.156      34010.948      12448.759      21562.19       4163.9692      6101.0091      6420.6493      773.6714       337.14601      11280.524     -7514.779      -483.80497      82184.257      43.477331      43.477331      43.477331      1.0489501     -686.37536      933.4065       1921.0663    
     56500   56500          785.0505       1989.6996      36582.883      34190.035      12665.328      21524.708      4151.1944      6170.4062      6424.6036      832.65817      154.12195      11293.288     -7501.5646     -482.17789      82461.583      43.52618       43.52618       43.52618       1.0454224      3131.6296     -636.73616      3474.2055    
     57000   57000          758.85598      452.72643      34363.82       33827.531      12242.728      21584.803      4157.6017      6232.9472      6514.1798      771.47925      152.23321      11275.036     -7518.6742     -489.52095      81224.618      43.307445      43.307445      43.307445      1.061343       1716.4152     -1864.6626      1506.4266    
     57500   57500          757.30102     -1055.7971      32399.963      33660.573      12217.641      21442.931      4022.0875      6275.3589      6452.3335      797.83841      127.09797      11281.409     -7513.1937     -485.66272      81869.886      43.421824      43.421824      43.421824      1.0529779     -745.34525     -1021.1886     -1400.8575    
     58000   58000          764.09924      429.70185      34318.424      33799.844      12327.318      21472.525      4046.2167      6280.7363      6377.7561      756.45876      229.03553      11292.619     -7510.2969     -480.49186      82750.937      43.577031      43.577031      43.577031      1.0417668      581.18655     -297.78944      1005.7084    
     58500   58500          768.66398     -508.53603      33234.855      33848.701      12400.962      21447.739      4209.488       6211.7171      6355.4755      788.11902      113.5282       11276.109     -7506.698      -480.39344      82767.891      43.580007      43.580007      43.580007      1.0415535      138.16463     -1531.9586     -131.81408    
     59000   59000          783.67567      2495.7672      37419.94       34397.523      12643.147      21754.376      4233.017       6307.0515      6320.1391      786.63503      325.37409      11290.143     -7507.9839     -478.83352      83037.528      43.62728       43.62728       43.62728       1.0381714     -297.86946      3614.7179      4170.453     
     59500   59500          769.19586      220.6213       34230.187      33963.774      12409.543      21554.231      4243.276       6167.8465      6470.1135      730.57846      178.32662      11274.244     -7510.1545     -480.20496      82800.377      43.585708      43.585708      43.585708      1.0411448      1116.9501     -75.086594     -379.99962    
     60000   60000          766.08349     -390.63288      33262.865      33737.233      12359.33       21377.903      4026.5011      6221.5899      6320.9839      757.27249      290.23981      11274.794     -7513.4788     -477.51641      83266.567      43.667355      43.667355      43.667355      1.0353157     -1515.254       586.05901     -242.70364    
     60500   60500          780.58268     -116.9682       33862.537      34003.716      12593.248      21410.468      4141.5496      6184.832       6372.2416      765.98761      159.16477      11302.669     -7515.9765     -480.43112      82761.399      43.578868      43.578868      43.578868      1.0416352      229.75312      389.25579     -969.9135     
     61000   61000          779.22171     -274.65523      33753.521      34082.908      12571.291      21511.617      4083.9275      6276.4415      6457.9197      779.07051      135.33176      11303.225     -7524.2989     -483.52199      82232.356      43.485811      43.485811      43.485811      1.0483365     -899.2569       445.34679     -370.05557    
     61500   61500          776.62884      2284.4271      36772.72       34054.057      12529.46       21524.598      4231.7177      6089.5399      6514.9613      771.99009      156.63361      11275.26      -7515.5046     -487.25556      81602.254      43.374457      43.374457      43.374457      1.0564314      1545.8874      3232.062       2075.3318    
     62000   62000          773.13229     -1023.538       32760.931      33983.387      12473.05       21510.337      4054.5849      6164.5301      6575.0616      791.00861      163.57165      11275.55      -7513.9691     -485.51841      81894.222      43.426126      43.426126      43.426126      1.052665       41.108259     -1499.3865     -1612.3359    
     62500   62500          766.19866      1495.0591      35496.439      33708.412      12361.188      21347.224      4052.1701      6216.173       6318.3974      781.35419      202.8137       11289.946     -7513.6304     -484.86307      82004.909      43.445682      43.445682      43.445682      1.0512442      1194.6383      1379.8718      1910.6674    
     63000   63000          758.89818      1107.6845      34928.277      33590.9        12243.409      21347.491      4189.2417      6226.6247      6204.8594      744.70546      217.25394      11274.422     -7509.6164     -480.28269      82786.976      43.583357      43.583357      43.583357      1.0413133      2625.3532      333.44709      364.25303    
     63500   63500          770.6298       449.31805      34360.184      33820.874      12432.677      21388.197      4086.7481      6006.9271      6527.0111      770.80614      243.34778      11273.213     -7519.8562     -483.11483      82301.659      43.498024      43.498024      43.498024      1.0474538      1573.7909     -94.163946     -131.67283    
     64000   64000          770.67713      59.130827      33993.494      33922.046      12433.44       21488.606      4202.0958      6134.2974      6384.3737      783.30842      218.97881      11281.621     -7516.0693     -479.90527      82852.085      43.594779      43.594779      43.594779      1.040495       898.71211      48.33766      -769.65729    
     64500   64500          769.52913     -3435.0094      29515.852      33688.632      12414.919      21273.713      3965.6513      6155.5996      6511.3882      747.55561      120.88512      11287.208     -7514.5742     -477.35035      83295.534      43.672418      43.672418      43.672418      1.0349556     -2978.3008     -3110.8314     -4215.8958    
     65000   65000          764.44017     -1258.0795      32314.883      33828.26       12332.818      21495.442      4079.4525      6200.597       6452.499       791.48489      195.28785      11284.213     -7508.0931     -482.05401      82482.775      43.529908      43.529908      43.529908      1.0451538     -3237.2167     -1898.2326      1361.2107    
     65500   65500          765.02558      440.30186      34522.489      33996.177      12342.263      21653.914      4161.7784      6269.1758      6464.7171      778.33722      199.28383      11292.471     -7511.8492     -485.11211      81962.811      43.438246      43.438246      43.438246      1.0517841      663.6478      -607.18918      1264.447     
     66000   66000          765.17056      1165.1073      35270.676      33862.718      12344.602      21518.116      4113.4483      6176.7502      6399.3293      782.8678       251.20817      11302.13      -7507.6177     -479.85621      82860.556      43.596265      43.596265      43.596265      1.0403887      2657.3592      1854.2113     -1016.2487    
     66500   66500          771.96587      1474.0315      35642.633      33871.398      12454.232      21417.166      4157.6328      6134.6733      6358.7669      735.15032      258.7698       11289.143     -7516.9698     -482.57573      82393.601      43.514216      43.514216      43.514216      1.0462849      78.672007      1328.0228      3015.3998    
     67000   67000          770.71788     -2061.9798      31532.038      34018.267      12434.098      21584.17       4126.6953      6253.5539      6501.4837      769.6785       189.25755      11261.51      -7518.009      -480.92579      82676.273      43.563921      43.563921      43.563921      1.0427077     -2337.5781     -3965.8943      117.53294    
     67500   67500          777.26515      2610.8994      37330.06       34182.213      12539.726      21642.487      4254.2002      6202.4337      6309.7018      795.65193      321.684        11276.53      -7517.7145     -480.96266      82669.935      43.562808      43.562808      43.562808      1.0427876      3546.1215      3262.8713      1023.7054    
     68000   68000          770.02892     -171.8377       33862.667      34072.179      12422.983      21649.196      4162.7899      6242.1         6353.033       803.15792      304.13659      11293.827     -7509.8487     -475.60481      83601.241      43.725781      43.725781      43.725781      1.0311711      466.47608      284.10867     -1266.0979    
     68500   68500          752.86957     -862.60864      32411.672      33465.539      12146.148      21319.391      4045.0258      6075.0817      6379.7491      767.86222      276.9877       11284.797     -7510.113      -474.63841      83771.458      43.755437      43.755437      43.755437      1.0290758     -1816.191      -767.03464     -4.6003203    
     69000   69000          759.41047     -742.87377      32762.195      33669.347      12251.674      21417.673      4153.2297      6095.9708      6411.2309      755.32136      226.7205       11289.326     -7514.1256     -474.8646       83731.556      43.748489      43.748489      43.748489      1.0295662     -1951.8992     -848.91762      572.19547    
     69500   69500          762.64992     -291.2989       33497.037      33848.244      12303.936      21544.308      4099.2884      6225.9451      6378.174       761.33203      310.33899      11281.322     -7512.0925     -480.96211      82670.029      43.562824      43.562824      43.562824      1.0427864     -1558.7412      1287.8027     -602.95817    
     70000   70000          782.13831     -1571.6524      32199.082      34072.673      12618.345      21454.328      3975.1205      6272.4076      6537.0017      782.25222      96.662928      11301.808     -7510.9252     -486.42591      81741.435      43.399103      43.399103      43.399103      1.0546326     -1305.6365     -1190.3242     -2218.9966    
     70500   70500          777.16098     -824.85571      32944.42       33938.17       12538.045      21400.125      4058.7328      6066.4903      6563.4776      773.78342      147.80342      11297.792     -7507.955      -481.32196      82608.224      43.551966      43.551966      43.551966      1.0435666     -1460.7849     -2319.9032      1306.121     
     71000   71000          760.46551     -842.69903      32738.301      33766.902      12268.695      21498.208      4093.0767      6054.6884      6593.9164      803.8008       191.76408      11272.44      -7511.4788     -475.07277      83694.867      43.742098      43.742098      43.742098      1.0300176      539.77274     -2981.8616     -86.008254    
     71500   71500          781.45616     -625.75362      33267.732      34026.695      12607.34       21419.355      4104.3658      6177.5534      6424.6319      756.81008      169.13041      11298.891     -7512.0275     -478.09936      83165.039      43.6496        43.6496        43.6496        1.0365796     -986.11087     -839.95815     -51.191829    
     72000   72000          775.09731     -904.99222      33150.876      34248.334      12504.752      21743.582      4183.9973      6294.5327      6464.7891      779.53188      201.75628      11322.053     -7503.0785     -478.18059      83150.912      43.647128      43.647128      43.647128      1.0367557     -327.34151     -998.46807     -1389.1671    
     72500   72500          772.74146     -543.7449       33353.658      34018.536      12466.744      21551.791      4110.7852      6055.7342      6482.6263      779.05919      336.71747      11297.392     -7510.5228     -474.22921      83843.742      43.768018      43.768018      43.768018      1.0281886     -417.49811     -1571.1734      357.43684    
     73000   73000          762.61505     -820.94639      32901.396      33918.14       12303.373      21614.766      4085.7537      6174.7734      6488.6533      776.29681      313.18844      11291.74      -7515.6394     -468.20725      84922.119      43.954864      43.954864      43.954864      1.0151323     -1408.8261     -2203.6485      1149.6355    
     73500   73500          775.152       -1976.3878      31567.127      33979.9        12505.634      21474.267      4136.3767      6119.2695      6484.8969      762.40507      220.81721      11265.629     -7515.1281     -474.99664      83708.28       43.744434      43.744434      43.744434      1.0298525     -155.10939     -4476.0082     -1298.0457    
     74000   74000          782.86156      1014.1631      35287.117      34070.649      12630.013      21440.636      4124.973       6076.5431      6444.8867      780.70802      211.6764       11306.858     -7505.0093     -483.43945      82246.395      43.488286      43.488286      43.488286      1.0481576      1301.4194      1407.4899      333.57988    
     74500   74500          772.62148      443.10961      34378.465      33847.278      12464.809      21382.469      4083.0983      6204.9529      6427.3351      773.73005      117.55393      11291.359     -7515.5602     -483.72475      82197.887      43.479735      43.479735      43.479735      1.0487761      1292.3946      1309.8436     -1272.9094    
     75000   75000          765.55106      375.44028      34226.69       33778.119      12350.741      21427.379      4121.4947      6194.6158      6397.5764      718.84343      208.64817      11297.338     -7511.1375     -485.33914      81924.471      43.431472      43.431472      43.431472      1.0522763     -687.39814      1037.3306      776.38834    
     75500   75500          781.46214      1739.48        35942.434      33860.562      12607.436      21253.126      4082.8934      6185.0226      6157.2369      764.16818      287.30825      11287.585     -7511.0889     -484.50728      82065.127      43.456314      43.456314      43.456314      1.0504728      1293.5932      1284.9575      2639.8893    
     76000   76000          769.83295     -1778.3194      31929.714      34069.95       12419.821      21650.129      4173.4743      6195.9988      6474.5019      791.1248       211.0891       11310.85      -7506.9098     -481.81808      82523.163      43.537012      43.537012      43.537012      1.0446423     -3828.1748     -2090.4486      583.66501    
     76500   76500          762.1512      -364.89395      33265.861      33695.986      12295.89       21400.095      4204.4463      6096.257       6371.5175      757.97735      156.04483      11324.381     -7510.5284     -491.9342       80826.159      43.236512      43.236512      43.236512      1.0665753     -1662.9746     -872.7326       1441.0253    
     77000   77000          756.14413     -1662.6081      31564.732      33507.54       12198.977      21308.563      4186.5703      6048.9395      6519.0586      734.39489      55.801686      11278.709     -7514.9114     -496.24349      80124.28       43.110995      43.110995      43.110995      1.0759184     -1845.9174     -2712.245      -429.66201    
     77500   77500          764.70996     -419.76782      33306.471      33799.445      12337.171      21462.273      4149.7496      6167.8937      6533.8718      751.88011      106.90924      11266.302     -7514.3333     -493.76555      80526.379      43.182991      43.182991      43.182991      1.0705459     -151.85208     -1176.7229      69.271463    
     78000   78000          774.36918     -1241.9793      32532.497      34015.327      12493.005      21522.323      4175.3474      6088.9909      6550.3369      785.2482       126.2416       11299.983     -7503.8256     -485.68837      81865.564      43.42106       43.42106       43.42106       1.0530335     -1371.2396     -986.16679     -1368.5316    
     78500   78500          785.41859     -1766.1521      32144.431      34269.946      12671.266      21598.68       4252.5872      6171.2707      6461.9912      772.77765      173.17446      11280.269     -7513.3901     -481.83558      82520.166      43.536485      43.536485      43.536485      1.0446802     -1542.2126     -2025.1292     -1731.1146    
     79000   79000          776.09251      1074.9021      35202.552      33902.276      12520.807      21381.469      4124.9915      6295.3668      6217.3141      763.72734      213.15236      11281.779     -7514.862      -479.36706      82945.107      43.611088      43.611088      43.611088      1.0393281      254.3164       2448.6471      521.74272    
     79500   79500          766.70494     -166.64638      33460.393      33660.752      12369.356      21291.396      4043.5955      6107.3415      6361.7372      774.22193      221.20461      11298.926     -7515.6314     -482.30468      82439.905      43.522366      43.522366      43.522366      1.0456973      1578.1216     -1517.9117     -560.14901    
     80000   80000          781.64509      143.23688      34165.664      33993.942      12610.388      21383.554      4061.1508      6279.9278      6276.4414      742.82419      239.574        11298.893     -7515.2573     -483.68456      82204.716      43.480939      43.480939      43.480939      1.048689      -23.695227     -484.57584      937.98172    
     80500   80500          757.16275     -2031.9933      31079.212      33511.683      12215.411      21296.272      4077.1641      6208.2874      6418.472       735.82119      77.656883      11287.358     -7508.4879     -484.4061       82082.269      43.459339      43.459339      43.459339      1.0502534     -2157.2697     -821.13464     -3117.5755    
     81000   81000          764.40506     -330.48137      33066.357      33462.183      12332.252      21129.931      4087.1179      6014.8841      6324.7501      753.49028      182.38249      11281.016     -7513.7096     -484.14725      82126.156      43.467083      43.467083      43.467083      1.0496922     -1707.6771      176.01721      540.21577    
     81500   81500          764.92723     -1226.8077      32294.317      33760.7        12340.676      21420.024      4034.591       6171.776       6446.3102      778.15246      215.91188      11285.008     -7511.7261     -485.1364       81958.707      43.437521      43.437521      43.437521      1.0518368     -2134.1206     -1092.6728     -453.62977    
     82000   82000          784.89742     -892.71491      32780.605      33859.337      12662.858      21196.479      3945.219       6101.5522      6444.9886      779.5379       163.88285      11283.69      -7522.3911     -479.88158      82856.175      43.595496      43.595496      43.595496      1.0404437     -431.65321     -2098.8978     -147.59377    
     82500   82500          775.93676     -644.18533      33223.082      33997.504      12518.294      21479.209      4169.4559      6145.4636      6396.1657      795.46325      202.63777      11287.514     -7517.491      -482.35651      82431.048      43.520807      43.520807      43.520807      1.0458096     -1510.232       1063.221      -1485.5449    
     83000   83000          778.94315      55.362434      34316.46       34249.411      12566.797      21682.614      4274.7442      6035.14        6632.8572      765.74681      204.61874      11284.093     -7514.5867     -478.80036      83043.279      43.628287      43.628287      43.628287      1.0380995     -552.25278      973.29454     -254.95446    
     83500   83500          780.24297     -685.28847      33246.254      34089.229      12587.767      21501.462      4135.3176      6229.2916      6399.4928      737.97716      235.21778      11277.61      -7513.4446     -471.40425      84346.189      43.855273      43.855273      43.855273      1.0220638     -874.31973     -1156.8753     -24.670424    
     84000   84000          764.6805      -798.33619      33041.228      34013.731      12336.696      21677.035      4041.9842      6259.703       6545.4663      770.09469      306.71385      11271.233     -7518.1595     -476.02503      83527.44       43.71291       43.71291       43.71291       1.0320822      285.57553     -951.98599     -1728.5981    
     84500   84500          768.338       -1346.9317      32164.203      33803.608      12395.703      21407.905      3948.4992      6069.8105      6615.6372      789.77133      237.21637      11263.238     -7516.2674     -476.42458      83457.39       43.700687      43.700687      43.700687      1.0329485     -230.8799      -1731.869      -2078.0461    
     85000   85000          754.14852      526.79585      34313.577      33672.741      12166.782      21505.959      4150.6676      6209.0621      6362.0926      757.77853      263.39227      11280.264     -7517.2979     -476.6837       83412.024      43.692767      43.692767      43.692767      1.0335103      1207.4367     -667.2524       1040.2033    
     85500   85500          764.50435      1011.7142      34965.097      33745.932      12333.854      21412.078      4158.9497      6061.663       6424.7129      765.84575      243.79926      11280.406     -7523.2991     -481.20508      82628.288      43.555491      43.555491      43.555491      1.0433132      1387.853       958.49182      688.79773    
     86000   86000          769.01027      1480.6788      35638.868      33845.401      12406.549      21438.853      4167.3358      6247.3012      6257.001       746.08804      255.78051      11285.456     -7520.1099     -478.7429       83053.246      43.630033      43.630033      43.630033      1.0379749      2291.0229     -362.95866      2513.972     
     86500   86500          767.20968      2251.3387      36594.816      33862.844      12377.499      21485.344      4147.9398      6095.5098      6377.5622      782.86216      304.1341       11288.841     -7511.5049     -477.8586       83206.94       43.656929      43.656929      43.656929      1.0360576      1721.8043      3216.1137      1816.098     
     87000   87000          785.53812     -174.30691      33420.638      33632.273      12673.194      20959.079      3922.1275      6026.3518      6274.8797      742.9875       215.98932      11295.865     -7519.1222     -477.59701      83252.515      43.664898      43.664898      43.664898      1.0354904     -561.00629      329.31071     -291.22515    
     87500   87500          770.92833      1940.846       36009.474      33689.498      12437.493      21252.005      4095.1422      6055.7645      6374.945       745.11017      206.10698      11289.332     -7514.3959     -485.11245      81962.753      43.438236      43.438236      43.438236      1.0517849      1200.6652      2128.9045      2492.9684    
     88000   88000          758.68263     -1360.747       32138.337      33766.447      12239.931      21526.516      4145.4285      6082.3863      6612.5617      796.51119      127.41421      11282.732     -7520.5183     -484.65043      82040.889      43.452035      43.452035      43.452035      1.0507831     -323.21972     -1581.8556     -2177.1657    
     88500   88500          777.74727     -878.97137      33339.423      34386.038      12547.504      21838.534      4218.5863      6267.8886      6576.9682      787.53454      226.92616      11281.376     -7520.7455     -486.99311      81646.231      43.382247      43.382247      43.382247      1.0558624      855.68832     -1207.9963     -2284.6061    
     89000   89000          767.98055      831.95033      34731.76       33728.045      12389.936      21338.11       4191.1277      6081.8553      6338.2268      719.31896      259.69499      11271.227     -7523.3412     -480.64251      82725          43.572478      43.572478      43.572478      1.0420935      961.0736       796.52609      738.25129    
     89500   89500          754.82464      1087.0738      34937.715      33614.82       12177.69       21437.13       4048.0754      6184.7998      6387.6103      779.62157      259.0668       11290.775     -7512.8183     -476.50601      83443.128      43.698198      43.698198      43.698198      1.033125       2043.1985      2643.0766     -1425.0537    
     90000   90000          771.90877      1059.9128      35176.082      33891.519      12453.31       21438.209      4127.4338      6239.7003      6278.6639      770.48022      225.11816      11312.299     -7515.4867     -478.46438      83101.592      43.638497      43.638497      43.638497      1.037371       13.823082      702.5702       2463.3452    
     90500   90500          776.22099     -646.82338      33280.466      34061.183      12522.88       21538.303      4134.093       6155.3559      6559.0064      757.55179      160.5987       11286.687     -7514.9897     -480.42611      82762.264      43.579019      43.579019      43.579019      1.0416243     -370.71579      870.95325     -2440.7076    
     91000   91000          779.78968      884.98691      34833.905      33776.835      12580.454      21196.381      4090.4934      6157.5082      6354.5029      709.60662      154.35362      11250.607     -7520.6908     -485.4764       81901.307      43.427378      43.427378      43.427378      1.052574       1195.2926     -1565.5962      3025.2644    
     91500   91500          752.11554      1526.407       35585.351      33735.462      12133.983      21601.478      4221.2306      6177.8489      6401.756       789.20211      260.97166      11276.499     -7526.0299     -478.47531      83099.694      43.638165      43.638165      43.638165      1.0373947      1944.7215      2093.1618      541.3378     
     92000   92000          772.72114      1462.6158      35895.458      34131.054      12466.417      21664.637      4229.4128      6278.3219      6365.2625      775.86069      233.72672      11299.728     -7517.6751     -480.69216      82716.457      43.570978      43.570978      43.570978      1.0422011      1709.6253      1237.9062      1440.3159    
     92500   92500          788.03296      2121.1347      36744.928      34222.238      12713.444      21508.794      4112.2319      6168.2211      6459.025       768.29764      231.31752      11290.679     -7520.9786     -487.57257      81549.198      43.365055      43.365055      43.365055      1.0571187      1257.2994      3313.8833      1792.2215    
     93000   93000          780.81535      1359.624       35637.096      34006.74       12597.002      21409.738      4160.4121      6042.2555      6358.1016      821.53969      258.43895      11291.823     -7522.8332     -483.58318      82221.95       43.483977      43.483977      43.483977      1.0484692      2348.3777      1156.4011      574.09325    
     93500   93500          766.49559      373.78752      34264.992      33812.457      12365.979      21446.478      4136.4787      6147.5875      6381.8909      774.91984      238.7243       11293.288     -7526.4116     -478.9688       83014.076      43.623172      43.623172      43.623172      1.0384646      1675.9868     -1097.5698      542.94552    
     94000   94000          758.99717      494.21116      34209.035      33615.492      12245.006      21370.486      4160.5896      6107.1641      6376.7179      783.37705      182.57804      11281.903     -7521.8437     -482.83124      82349.999      43.506539      43.506539      43.506539      1.0468389     -385.81284     -334.5895       2203.0358    
     94500   94500          768.51269      646.03825      34217.559      33451.855      12398.521      21053.334      4120.8473      6079.8152      6246.2223      728.19552      145.51221      11256.602     -7523.8601     -489.25154      81269.345      43.315392      43.315392      43.315392      1.0607589      775.57262     -1468.9626      2631.5047    
     95000   95000          762.97968     -1352.9786      32200.633      33806.709      12309.256      21497.453      4061.7227      6207.5269      6570.8813      775.7354       122.78489      11283.482     -7524.6799     -488.4944       81395.307      43.33776       43.33776       43.33776       1.0591174     -2874.403       769.0542      -1953.587     
     95500   95500          776.02849     -1071.2551      32653.474      33944.45       12519.774      21424.675      3942.576       6194.0864      6623.968       743.74923      161.14586      11283.479     -7524.3288     -481.18231      82632.198      43.556178      43.556178      43.556178      1.0432638     -2055.1096     -437.57246     -721.08319    
     96000   96000          766.5342      -6.513335       33589.705      33597.649      12366.602      21231.048      4087.7696      6157.3329      6295.8667      705.40912      226.20921      11278.644     -7520.1837     -475.45029      83628.41       43.730517      43.730517      43.730517      1.0308361      74.846597     -8.1383008     -86.248302    
     96500   96500          765.43395      522.25512      34215.128      33586.99       12348.851      21238.139      4171.7727      6033.9786      6370.9433      753.52359      160.0312       11272.72      -7524.8309     -482.12842      82470.045      43.527669      43.527669      43.527669      1.0453151      908.37381      639.83165      18.559904    
     97000   97000          773.79409     -234.42066      33507.029      33789.382      12483.727      21305.655      4287.4726      6032.604       6280.9224      755.95776      190.89008      11279.549     -7521.7408     -481.43643      82588.581      43.548514      43.548514      43.548514      1.0438148      505.73264     -941.18704     -267.80756    
     97500   97500          775.37399      312.49922      34316.731      33944.582      12509.215      21435.366      4286.7943      5976.6685      6423.5631      753.57368      247.4485       11274.036     -7526.7173     -486.93027      81656.767      43.384113      43.384113      43.384113      1.0557261      1581.2266      842.49143     -1486.2203    
     98000   98000          762.14687     -955.64345      32653.048      33804.387      12295.82       21508.566      4194.2384      6022.0259      6578.8639      802.28506      138.63174      11291.398     -7518.8772     -481.31294      82609.771      43.552238      43.552238      43.552238      1.0435471     -522.96385     -3106.5303      762.56383    
     98500   98500          768.8758      -917.25865      32837.61       33946.412      12404.379      21542.033      4090.766       6157.9398      6557.4812      816.01704      134.20488      11299.941     -7514.3166     -479.70313      82886.997      43.600901      43.600901      43.600901      1.0400568     -3482.5725      899.83767     -169.04113    
     99000   99000          768.06511      607.88922      34446.261      33720.021      12391.3        21328.721      4151.389       6094.7722      6297.9651      796.25668      235.03778      11270.573     -7517.2733     -485.37655      81918.157      43.430356      43.430356      43.430356      1.0523575      1886.233      -19.879112     -42.686188    
     99500   99500          766.16257     -1301.9618      32048.816      33601.214      12360.606      21240.608      4147.8801      6053.0388      6370.7007      769.48811      148.95218      11264.337     -7513.7891     -486.32859      81757.792      43.401998      43.401998      43.401998      1.0544216     -944.81111     -1300.6988     -1660.3753    
    100000   100000         765.33579      35.546727      33823.163      33780.476      12347.268      21433.209      4131.7923      6151.6404      6371.8264      772.00418      240.71783      11281.013     -7515.785      -482.88875      82340.191      43.504811      43.504811      43.504811      1.0469636      2466.5282     -1634.1509     -725.73713    
    100500   100500         771.45416      1564.9479      35615.614      33727.826      12445.976      21281.85       4195.4798      6077.7437      6222.879       783.61269      218.37321      11298.228     -7514.467      -480.70807      82713.719      43.570497      43.570497      43.570497      1.0422356      932.38525      1776.7005      1985.7578    
    101000   101000         785.16187      788.78345      34854.553      33907.111      12667.124      21239.987      4141.3038      6119.417       6281.2274      731.29015      176.22307      11301.228     -7510.7021     -482.76984      82360.473      43.508383      43.508383      43.508383      1.0467058     -1681.8724      2640.5437      1407.6791    
    101500   101500         771.97189      1110.5274      35333.661      34008.097      12454.329      21553.769      4294.8651      6245.7646      6250.283       753.55402      214.36841      11308.65      -7513.7161     -485.80685      81845.597      43.417529      43.417529      43.417529      1.0532904      2004.195       851.00151      476.3858     
    102000   102000         777.78483      236.15457      34405.749      34123.486      12548.11       21575.376      4239.7183      6175.5176      6392.0792      786.70742      215.70286      11284.01      -7518.3589     -485.15053      81956.32       43.437099      43.437099      43.437099      1.0518674      569.28904      75.22226       63.952426    
    102500   102500         784.46477      530.69914      34694.455      34052.007      12655.878      21396.129      4116.0206      6179.6526      6272.4332      760.17223      265.96111      11315.951     -7514.0622     -479.01036      83006.873      43.621911      43.621911      43.621911      1.0385548      161.68196     -57.256553      1487.672     
    103000   103000         765.72381      1594.2657      35760.138      33818.516      12353.528      21464.989      4215.5911      6212.5148      6209.4155      766.73186      269.87831      11305.52      -7514.6625     -476.13586      83507.997      43.709519      43.709519      43.709519      1.0323225      1192.1729      3711.5819     -120.95769    
    103500   103500         765.88471      722.47363      34793.44       33915.876      12356.123      21559.753      4150.2909      6221.1343      6323.7922      808.6275       294.79895      11280.192     -7519.0833     -477.39515      83287.717      43.671052      43.671052      43.671052      1.0350528      2751.2707     -154.94488     -428.90492    
    104000   104000         783.98248     -661.2929       33342.789      34137.905      12648.097      21489.807      4273.4322      6306.3655      6290.998       777.64459      74.406501      11288.365     -7521.404      -482.27901      82444.293      43.523138      43.523138      43.523138      1.0456416      139.09951     -2187.2798      64.301607    
    104500   104500         765.00682      1608.5929      35483.056      33566.113      12341.96       21224.152      4203.9327      5987.619       6358.5946      752.64185      155.01986      11288.136     -7521.7918     -486.59963      81712.252      43.393938      43.393938      43.393938      1.0550093      1806.7496      1187.955       1831.0741    
    105000   105000         764.61247     -1045.354       32563.954      33829.187      12335.598      21493.589      4067.9388      6203.8636      6421.5782      777.8939       251.30089      11284.902     -7513.8884     -479.10164      82991.057      43.61914       43.61914       43.61914       1.0387527      636.71437     -864.55446     -2908.2218    
    105500   105500         783.04327     -1019.1434      32864.18       34106.034      12632.945      21473.089      4061.0633      6117.226       6503.7155      787.21916      238.63633      11285.812     -7520.5838     -475.88253      83552.451      43.717273      43.717273      43.717273      1.0317732     -20.587191     -3352.137       315.2941     
    106000   106000         776.53658      626.02896      34855.511      34102.586      12527.971      21574.615      4233.5367      6102.2974      6483.1882      787.59348      185.84944      11294.084     -7511.9343     -482.14505      82467.2        43.527168      43.527168      43.527168      1.0453512      2860.6482     -1234.7081      252.14681    
    106500   106500         774.20097      497.37376      34316.613      33725.427      12490.291      21235.136      4138.5257      6011.7737      6363.8571      775.89232      165.79913      11295.213     -7515.9248     -487.85861      81501.384      43.356578      43.356578      43.356578      1.0577389      968.52018      1781.6163     -1258.0152    
    107000   107000         770.04076     -2764.7836      30713.451      34031.482      12423.174      21608.308      4239.8745      6152.3455      6490.0562      768.26194      176.93041      11299.904     -7519.0644     -483.18736      82289.304      43.495847      43.495847      43.495847      1.047611      -3443.2779     -2580.2924     -2270.7803    
    107500   107500         768.20254     -681.55721      33052.917      33878.894      12393.517      21485.377      4256.799       6085.7895      6380.1715      783.44974      196.46905      11299.548     -7516.8495     -478.48568      83097.894      43.637849      43.637849      43.637849      1.0374172     -834.21958     -202.91163     -1007.5404    
    108000   108000         758.20518     -1093.9377      32350.423      33670.488      12232.228      21438.26       4196.8111      6116.713       6381.7759      755.93217      228.80936      11280.065     -7521.847      -480.54274      82742.176      43.575493      43.575493      43.575493      1.0418772     -3429.1173     -1136.4494      1283.7537    
    108500   108500         762.97696      42.669787      33683.227      33631.842      12309.212      21322.63       4220.673       6088.7863      6340.514       789.87411      108.8762       11291.287     -7517.3808     -481.52443      82573.488      43.54586       43.54586       43.54586       1.0440056      973.86752      414.01275     -1259.8709    
    109000   109000         759.15682     -888.14946      32545.18       33615.939      12247.581      21368.357      4090.5267      6148.2305      6422.6693      781.07442      140.70267      11299.897     -7514.7429     -480.98258      82666.511      43.562206      43.562206      43.562206      1.0428308     -1850.983      -763.91481     -49.550579    
    109500   109500         758.3632       198.07966      33677.197      33439.975      12234.778      21205.197      4026.2409      6147.408       6306.1552      737.84614      212.25544      11291.787     -7516.4957     -484.1938       82118.259      43.46569       43.46569       43.46569       1.0497931      362.13129     -490.89053      722.99822    
    110000   110000         768.51376      1118.6833      35080.98       33740.627      12398.538      21342.088      4155.6481      6170.5207      6244.4657      748.47822      239.22981      11302.801     -7519.0555     -483.97468      82155.438      43.472249      43.472249      43.472249      1.049318       872.79975      768.65028      1714.5998    
    110500   110500         776.02605     -219.39099      33701.885      33964.803      12519.735      21445.068      4219.7552      6150.301       6346.1079      761.09247      191.02687      11297.547     -7520.7623     -483.87386      82172.556      43.475268      43.475268      43.475268      1.0490994     -1230.4482      762.16798     -189.8928     
    111000   111000         774.04785     -1652.2659      31913.725      33878          12487.82       21390.18       4148.2273      6024.3524      6548.7086      768.84281      121.32163      11292.397     -7513.6698     -487.76707      81516.68       43.35929       43.35929       43.35929       1.0575404     -3300.1101     -1857.2007      200.51302    
    111500   111500         790.12313     -1875.511       31887.741      34165.677      12747.165      21418.512      4054.4202      6269.14        6396.8336      769.45179      141.13653      11301.707     -7514.1767     -477.43339      83281.045      43.669886      43.669886      43.669886      1.0351357      520.61635     -2232.1103     -3915.0391    
    112000   112000         769.55982     -541.15733      33275.575      33934.869      12415.415      21519.455      4208.3734      6077.4287      6381.1327      759.56766      329.11276      11279.937     -7516.0972     -475.96923      83537.232      43.714619      43.714619      43.714619      1.0319612     -642.48792     -1047.9467      66.962611    
    112500   112500         769.30033     -400.03242      33327.079      33810.059      12411.228      21398.831      4172.342       6141.3424      6389.019       756.73749      152.80783      11299.751     -7513.1683     -480.28635      82786.345      43.583246      43.583246      43.583246      1.0413213     -1004.7988     -1288.0798      1092.7813    
    113000   113000         781.90357      858.17301      34981.685      33956.355      12614.558      21341.797      4141.2778      6157.2336      6407.7982      764.88058      103.45828      11284.715     -7517.5659     -485.33996      81924.332      43.431447      43.431447      43.431447      1.0522781     -572.32084      1485.7947      1661.0452    
    113500   113500         769.50509      622.51157      34583.566      33836.963      12414.531      21422.432      4053.0256      6225.6129      6420.6896      726.95295      233.86785      11290.69      -7528.4069     -483.49603      82236.771      43.48659       43.48659       43.48659       1.0482803      3098.7446     -956.36878     -274.84107    
    114000   114000         772.31019     -1141.5443      32385.234      33752.786      12459.787      21292.999      4165.7181      6138.2162      6385.2809      722.88057      124.55688      11276.649     -7520.3022     -484.04293      82143.855      43.470205      43.470205      43.470205      1.049466      -712.54008     -1467.5966     -1244.4964    
    114500   114500         768.9797       772.89545      35049.437      34127.332      12406.055      21721.277      4277.4708      6180.4155      6518.263       792.39286      171.75081      11300.058     -7519.0736     -486.04377      81805.702      43.410474      43.410474      43.410474      1.0538041      349.79869      1220.3098      748.57789    
    115000   115000         774.0006      -998.46056      32801.161      33991.488      12487.058      21504.43       4083.7736      6144.3668      6597.2911      768.12024      116.8848       11308.636     -7514.6431     -486.40655      81744.689      43.399679      43.399679      43.399679      1.0545906      172.85166     -38.228409     -3130.0049    
    115500   115500         775.6366       1107.9289      35400.82       34081.476      12513.452      21568.024      4235.6615      6139.3318      6470.7354      756.58366      188.42819      11293.227     -7515.9435     -486.95472      81652.668      43.383388      43.383388      43.383388      1.0557791      3593.3519     -324.86002      55.2949      
    116000   116000         770.86221     -1824.6016      31898.856      34106.725      12436.426      21670.299      4148.25        6242.3983      6562.9776      746.52379      183.41967      11302.249     -7515.5194     -479.21414      82971.576      43.615727      43.615727      43.615727      1.0389966     -790.66068     -2460.6574     -2222.4866    
    116500   116500         739.155       -1275.5291      31724.669      33263.627      11924.889      21338.737      4147.4187      6002.2557      6456.663       735.03443      223.83712      11290.725     -7517.1965     -480.61641      82729.493      43.573267      43.573267      43.573267      1.0420369     -638.0458      -834.70014     -2353.8413    
    117000   117000         777.33453     -1212.243       32579.242      34034.52       12540.845      21493.675      4147.698       6135.6698      6509.5419      753.96475      161.47765      11297.164     -7511.8414     -483.03502      82315.258      43.50042       43.50042       43.50042       1.0472807     -2091.3917     -779.75587     -765.58149    
    117500   117500         767.02762      859.11762      35001.992      33977.885      12374.562      21603.322      4231.7718      6136.4997      6400.1523      772.60412      288.22232      11293.741     -7519.6692     -486.45429      81736.666      43.398259      43.398259      43.398259      1.0546941     -457.60064      2144.0376      890.91586    
    118000   118000         783.0151      -344.98001      33498.468      33913.987      12632.49       21281.497      4130.3803      6017.1714      6380.8869      781.14447      195.49957      11295.196     -7518.7812     -481.43464      82588.889      43.548568      43.548568      43.548568      1.0438109      1418.679      -2769.1898      315.5708     
    118500   118500         771.09394      711.76453      34832.954      33972.742      12440.165      21532.578      4260.15        6231.2812      6234.4723      797.18978      234.82571      11293.433     -7518.7742     -479.80612      82869.205      43.597782      43.597782      43.597782      1.0402801      1679.0167     -612.88519      1069.162     
    119000   119000         782.32031     -1953.2041      31454.434      33821.702      12621.281      21200.42       4086.7006      6063.1938      6375.7755      753.59772      161.6641       11273.622     -7514.133      -478.4483       83104.386      43.638986      43.638986      43.638986      1.0373361     -3225.852      -2595.2813     -38.478916    
    119500   119500         763.49073     -362.56305      33355.589      33788.059      12317.501      21470.558      4111.3268      6183.3865      6443.1648      765.79012      173.29144      11302.332     -7508.7333     -486.14068      81789.394      43.407589      43.407589      43.407589      1.0540142      943.46535     -1368.8966     -662.25795    
    120000   120000         764.06942      274.25913      34142.85       33813.652      12326.837      21486.815      4279.6595      6135.9204      6278.8627      772.5868       230.79896      11300.239     -7511.2524     -483.10185      82303.871      43.498414      43.498414      43.498414      1.0474256      608.13282      112.23903      102.40555    
    120500   120500         753.98741     -776.29073      32905.721      33855.473      12164.183      21691.291      4332.1464      6156.0881      6428.2714      769.10054      220.2543       11297.754     -7512.3239     -473.96807      83889.937      43.776055      43.776055      43.776055      1.0276224     -1561.0362      949.23177     -1717.0677    
    121000   121000         776.88168      617.43773      34840.072      34093.885      12533.539      21560.346      4201.8821      6082.1504      6496.4456      753.11187      258.90467      11279.462     -7511.6106     -479.82192      82866.477      43.597303      43.597303      43.597303      1.0403143     -383.7782       1923.2491      312.84229    
    121500   121500         787.69932     -120.39293      34087.186      34232.372      12708.062      21524.31       4098.5769      6110.8094      6517.3565      767.25819      242.77652      11300.181     -7512.6476     -480.85211      82688.941      43.566146      43.566146      43.566146      1.0425479      1018.0628     -2887.5278      1508.2861    
    122000   122000         781.50728      401.72122      34405.024      33923.364      12608.164      21315.199      4136.6258      6102.4857      6282.8437      751.62986      224.56881      11319.072     -7502.0264     -483.63606      82212.96       43.482392      43.482392      43.482392      1.0485839      970.41902     -1241.1429      1475.8876    
    122500   122500         764.26194     -1118.9557      32435.556      33776.25       12329.943      21446.307      3976.8607      6142.8493      6559.4197      799.632        198.12843      11283.689     -7514.2722     -483.96961      82156.299      43.472401      43.472401      43.472401      1.049307      -617.68988     -2355.0725     -384.10476    
    123000   123000         757.33676     -2994.9006      29881.566      33570.187      12218.218      21351.969      3979.9941      6097.1703      6545.0513      781.06992      153.8265       11309.141     -7514.2842     -470.81822      84451.174      43.873461      43.873461      43.873461      1.0207932     -3229.7537     -2854.6136     -2900.3346    
    123500   123500         766.07145      682.27923      34590.659      33756.504      12359.136      21397.368      4108.5029      6141.8897      6314.473       754.54603      277.2512       11303.066     -7502.3611     -474.29692      83831.773      43.765936      43.765936      43.765936      1.0283354      1013.9474      1375.7232     -342.8329     
    124000   124000         779.25755      1826.0474      36050.431      33848.888      12571.869      21277.018      4083.5646      6085.9588      6292.7048      755.19158      282.58314      11290.047     -7513.0315     -480.9719       82668.348      43.562529      43.562529      43.562529      1.0428076      1106.0711      4168.1499      203.92114    
    124500   124500         781.4902       680.34391      34971.591      34150.579      12607.889      21542.69       4238.9889      6153.9449      6331.5005      790.46247      220.546        11312.239     -7504.9917     -480.52253      82745.656      43.576104      43.576104      43.576104      1.0418333      1891.321      -623.58666      773.29734    
    125000   125000         782.53457      2365.8623      36984.512      34141.791      12624.738      21517.053      4283.9793      6151.2614      6288.1664      754.63586      244.68236      11304.409     -7510.0815     -482.60302      82388.942      43.513396      43.513396      43.513396      1.0463441      3926.4751      1370.3672      1800.7446    
    125500   125500         762.44667     -308.71512      33581.581      33955.032      12300.657      21654.375      4071.6441      6213.2941      6504.1469      801.21241      279.70886      11299.784     -7515.4156     -479.35646      82946.942      43.61141       43.61141       43.61141       1.0393051     -208.48777      1896.3005     -2613.9581    
    126000   126000         753.01855     -277.42826      33489.018      33829.901      12148.552      21681.349      4147.2097      6252.4282      6487.9179      747.8058       276.73423      11285.932     -7516.6792     -471.93333      84251.629      43.838879      43.838879      43.838879      1.0232109     -1347.0887      1358.4945     -843.69061    
    126500   126500         780.68039      880.74683      35116.993      34043.49       12594.824      21448.666      4007.4872      6127.4253      6529.5498      773.3597       254.98473      11270.173     -7514.3133     -475.75419      83574.991      43.721204      43.721204      43.721204      1.031495       1384.5135      124.52455      1133.2024    
    127000   127000         777.86024      1181.4212      35605.472      34175.398      12549.326      21626.072      4180.9704      6027.393       6589.9036      780.56726      257.56537      11302.031     -7512.3594     -479.05015      82999.978      43.620703      43.620703      43.620703      1.038641       119.06148      679.3661       2745.8362    
    127500   127500         772.71627      468.75105      34638.86       34071.345      12466.338      21605.007      4213.9659      6044.5359      6508.9347      792.52647      284.07888      11271.644     -7510.6784     -478.96106      83015.417      43.623407      43.623407      43.623407      1.0384479     -123.43403      744.03826      785.64891    
    128000   128000         749.23651      568.32085      34344.966      33660.836      12087.536      21573.3        4047.8335      6245.1067      6468.0488      774.53614      272.98556      11275.007     -7510.2175     -481.7142       82540.958      43.540141      43.540141      43.540141      1.044417      -937.30845      1218.3134      1423.9576    
    128500   128500         758.26614      3202.6454      37603.068      33762.997      12233.212      21529.785      4183.9565      6222.0884      6325.4721      787.76774      236.02206      11284.713     -7510.2341     -483.62025      82215.648      43.482866      43.482866      43.482866      1.0485496      2214.701       3446.4573      3946.778     
    129000   129000         765.67611     -2321.0081      31239.123      34061.336      12352.758      21708.578      4149.0534      6052.4416      6719.9421      803.32646      202.96798      11291.414     -7510.5672     -476.89373      83375.288      43.686352      43.686352      43.686352      1.0339656     -2084.3383     -3585.7486     -1292.9376    
    129500   129500         771.59165      79.662432      34138.011      34040.751      12448.194      21592.556      4234.0858      6004.9702      6540.1126      754.38093      287.04972      11285.879     -7513.9223     -474.95301      83715.971      43.745774      43.745774      43.745774      1.0297579      530.56374      1065.748      -1357.3245    
    130000   130000         782.86498     -664.78026      33243.466      34050.454      12630.068      21420.386      4166.6193      6059.2808      6451.6294      777.52952      194.63926      11278.262     -7507.5751     -477.6898       83236.342      43.662071      43.662071      43.662071      1.0356916     -201.11052     -1148.1948     -645.03552    
    130500   130500         775.87828      431.11374      34727.053      34207.493      12517.351      21690.142      4267.6325      6020.3775      6596.2822      773.09677      247.62504      11298.88      -7513.7512     -481.16228      82635.637      43.556783      43.556783      43.556783      1.0432204      1756.9384     -497.35643      33.759223    
    131000   131000         757.77785      1841.8756      36192.869      33956.459      12225.334      21731.124      4309.5507      6136.8878      6412.6246      759.65308      328.70045      11289.953     -7506.245      -477.57729      83255.952      43.665499      43.665499      43.665499      1.0354477      3642.3705      903.82114      979.43505    
    131500   131500         763.31526      798.95249      34800.645      33822.599      12314.67       21507.929      4153.8722      6119.2325      6305.3927      791.39698      335.43449      11301.849     -7499.2484     -473.69266      83938.712      43.784538      43.784538      43.784538      1.0270253      1300.4935      804.23374      292.13025    
    132000   132000         765.1016      -2088.0182      31463.237      33990.03       12343.489      21646.54       4120.7111      6084.1135      6710.9681      793.11951      141.4529       11300.229     -7504.0539     -479.181        82977.314      43.616732      43.616732      43.616732      1.0389247     -745.33182     -3233.7247     -2284.998     
    132500   132500         760.27215      1311.8063      35257.957      33681.434      12265.575      21415.858      4116.343       6111.6152      6432.3771      776.1217       177.01154      11308.445     -7506.0556     -482.50748      82405.254      43.516267      43.516267      43.516267      1.046137       1176.8927      79.943936      2678.5822    
    133000   133000         768.3886       110.68874      33924.876      33789.367      12396.519      21392.848      4177.8685      6119.4426      6302.4289      790.2025       220.29549      11282.823     -7500.213      -473.66374      83943.837      43.785429      43.785429      43.785429      1.0269626      308.54586      586.96929     -563.44892    
    133500   133500         769.00051     -490.43856      33453.302      34055.987      12406.391      21649.596      4193.3843      6143.7957      6515.4057      767.62158      232.31088      11306.258     -7509.1806     -471.87782      84261.54       43.840598      43.840598      43.840598      1.0230905     -297.72568     -1680.2548      506.66475    
    134000   134000         772.49044      1922.7192      36426.047      34095.03       12462.695      21632.336      4136.3823      6038.8209      6562.0817      774.25406      339.376        11292.789     -7511.3686     -478.30536      83129.222      43.643332      43.643332      43.643332      1.0370262      1773.1979      2122.7954      1872.1642    
    134500   134500         774.8834       194.50852      34472.664      34237.081      12501.301      21735.781      4152.0714      6174.4572      6579.3919      773.37289      267.39292      11295.608     -7506.5132     -478.77476      83047.719      43.629065      43.629065      43.629065      1.038044      -1811.4463      2356.6319      38.339912    
    135000   135000         779.87093      1022.1034      35341.251      34089.056      12581.765      21507.291      4208.075       5990.5925      6443.5495      775.21831      317.41807      11282.902     -7510.4639     -473.32303      84004.263      43.795932      43.795932      43.795932      1.0262239      310.29682      5.7492357      2750.2642    
    135500   135500         769.40765     -1130.8191      32607.711      33994.374      12412.959      21581.415      4047.2302      6116.1967      6589.7729      811.91779      255.69297      11272.267     -7511.6626     -472.88651      84081.806      43.809404      43.809404      43.809404      1.0252775     -529.77991      467.13402     -3329.8115    
    136000   136000         765.19162     -347.08463      33393.962      33818.882      12344.942      21473.94       4120.9873      6202.171       6391.4661      763.35847      235.58665      11272.651     -7512.2809     -473.65597      83945.215      43.785668      43.785668      43.785668      1.0269458     -661.38292     -383.21306      3.3421017    
    136500   136500         765.35991     -1066.7425      32498.343      33794.575      12347.657      21446.918      4087.4153      6157.436       6465.9167      757.42276      201.41107      11291.728     -7514.4116     -477.21258      83319.58       43.67662       43.67662       43.67662       1.034657      -2520.6848      204.16053     -883.70309    
    137000   137000         775.16502     -315.536        33671.566      34050.98       12505.844      21545.136      4168.5311      6121.3931      6577.8595      759.5304       133.81159      11296.412     -7512.4012     -482.24776      82449.636      43.524078      43.524078      43.524078      1.0455738     -477.84456      977.74436     -1446.5078    
    137500   137500         774.51416      45.201299      34163.298      34108.67       12495.344      21613.327      4213.3859      6064.5819      6562.2061      770.24108      207.57768      11311.134     -7515.8        -479.81688      82867.347      43.597456      43.597456      43.597456      1.0403034     -1711.8686      7.7072388      1839.7652    
    138000   138000         763.71874      390.15192      34373.293      33895.059      12321.179      21573.88       4082.3904      6164.6425      6530.4444      780.99112      224.02724      11298.842     -7507.4573     -473.07336      84048.597      43.803635      43.803635      43.803635      1.0256826      663.61372      1564.2673     -1057.4253    
    138500   138500         778.31671     -1293.7925      32199.911      33765.556      12556.691      21208.866      3899.175       6104.2703      6487.9206      775.76453      170.19159      11283.257     -7511.7136     -479.18813      82976.079      43.616516      43.616516      43.616516      1.0389402     -1564.0311     -1910.7605     -406.58578    
    139000   139000         766.003        118.41954      34013.958      33873.066      12358.032      21515.035      4140.5147      6204.2359      6502.5019      782.2924       107.08946      11287.828     -7509.4281     -487.38702      81580.243      43.370557      43.370557      43.370557      1.0567164      78.721951     -1109.3755      1385.9121    
    139500   139500         780.03982      1965.5171      36592.867      34242.768      12584.49       21658.279      4259.7946      6084.4395      6515.8033      782.72814      216.89508      11307.147     -7508.5289     -484.98188      81984.82       43.442134      43.442134      43.442134      1.0515018      1867.7064      2581.9862      1446.8588    
    140000   140000         783.5757       1196.5952      35519.036      34069.527      12641.535      21427.992      4241.3375      6161.4698      6327.4874      767.78297      161.6217       11278.59      -7510.2974     -478.69747      83061.128      43.631413      43.631413      43.631413      1.0378764     -150.6788       2172.6513      1567.8131    
    140500   140500         762.01751     -22.65727       33869.145      33896.298      12293.733      21602.565      4239.6534      6196.2384      6494.9739      773.04127      127.01633      11288.846     -7517.2046     -483.86865      82173.441      43.475424      43.475424      43.475424      1.0490881      2848.0713     -550.28611     -2365.757     
    141000   141000         769.52809      1566.3377      35891.058      34014.034      12414.903      21599.132      4357.9603      6199.4987      6295.3911      750.10717      195.11311      11307.06      -7505.999      -483.89418      82169.105      43.474659      43.474659      43.474659      1.0491435      1436.1071      1606.6633      1656.2427    
    141500   141500         768.76295      589.22778      34476.49       33764.765      12402.559      21362.206      4239.8051      6181.0409      6202.6798      742.23217      225.97822      11280.676     -7510.2055     -480.07158      82823.382      43.589744      43.589744      43.589744      1.0408556      2451.0734      274.48227     -957.87233    
    142000   142000         761.20483     -248.13804      33623.867      33922.148      12280.622      21641.525      4117.893       6248.565       6471.2196      755.29585      251.93907      11300.065     -7503.4524     -482.3952       82424.436      43.519643      43.519643      43.519643      1.0458935     -1108.7869      1264.2604     -899.88761    
    142500   142500         759.05197     -273.87036      33767.506      34095.325      12245.89       21849.435      4195.1025      6359.406       6504.1727      791.97202      217.99753      11290.259     -7509.4741     -484.44572      82075.556      43.458154      43.458154      43.458154      1.0503393     -36.301186     -1798.6851      1013.3752    
    143000   143000         761.22762      1111.0039      35147.163      33821.511      12280.99       21540.521      4155.6665      6026.1178      6532.5665      782.98588      260.69907      11293.339     -7510.8536     -485.98277      81815.971      43.41229       43.41229       43.41229       1.0536718      1951.593       426.58173      954.83681    
    143500   143500         754.82052      463.97737      34370.652      33805.854      12177.623      21628.23       4259.6519      6143.55        6518.5136      775.17845      144.82875      11300.755     -7514.247      -476.36317      83468.149      43.702565      43.702565      43.702565      1.0328153      1228.4343      918.48064     -754.98281    
    144000   144000         765.93415      114.68852      33796.914      33658.457      12356.921      21301.536      4390.6645      5964.1336      6221.8142      750.09085      211.34185      11275.743     -7512.2528     -480.3295       82778.909      43.581941      43.581941      43.581941      1.0414148      1107.8812      28.893304     -792.70895    
    144500   144500         762.21573     -366.73869      33216.925      33655.091      12296.931      21358.16       4192.4417      6110.7242      6337.8466      786.46897      146.98468      11288.245     -7504.5506     -485.34747      81923.064      43.431223      43.431223      43.431223      1.0522944     -1549.4143     -1052.2092      1501.4074    
    145000   145000         767.3172       557.58881      34561.624      33895.121      12379.234      21515.887      4136.139       6279.1974      6401.8867      776.99555      143.19881      11292.345     -7513.8751     -485.11754      81961.894      43.438084      43.438084      43.438084      1.0517959      636.4005      -300.26238      1336.6283    
    145500   145500         783.73252     -2706.6187      30882.3        34152.337      12644.065      21508.272      4088.6243      5976.0559      6718.9789      770.4259       197.8589       11274.525     -7518.1968     -479.96469      82841.827      43.59298       43.59298       43.59298       1.0406239     -2362.09       -1400.6908     -4357.0754    
    146000   146000         775.03842     -1943.9025      31540.096      33883.342      12503.801      21379.541      4089.2658      6167.9627      6457.6425      779.95022      120.84055      11277.593     -7513.7141     -481.0514       82654.685      43.560129      43.560129      43.560129      1.04298       -901.19247     -915.55059     -4014.9646    
    146500   146500         770.09681      2102.7098      36374.95       33822.332      12424.078      21398.254      4136.0053      6146.4921      6257.0949      789.14075      296.37867      11288.71      -7515.5675     -477.67037      83239.729      43.662663      43.662663      43.662663      1.0356495      2470.0769      1761.7388      2076.3136    
    147000   147000         772.12414      393.56751      34266.511      33787.994      12456.785      21331.209      4113.183       6189.9327      6301.3115      793.19062      199.32628      11257.385     -7523.1206     -476.93259      83368.494      43.685166      43.685166      43.685166      1.0340499      86.255577      817.39721      277.04974    
    147500   147500         756.58298      247.63354      34029.907      33727.602      12206.057      21521.545      4278.5327      6072.0957      6429.497       785.96148      199.11815      11271.571     -7515.2308     -475.00615      83706.605      43.744143      43.744143      43.744143      1.0298731      921.88394     -724.25901      545.27568    
    148000   148000         772.49038      1993.9442      36444.65       34033.043      12462.694      21570.35       4210.5842      6307.8112      6311.3764      767.39563      193.2923       11291.002     -7511.1123     -479.44778      82931.143      43.608641      43.608641      43.608641      1.0395031      2808.1274      1486.8549      1686.8503    
    148500   148500         776.99122      2444.996       36773.835      33851.181      12535.306      21315.874      4296.9653      6072.1018      6275.6971      762.07865      151.17653      11275.158     -7517.3029     -485.10485      81964.037      43.438463      43.438463      43.438463      1.0517684      4668.0643      422.34362      2244.5801    
    149000   149000         765.65111     -420.70429      33536.915      34037.66       12352.355      21685.305      4200.7992      6091.1739      6583.8573      791.04707      276.83145      11255.478     -7513.8818     -487.18703      81613.733      43.376491      43.376491      43.376491      1.0562828      1560.7922     -216.66049     -2606.2446    
    149500   149500         783.01475      1767.1735      36122.883      33980.461      12632.485      21347.976      4110.3476      6020.1048      6433.3924      769.17931      265.98299      11266.734     -7517.7656     -478.30936      83128.525      43.643211      43.643211      43.643211      1.0370349      1496.5139      2903.3131      901.6935     
    150000   150000         780.43151     -298.506        33828.868      34194.403      12590.809      21603.594      4089.7896      6021.7618      6622.4639      779.94495      318.26817      11286.95      -7515.5837     -473.54187      83965.442      43.789185      43.789185      43.789185      1.0266984      266.43674      366.7838      -1528.7385    
    150500   150500         780.2243       479.32432      34772.838      34188.829      12587.466      21601.363      4234.1265      6215.4724      6354.5722      771.9946       228.76951      11309.651     -7513.2228     -475.93195      83543.776      43.71576       43.71576       43.71576       1.0318804     -609.37249      754.44901      1292.8964    
    151000   151000         766.11043      953.68526      34952.093      33788.673      12359.765      21428.907      4139.4264      6193.2359      6330.259       731.0135       259.01821      11288.398     -7512.4433     -475.33867      83648.049      43.73394       43.73394       43.73394       1.0305941      497.06103      2796.0392     -432.04449    
    151500   151500         769.79523     -18.026182      33778.57       33800.339      12419.212      21381.127      4003.8261      6108.1652      6465.0093      779.52577      249.57103      11289.531     -7514.5016     -480.17626      82805.327      43.586576      43.586576      43.586576      1.0410826      1743.261      -552.74856     -1244.591     
    152000   152000         780.86452      2561.7609      37017.061      33919.701      12597.795      21321.906      4073.4255      6197.9622      6238.4314      748.80024      261.9951       11308.239     -7506.9474     -479.60279      82904.339      43.603942      43.603942      43.603942      1.0398392      3940.9096      2176.9058      1567.4674    
    152500   152500         782.36014     -1443.8906      32479.117      34242.808      12621.924      21620.884      4030.7643      6193.2163      6598.6939      774.74946      219.96322      11313.415     -7509.9184     -474.73013      83755.274      43.752619      43.752619      43.752619      1.0292747      149.01144     -716.88698     -3763.7963    
    153000   153000         785.82241      842.52323      35203.692      34179.231      12677.781      21501.45       4101.2808      6039.003       6467.8045      803.04084      314.02046      11287.51      -7511.21       -476.8935       83375.327      43.686359      43.686359      43.686359      1.0339651      1609.5484      2027.677      -1109.6558    
    153500   153500         766.76752     -3007.0775      30318.337      34007.597      12370.366      21637.231      4173.2834      6277.6247      6439.4557      756.75245      213.37704      11285.782     -7509.0443     -472.65056      84123.78       43.816693      43.816693      43.816693      1.0247659     -1707.2488     -2347.2113     -4966.7725    
    154000   154000         768.82126     -957.84371      32622.971      33775.583      12403.499      21372.083      4206.0236      6132.2116      6322.8289      739.35687      175.60287      11305.39      -7509.3302     -481.88835      82511.129      43.534896      43.534896      43.534896      1.0447946     -118.51224     -1907.4598     -847.55907    
    154500   154500         763.64177     -712.21811      32822.32       33670.089      12319.938      21350.151      4099.0417      6046.7814      6600.8317      765.35221      69.786505      11277.932     -7509.5738     -487.15856      81618.502      43.377336      43.377336      43.377336      1.0562211     -521.29637     -2121.9392      506.58125    
    155000   155000         771.59184     -186.11504      33571.564      33794.452      12448.197      21346.255      4164.5457      6109.2466      6422.7173      730.01262      150.98327      11280.892     -7512.143      -484.20571      82116.239      43.465333      43.465333      43.465333      1.0498189      1002.0723     -1772.8319      212.41446    
    155500   155500         781.53002     -2263.5395      31257.295      34006.435      12608.531      21397.903      4209.2716      6252.2498      6245.8769      727.8569       175.88632      11296.492     -7509.73       -477.44809      83278.482      43.669438      43.669438      43.669438      1.0351676      26.664441     -3138.6529     -3678.6299    
    156000   156000         767.26993     -99.880167      33948.65       34069.849      12378.471      21691.377      4269.3239      6217.6532      6345.6189      772.67971      289.58811      11301.877     -7505.3637     -477.87817      83203.532      43.656333      43.656333      43.656333      1.0361        -778.16187      2.1348246      476.38654    
    156500   156500         762.66408      575.18553      34590.696      33889.287      12304.164      21585.122      4143.3183      6208.0292      6370.5335      777.2168       292.50164      11304.771     -7511.2481     -475.52267      83615.682      43.728298      43.728298      43.728298      1.030993      -1032.507       1765.9947      992.0689     
    157000   157000         777.45299      1465.0015      35592.867      33820.241      12542.756      21277.485      4140.6211      6086.2582      6277.9776      754.55683      229.83866      11300.622     -7512.3891     -479.24319      82966.546      43.614845      43.614845      43.614845      1.0390596      1308.9867      3633.9582     -547.94037    
    157500   157500         771.26076      574.35662      34684.662      33988.9        12442.856      21546.044      4265.0406      6079.5558      6373.2276      794.5734       221.29855      11319.375     -7507.027      -478.69155      83062.155      43.631593      43.631593      43.631593      1.0378636      3223.0886     -369.10351     -1130.9153    
    158000   158000         756.2581      -1201.2901      32091.588      33537.602      12200.816      21336.786      4087.0647      6143.9349      6356.3443      729.97346      244.34252      11289.183     -7514.0569     -481.73751      82536.965      43.539439      43.539439      43.539439      1.0444676     -1726.5009      1025.1822     -2902.5516    
    158500   158500         762.70545      619.36771      34325.886      33578.641      12304.832      21273.809      4150.5371      6058.6368      6292.2938      794.35474      185.43492      11303.848     -7511.2967     -480.6404       82725.363      43.572542      43.572542      43.572542      1.0420889      948.62379      301.7127       607.76665    
    159000   159000         784.98698      482.35545      34529.161      33946.467      12664.303      21282.164      4130.3264      6158.1623      6281.5494      745.6894       185.5323       11292.339     -7511.4354     -480.02209      82831.921      43.591242      43.591242      43.591242      1.0407483     -721.52966      481.94749      1686.6485    
    159500   159500         766.63192      1881.0821      36192.855      33924.06       12368.178      21555.881      4212.2521      6117.3884      6421.813       795.12915      238.71144      11293.212     -7522.6246     -480.78089      82701.191      43.568297      43.568297      43.568297      1.0423935      2851.0117      1403.0348      1389.1997    
    160000   160000         758.27191     -2327.7113      31028.524      33855.593      12233.305      21622.288      4126.3776      6171.8144      6595.7959      825.55568      117.64733      11300.041     -7514.9438     -477.44954      83278.228      43.669393      43.669393      43.669393      1.0351707     -2671.9871     -1692.9959     -2618.1509    
    160500   160500         769.73634      95.928345      33937.805      33822.058      12418.262      21403.795      4080.0682      6210.2832      6389.283       759.18392      201.39928      11284.385     -7520.8068     -480.58561      82734.796      43.574198      43.574198      43.574198      1.0419701      2569.7971     -1786.213      -495.79902    
    161000   161000         761.95593      1138.7221      35159.564      33793.951      12292.74       21501.211      4206.5803      6149.1001      6391.9093      795.86059      184.57568      11286.572     -7513.3866     -483.53195      82230.661      43.485513      43.485513      43.485513      1.0483581      2562.2823     -2464.2244      3318.1083    
    161500   161500         770.7143      -656.844        33259.43       34049.573      12434.04       21615.533      4166.8138      6196.105       6518.9162      774.95166      168.41257      11302.756     -7512.422      -482.04964      82483.521      43.53004       43.53004       43.53004       1.0451443      25.045117     -1978.6312     -16.945948    
    162000   162000         770.10014     -281.92162      33753.077      34093.173      12424.132      21669.041      4158.1418      6136.3562      6587.1737      768.42823      262.40466      11271.004     -7514.4669     -480.68668      82717.399      43.571143      43.571143      43.571143      1.0421892      755.11165     -721.0892      -879.78731    
    162500   162500         780.66861      2555.055       37305.852      34235.975      12594.634      21641.341      4314.6405      6298.9501      6276.7302      782.52314      181.18755      11299.151     -7511.8418     -482.62973      82384.382      43.512593      43.512593      43.512593      1.046402       1440.1065      4028.3134      2196.7451    
    163000   163000         773.71015      652.52233      34871.642      34088.871      12482.372      21606.499      4267.1994      6235.6359      6441.9169      756.92687      148.78101      11271.884     -7515.8448     -483.38763      82255.212      43.48984       43.48984       43.48984       1.0480452      1163.183       2241.1822     -1446.7982    
    163500   163500         758.54352     -585.8957       32946.876      33646.371      12237.687      21408.684      4136.37        6103.7879      6497.742       770.64743      150.41632      11269.839     -7520.1185     -485.70251      81863.18       43.420638      43.420638      43.420638      1.0530642     -2105.407      -850.20391      1197.9238    
    164000   164000         765.95034     -1264.8501      32285.465      33819.145      12357.182      21461.963      4142.9731      6073.3209      6536.0887      743.93332      181.72973      11301.235     -7517.3184     -478.23261      83141.867      43.645545      43.645545      43.645545      1.0368685     -2214.9737     -434.77965     -1144.797     
    164500   164500         772.26146     -415.89307      33787.079      34289.557      12459          21830.556      4258.0706      6033.926       6693.4399      819.31466      238.09184      11295.199     -7507.4857     -479.95432      82843.617      43.593294      43.593294      43.593294      1.0406014      600.38566     -633.92554     -1214.1393    
    165000   165000         768.54879     -108.38743      33575.381      33705.736      12399.103      21306.633      4130.3719      6116.9106      6375.2569      781.10125      139.67534      11281.059     -7517.742      -482.15152      82466.092      43.526974      43.526974      43.526974      1.0453652      529.45749     -809.15589     -45.463882    
    165500   165500         770.90952     -709.98147      32914.403      33761.085      12437.189      21323.896      4036.5419      5967.9985      6661.3988      786.62682      126.20898      11258.555     -7513.4345     -486.2521       81770.653      43.404273      43.404273      43.404273      1.0542558      1700.6338     -1600.1477     -2230.4305    
    166000   166000         778.93417     -839.55864      33186.86       34205.338      12566.652      21638.686      4279.8725      6087.952       6582.7145      748.69185      145.52752      11300.325     -7506.3968     -478.00665      83181.169      43.652421      43.652421      43.652421      1.0363786     -134.29355     -169.1768      -2215.2056    
    166500   166500         772.16711      721.85353      34977.045      34106.712      12457.478      21649.234      4189.0257      6230.9646      6537.6794      764.69561      176.13018      11263.849     -7513.1111     -480.94818      82672.424      43.563245      43.563245      43.563245      1.0427562      2583.8351     -152.02254     -266.252      
    167000   167000         772.7106       302.23873      34259.757      33901.589      12466.246      21435.343      4147.9063      6104.5298      6494.3413      762.11428      178.89716      11272.342     -7524.7882     -489.32618      81256.948      43.31319       43.31319       43.31319       1.0609208      563.68849      1016.2773     -673.2496     
    167500   167500         765.94967      1861.1074      36069.397      33866.816      12357.171      21509.644      4293.3103      6160.3807      6367.9521      751.80471      173.60421      11281.969     -7519.377      -489.97543      81149.277      43.29405       43.29405       43.29405       1.0623284      1290.3288      3226.0393      1066.954     
    168000   168000         776.12581      1652.568       36087.875      34096.601      12521.344      21575.256      4131.1022      6243.0837      6434.2722      771.89284      215.71906      11296.004     -7516.818      -481.24144      82622.045      43.554394      43.554394      43.554394      1.043392       326.78346      2613.1555      2017.765     
    168500   168500         760.78858      968.4434       34975.851      33793.598      12273.907      21519.691      4124.4357      6153.4148      6468.4857      779.81245      219.33014      11291.215     -7517.0026     -475.00524      83706.766      43.744171      43.744171      43.744171      1.0298711     -294.59466      2873.4916      326.43322    
    169000   169000         767.36274     -26.789488      33653.014      33685.276      12379.969      21305.307      4089.7461      6091.4079      6470.1526      766.79661      106.63367      11294.155     -7513.5849     -481.51831      82574.537      43.546045      43.546045      43.546045      1.0439923     -498.38235      2006.3826     -1588.3687    
    169500   169500         763.30613     -752.72092      32558.745      33455.106      12314.523      21140.584      4103.4151      5943.9295      6465.0536      764.43008      99.092762      11286.669     -7522.0063     -486.95128      81653.244      43.383489      43.383489      43.383489      1.0557717     -1647.3623     -943.26193      332.46149    
    170000   170000         766.972       -979.55349      32735.244      33907.918      12373.665      21534.253      4202.5539      6188.7163      6434.9056      777.96904      148.85008      11295.617     -7514.3584     -484.37916      82086.835      43.460145      43.460145      43.460145      1.050195      -1033.5977     -1845.7008     -59.361977    
    170500   170500         761.63977     -523.6627       33213.124      33841.502      12287.639      21553.863      4247.2174      6044.3176      6481.0039      763.9412       252.54262      11282.434     -7517.5945     -483.243        82279.83       43.494178      43.494178      43.494178      1.0477317     -1784.4615     -183.67144      397.14485    
    171000   171000         769.89874     -292.45855      33739.505      34086.744      12420.882      21665.861      4195.3149      6093.1951      6651.5909      799.7986       160.76116      11290.113     -7524.9119     -488.39469      81411.926      43.340709      43.340709      43.340709      1.0589012      642.1293      -1614.2857      94.780795    
    171500   171500         792.14755     -825.87176      33330.416      34315.446      12779.825      21535.621      4103.9566      6155.5717      6567.689       768.57148      167.73078      11290.57      -7518.4687     -486.18114      81782.589      43.406385      43.406385      43.406385      1.0541019      577.56047     -2968.7248     -86.450992    
    172000   172000         766.80158     -224.14696      33662.949      33933.988      12370.915      21563.072      4074.291       6123.4025      6538.7551      785.94765      272.23231      11289.955     -7521.5111     -479.55176      82913.16       43.605489      43.605489      43.605489      1.0397286      1608.7786     -602.45714     -1678.7623    
    172500   172500         773.62948      47.925186      33915.39       33857.129      12481.071      21376.059      4131.3949      6086.8639      6381.8701      730.97628      265.29398      11291.343     -7511.6837     -477.00975      83355.01       43.68281       43.68281       43.68281       1.0342172      443.15408     -875.26453      575.88601    
    173000   173000         763.1163      -286.31318      33599.279      33946.751      12311.46       21635.291      4120.5796      6140.34        6548.245       771.96356      296.89067      11273.388     -7516.1163     -477.81107      83215.218      43.658377      43.658377      43.658377      1.0359545      29.501647     -447.80089     -440.64029    
    173500   173500         771.20907     -1262.7735      32419.357      33920.322      12442.022      21478.3        4034.6728      6089.5518      6658.3527      773.17244      160.13167      11277.209     -7514.7903     -487.85388      81502.175      43.356718      43.356718      43.356718      1.0577286     -3180.9383     -898.01926      290.63702    
    174000   174000         786.76278      24.846315      34127.879      34098.079      12692.952      21405.126      4135.3949      6058.5281      6525.644       766.94851      152.99149      11281.269     -7515.6492     -483.47525      82240.306      43.487213      43.487213      43.487213      1.0482352     -218.51939     -229.99213      523.05047    
    174500   174500         753.35873     -2487.1004      30498.664      33505.614      12154.04       21351.574      3888.1224      6156.6842      6555.8193      793.88367      185.97461      11291.18      -7520.091      -479.62516      82900.472      43.603264      43.603264      43.603264      1.0398877     -3948.122      -1319.9381     -2193.241     
    175000   175000         760.33716     -517.32162      33044.685      33667.213      12266.624      21400.589      4099.5798      6044.3596      6512.275       758.4036       203.87422      11293.026     -7510.9289     -481.8773       82513.022      43.535229      43.535229      43.535229      1.0447706     -883.818        932.35892     -1600.5058    
    175500   175500         765.12189      446.79656      34489.927      33951.838      12343.817      21608.022      4101.7356      6097.3122      6591.3894      806.33922      248.89924      11279.777     -7517.4305     -481.4938       82578.741      43.546784      43.546784      43.546784      1.0439392     -10.318728      1318.1602      32.548252    
    176000   176000         758.97825      1475.7592      35467.237      33678.429      12244.7        21433.728      4270.6737      5983.6674      6333.2842      758.7934       312.88387      11286.749     -7512.3229     -478.39503      83113.64       43.640605      43.640605      43.640605      1.0372206      2741.8758      1893.8343     -208.43245    
    176500   176500         782.30846     -688.75141      33222.812      34050.249      12621.09       21429.159      4139.2402      6096.9631      6514.5405      768.30429      145.02175      11281.264     -7516.1744     -482.68324      82375.249      43.510985      43.510985      43.510985      1.046518       322.10605     -1584.5341     -803.82619    
    177000   177000         775.38463      2522.9779      37162.446      34166.151      12509.387      21656.764      4359.7339      6253.139       6274.9659      779.33328      239.07965      11271.182     -7520.6693     -488.2741       81432.031      43.344276      43.344276      43.344276      1.0586397      2378.9991      4515.4684      674.46624    
    177500   177500         766.43334      1171.9343      35105.051      33702.834      12364.975      21337.859      4128.3149      6174.9227      6314.1469      750.50996      175.45944      11304.177     -7509.6715     -484.64398      82041.981      43.452228      43.452228      43.452228      1.0507692      613.5133      -1356.7775      4259.0671    
    178000   178000         762.88558      2376.7002      36549.959      33692.644      12307.738      21384.906      4137.6625      6072.6055      6415.3203      773.05336      193.76057      11306.956     -7514.4519     -482.3376       82434.278      43.521376      43.521376      43.521376      1.0457686      2395.2835      3491.8485      1242.9688    
    178500   178500         744.60893      445.80282      34058.086      33522.889      12012.878      21510.011      4094.9207      6291.2066      6411.8549      770.70033      169.91105      11291.977     -7520.56       -483.01881      82318.02       43.500906      43.500906      43.500906      1.0472456      1294.6777      207.09312     -164.36238    
    179000   179000         768.14588      1076.9092      35187.578      33908.471      12392.603      21515.867      4097.8246      6148.3967      6520.9375      776.11026      174.07093      11310.907     -7512.3798     -488.21044      81442.649      43.34616       43.34616       43.34616       1.0585017      961.2043       496.26486      1773.2585    
    179500   179500         788.57148     -735.98958      33106.411      33982.073      12722.132      21259.941      3987.5785      6107.8232      6485.8524      769.23493      133.42523      11296.075     -7520.0478     -487.38248      81581.004      43.370692      43.370692      43.370692      1.0567066     -2121.2841      312.15713     -398.84173    
    180000   180000         777.46425      1552.2516      35931.793      34075.203      12542.938      21532.265      4365.5449      6152.0169      6307.0501      747.70542      186.6995       11292.954     -7519.7054     -484.82046      82012.116      43.446954      43.446954      43.446954      1.0511518      1932.7489      228.82779      2495.1782    
    180500   180500         765.68029     -2064.8568      31370.222      33858.906      12352.825      21506.081      4318.3535      6093.8817      6463.2954      781.48332      98.262069      11267.23      -7516.4249     -481.12178      82642.595      43.558005      43.558005      43.558005      1.0431326     -3126.5852     -914.32829     -2153.6569    
    181000   181000         766.40225     -412.25835      33112.083      33605.886      12364.473      21241.413      4163.4064      5998.5171      6349.876       730.00623      236.21699      11286.134     -7522.7438     -484.11733      82131.23       43.467978      43.467978      43.467978      1.0496273      1799.5586     -2822.6891     -213.64458    
    181500   181500         757.43008     -1641.5545      31676.954      33630.619      12219.724      21410.895      4315.3857      6006.384       6525.6713      759.19641      68.693361      11252.553     -7516.9892     -487.23669      81605.414      43.375017      43.375017      43.375017      1.0563905      413.1129      -2759.141      -2578.6354    
    182000   182000         765.18027     -2136.9218      31102.51       33667.077      12344.759      21322.318      4264.4541      6075.883       6288.0205      750.43573      172.92369      11286.076     -7515.4751     -483.18061      82290.455      43.49605       43.49605       43.49605       1.0475964     -2989.6074     -2673.4405     -747.71764    
    182500   182500         765.52016     -1028.1168      32483.107      33721.369      12350.242      21371.127      4085.4733      6110.8155      6469.1155      743.03023      176.18085      11303.166     -7516.6544     -481.46499      82583.683      43.547653      43.547653      43.547653      1.0438767     -1632.0487     -732.73483     -719.56679    
    183000   183000         790.64903     -1375.7404      32652.299      34294.734      12755.65       21539.084      4209.3991      6250.8962      6394.2802      800.5953       115.00855      11281.962     -7513.0575     -485.71682      81860.768      43.420212      43.420212      43.420212      1.0530952     -735.82383     -568.4932      -2822.9042    
    183500   183500         770.39204     -551.82827      33019.697      33677.991      12428.841      21249.15       4041.2941      6367.7361      6228.8446      790.40454      51.41566       11277.442     -7507.9874     -486.09283      81797.447      43.409013      43.409013      43.409013      1.0539104      1432.7984     -1655.4073     -1432.8759    
    184000   184000         775.45955     -1556.2217      32262.762      34159.392      12510.596      21648.796      4227.2869      6188.5951      6483.176       789.8547       172.12102      11295.707     -7507.944      -475.79922      83567.081      43.719825      43.719825      43.719825      1.0315926     -657.51273     -2531.4652     -1479.6873    
    184500   184500         773.15052      711.34828      34816.701      33957.828      12473.344      21484.484      4307.8424      6201.2434      6266.2942      735.27203      209.02171      11277.979     -7513.169      -480.27281      82788.679      43.583655      43.583655      43.583655      1.0412919      339.56924      1068.7928      725.68281    
    185000   185000         769.5155       417.89338      34381.634      33882.768      12414.699      21468.069      4216.3645      6204.5273      6360.823       759.2139       144.34952      11289.373     -7506.5828     -485.75416      81854.476      43.419099      43.419099      43.419099      1.0531762      2237.8511      309.69387     -1293.8648    
    185500   185500         757.84946      1793.2168      35750.59       33611.56       12226.49       21385.07       4258.2337      6105.6797      6215.1521      758.56817      263.7813       11289.386     -7505.7308     -486.12805      81791.52       43.407965      43.407965      43.407965      1.0539868      1413.545       2659.5591      1306.5461    
    186000   186000         762.44705     -83.254529      33430.621      33531.199      12300.663      21230.536      4155.0116      6138.6412      6247.8121      738.95013      175.86884      11290.008     -7515.756      -479.99715      82836.225      43.591997      43.591997      43.591997      1.0406942     -768.25723     -641.63222      1160.1259    
    186500   186500         771.52983     -719.98298      32874.462      33744.506      12447.197      21297.31       4078.6869      6083.0141      6433.344       767.00199      151.46565      11299.203     -7515.4065     -479.8615       82859.641      43.596104      43.596104      43.596104      1.0404001     -34.407232     -149.51703     -1976.0247    
    187000   187000         772.50536      174.43696      34177.412      33967.384      12462.935      21504.449      4224.8221      6305.2515      6198.8291      750.74144      266.18142      11276.807     -7518.1841     -481.60984      82558.844      43.543286      43.543286      43.543286      1.0441908     -720.00585      2597.9711     -1354.6544    
    187500   187500         779.74999     -1031.8064      32878.055      34132.882      12579.814      21553.068      4123.2536      6161.6841      6487.0438      762.10406      253.7241       11278.833     -7513.5748     -476.81448      83389.145      43.688772      43.688772      43.688772      1.0337938     -656.72446     -1367.1823     -1071.5125    
    188000   188000         769.62475      173.2061       34081.542      33872.331      12416.462      21455.869      4074.2152      6161.0134      6420.5078      807.20017      217.27168      11284.616     -7508.9547     -480.08159      82821.655      43.589441      43.589441      43.589441      1.0408773      1162.3958     -425.49786     -217.27959    
    188500   188500         764.68223     -2626.6497      30651.154      33840.768      12336.724      21504.044      4116.4231      6166.2815      6544.817       728.81024      162.1615       11295.171     -7509.6202     -477.52805      83264.536      43.667         43.667         43.667         1.0353409     -2077.8708     -1746.4663     -4055.6121    
    189000   189000         779.96274     -2662.1497      30845.246      34074.24       12583.246      21490.994      4124.406       6067.8029      6564.6114      758.3126       182.12481      11303.544     -7509.8078     -478.07939      83168.513      43.650208      43.650208      43.650208      1.0365363     -1942.5172     -2899.0252     -3144.9066    
    189500   189500         777.2532      -1142.9065      32776.913      34162.562      12539.533      21623.029      4253.209       6188.7281      6389.1266      781.7873       248.70229      11277.501     -7516.0254     -478.29129      83131.667      43.64376       43.64376       43.64376       1.0369957     -1638.4518     -909.61928     -880.64841    
    190000   190000         782.14853     -974.62108      33020.881      34193.567      12618.51       21575.057      4107.5448      6328.5839      6416.6325      773.20855      186.41709      11274.701     -7512.0305     -481.93549      82503.059      43.533477      43.533477      43.533477      1.0448968     -2258.3239      308.12684     -973.66621    
    190500   190500         767.62342      490.30982      34387.215      33801.703      12384.174      21417.529      4133.126       6155.1606      6390.0172      759.86305      236.61943      11258.795     -7516.0518     -485.59026      81882.103      43.423984      43.423984      43.423984      1.0528208     -1162.6569      2539.977       93.609408    
    191000   191000         771.16437      1401.8819      35369.734      33679.513      12441.301      21238.212      3869.7909      6080.6252      6461.0653      771.53316      289.84405      11286.2       -7520.8465     -480.95315      82671.571      43.563095      43.563095      43.563095      1.042767       466.04837     -1484.5822      5224.1796    
    191500   191500         776.98287      836.98597      34727.066      33712.352      12535.171      21177.18       4047.8509      6135.1787      6232.3253      782.70726      206.20836      11287.207     -7514.2975     -478.30985      83128.441      43.643196      43.643196      43.643196      1.037036       412.84864      494.70528      1603.404     
    192000   192000         774.57744      926.46649      35363.49       34258.4        12496.364      21762.035      4185.6571      6291.3452      6594.9172      793.34382      116.08598      11289.296     -7508.61       -486.14619      81788.468      43.407425      43.407425      43.407425      1.0540261      2243.0077      670.84562     -134.45388    
    192500   192500         771.70481      757.99042      34591.622      33690.287      12450.02       21240.267      4020.0722      6122.6439      6407.9326      761.53861      163.1224       11279.685     -7514.727      -487.65465      81535.471      43.362621      43.362621      43.362621      1.0572967     -495.07962      1805.5368      963.51406    
    193000   193000         769.70615     -1122.3443      32568.095      33915.891      12417.775      21498.115      4153.1179      6122.4324      6498.0636      768.17696      155.57924      11306.071     -7505.3258     -482.87744      82342.12       43.505151      43.505151      43.505151      1.0469391     -1979.9899     -1569.9144      182.87131    
    193500   193500         761.68987     -817.57522      32876.444      33862.303      12288.448      21573.855      4018.7097      6133.0037      6640.3691      791.75113      216.09525      11288.741     -7514.8146     -480.89204      82682.075      43.56494       43.56494       43.56494       1.0426345     -410.71042     -1467.7614     -574.25382    
    194000   194000         783.29722      1294.0603      35649.528      34094.368      12637.042      21457.326      4155.928       6156.9685      6411.8024      759.81489      183.09207      11299.821     -7510.1013     -482.51868      82403.342      43.515931      43.515931      43.515931      1.0461612      811.27364      1342.0048      1728.9024    
    194500   194500         778.69552     -80.947695      33839.054      33936.615      12562.802      21373.813      4100.2545      6056.705       6488.1607      780.90333      194.23587      11274.595     -7521.0405     -481.12816      82641.499      43.557813      43.557813      43.557813      1.0431464      260.06482      678.65222     -1181.5601    
    195000   195000         772.22355     -1333.6512      32219.401      33839.81       12458.389      21381.421      4165.6225      6035.4546      6488.8258      744.01308      177.82181      11282.227     -7512.5439     -477.25711      83311.806      43.675262      43.675262      43.675262      1.0347535     -1958.115      -1936.8826     -105.95599    
    195500   195500         765.53838      2402.5949      36508.973      33602.624      12350.536      21252.088      3984.6197      6232.6292      6214.3938      762.88168      289.46231      11283.087     -7514.986      -479.36646      82945.211      43.611106      43.611106      43.611106      1.0393268     -1140.041       3140.8228      5207.003     
    196000   196000         771.96137      4186.1852      38782.842      33837.677      12454.159      21383.518      4102.5358      6177.0322      6333.3429      768.88243      212.06252      11301.668     -7512.0061     -490.87671      81000.281      43.267537      43.267537      43.267537      1.0642825      4123.0033      4504.9695      3930.5828    
    196500   196500         781.95167      459.53538      34811.572      34264.811      12615.334      21649.477      4222.3987      6142.34        6525.2789      762.58145      237.80574      11277.055     -7517.9824     -487.36705      81583.587      43.371149      43.371149      43.371149      1.0566731      1155.9465      292.29591     -69.636272    
    197000   197000         778.8771      -586.2521       33440.575      34149.257      12565.731      21583.526      4148.4479      6178.1784      6507.5756      789.04168      184.71397      11288.231     -7512.6627     -479.69765      82887.944      43.601067      43.601067      43.601067      1.0400449     -988.18183     -1390.0288      619.45429    
    197500   197500         765.96582      1562.2983      35814.42       33915.168      12357.432      21557.736      4150.9851      6264.1232      6367.8985      791.3471       199.17189      11296.294     -7512.0842     -476.99755      83357.14       43.683182      43.683182      43.683182      1.0341907      907.81958      3581.3671      197.70818    
    198000   198000         769.90668      2119.8662      36659.429      34082.729      12421.01       21661.719      4125.8323      6225.2069      6470.6215      757.73816      299.10353      11293.492     -7510.2762     -477.06711      83344.986      43.681059      43.681059      43.681059      1.0343416      2716.8924      2449.2911      1193.4151    
    198500   198500         782.10099      1690.9012      36232.76       34189.313      12617.743      21571.571      4118.913       6304.5772      6333.2464      806.09716      240.71369      11283.181     -7515.1584     -479.83255      82864.642      43.596981      43.596981      43.596981      1.0403374      1567.6887      1514.3373      1990.6776    
    199000   199000         786.38766     -2016.5532      31681.462      34100.391      12686.9        21413.491      4032.5593      6161.5354      6613.1788      778.69766      40.990274      11297.324     -7510.795      -483.41627      82250.338      43.488981      43.488981      43.488981      1.0481073     -2423.0799     -967.94479     -2658.6349    
    199500   199500         752.89476     -197.44999      33471.464      33708.916      12146.555      21562.361      4186.8365      6246.2691      6412.801       758.61711      194.11214      11278.25      -7514.5241     -482.1877       82459.906      43.525885      43.525885      43.525885      1.0454436     -1062.7431      1061.0922     -590.699      
    200000   200000         768.14274     -506.65805      33020.926      33629.723      12392.553      21237.17       4136.5779      6110.9544      6403.1857      738.58394      71.513133      11292.656     -7516.3003     -482.58894      82391.346      43.513819      43.513819      43.513819      1.0463136     -621.91941     -187.30847     -710.74629    
Loop time of 480.168 on 1 procs for 200000 steps with 6140 atoms

Performance: 35.987 ns/day, 0.667 hours/ns, 416.521 timesteps/s, 2.557 Matom-step/s
100.0% CPU use with 1 MPI tasks x 1 OpenMP threads

MPI task timing breakdown:
Section |  min time  |  avg time  |  max time  |%varavg| %total
---------------------------------------------------------------
Pair    | 38.431     | 38.431     | 38.431     |   0.0 |  8.00
Bond    | 52.265     | 52.265     | 52.265     |   0.0 | 10.88
Kspace  | 193.14     | 193.14     | 193.14     |   0.0 | 40.22
Neigh   | 64.81      | 64.81      | 64.81      |   0.0 | 13.50
Comm    | 11.27      | 11.27      | 11.27      |   0.0 |  2.35
Output  | 0.039815   | 0.039815   | 0.039815   |   0.0 |  0.01
Modify  | 111.63     | 111.63     | 111.63     |   0.0 | 23.25
Other   |            | 8.58       |            |       |  1.79

Nlocal:           6140 ave        6140 max        6140 min
Histogram: 1 0 0 0 0 0 0 0 0 0
Nghost:          15816 ave       15816 max       15816 min
Histogram: 1 0 0 0 0 0 0 0 0 0
Neighs:              0 ave           0 max           0 min
Histogram: 1 0 0 0 0 0 0 0 0 0
FullNghs:  2.91198e+06 ave 2.91198e+06 max 2.91198e+06 min
Histogram: 1 0 0 0 0 0 0 0 0 0

Total # of neighbors = 2911978
Ave neighs/atom = 474.26352
Ave special neighs/atom = 5.6319218
Neighbor list builds = 15607
Dangerous builds = 0
WARNING: No fixes with time integration, atoms won't move
For more information see https://docs.lammps.org/err0028 (src/verlet.cpp:60)
PPPM Kokkos initialization ...
  using 12-bit tables for long-range coulomb
  G vector (1/distance) = 0.31304991
  grid = 36 36 36
  stencil order = 5
  estimated absolute RMS force accuracy = 0.00025647602
  estimated relative force accuracy = 7.723699e-07
  using double precision cuFFT
  3d grid and FFT values/proc = 79507 46656
Generated 21 of 21 mixed pair_coeff terms from sixthpower/sixthpower mixing rule
Setting up Verlet run ...
  Unit style    : real
  Current step  : 200000
  Time step     : 1
Per MPI rank memory allocation (min/avg/max) = 30.09 | 30.09 | 30.09 Mbytes
   Step          Time           Temp          Press         Enthalpy        TotEng         KinEng         PotEng         E_bond        E_angle        E_dihed        E_impro         E_vdwl         E_coul         E_long         E_tail         Volume           Lx             Ly             Lz          Density          Pxx            Pyy            Pzz      
    200000   200000         677.21853      2230.5396      36309.924      33629.723      12392.553      21237.17       4136.578       6110.9544      6403.1857      738.58394      71.513133      11306.99      -7530.635      -482.58894      82391.346      43.513819      43.513819      43.513819      1.0463136      2217.6239      2554.6687      1919.3262    
Loop time of 4.222e-05 on 1 procs for 0 steps with 6140 atoms

104.2% CPU use with 1 MPI tasks x 1 OpenMP threads

MPI task timing breakdown:
Section |  min time  |  avg time  |  max time  |%varavg| %total
---------------------------------------------------------------
Pair    | 0          | 0          | 0          |   0.0 |  0.00
Bond    | 0          | 0          | 0          |   0.0 |  0.00
Kspace  | 0          | 0          | 0          |   0.0 |  0.00
Neigh   | 0          | 0          | 0          |   0.0 |  0.00
Comm    | 0          | 0          | 0          |   0.0 |  0.00
Output  | 0          | 0          | 0          |   0.0 |  0.00
Modify  | 0          | 0          | 0          |   0.0 |  0.00
Other   |            | 4.222e-05  |            |       |100.00

Nlocal:           6140 ave        6140 max        6140 min
Histogram: 1 0 0 0 0 0 0 0 0 0
Nghost:          15830 ave       15830 max       15830 min
Histogram: 1 0 0 0 0 0 0 0 0 0
Neighs:              0 ave           0 max           0 min
Histogram: 1 0 0 0 0 0 0 0 0 0
FullNghs:  2.91217e+06 ave 2.91217e+06 max 2.91217e+06 min
Histogram: 1 0 0 0 0 0 0 0 0 0

Total # of neighbors = 2912174
Ave neighs/atom = 474.29544
Ave special neighs/atom = 5.6319218
Neighbor list builds = 0
Dangerous builds = 0
System init for write_data ...
PPPM Kokkos initialization ...
  using 12-bit tables for long-range coulomb
  G vector (1/distance) = 0.31304991
  grid = 36 36 36
  stencil order = 5
  estimated absolute RMS force accuracy = 0.00025647602
  estimated relative force accuracy = 7.723699e-07
  using double precision cuFFT
  3d grid and FFT values/proc = 79507 46656
Generated 21 of 21 mixed pair_coeff terms from sixthpower/sixthpower mixing rule
STAGE COMPLETE: Tg step T=770.0K P=1.0atm steps=200000
