LAMMPS (22 Jul 2025 - Update 3)
KOKKOS mode with Kokkos version 4.6.2 is enabled
  will use up to 1 GPU(s) per node
  using 1 OpenMP thread(s) per MPI task
Reading data file ...
  orthogonal box = (4.1391107 4.1391107 4.1391107) to (46.59887 46.59887 46.59887)
  1 by 1 by 1 MPI processor grid
  reading atoms ...
  6140 atoms
  reading velocities ...
  6140 velocities
  scanning bonds ...
  3 = max bonds/atom
  scanning angles ...
  9 = max angles/atom
  scanning dihedrals ...
  18 = max dihedrals/atom
  scanning impropers ...
  4 = max impropers/atom
  orthogonal box = (4.1391107 4.1391107 4.1391107) to (46.59887 46.59887 46.59887)
  1 by 1 by 1 MPI processor grid
  reading bonds ...
  6670 bonds
  reading angles ...
  10620 angles
  reading dihedrals ...
  15820 dihedrals
  reading impropers ...
  3420 impropers
Finding 1-2 1-3 1-4 neighbors ...
  special bond factors lj:    0        0        1       
  special bond factors coul:  0        0        1       
     3 = max # of 1-2 neighbors
     6 = max # of 1-3 neighbors
     9 = max # of special neighbors
  special bonds CPU = 0.003 seconds
  read_data CPU = 0.207 seconds
Finding SHAKE clusters ...
    2180 = # of size 2 clusters
       0 = # of size 3 clusters
       0 = # of size 4 clusters
       0 = # of frozen angles
  find clusters CPU = 0.002 seconds
PPPM Kokkos initialization ...
  using 12-bit tables for long-range coulomb
  G vector (1/distance) = 0.30546987
  grid = 32 32 32
  stencil order = 5
  estimated absolute RMS force accuracy = 0.00040549781
  estimated relative force accuracy = 1.2211446e-06
  using double precision cuFFT
  3d grid and FFT values/proc = 59319 32768
Generated 21 of 21 mixed pair_coeff terms from sixthpower/sixthpower mixing rule
Neighbor list info ...
  update: every = 1 steps, delay = 0 steps, check = yes
  max neighbors/atom: 4000, page size: 100000
  master list distance cutoff = 11.5
  ghost atom cutoff = 11.5
  binsize = 11.5, bins = 4 4 4
  1 neighbor lists, perpetual/occasional/extra = 1 0 0
  (1) pair lj/class2/coul/long/kk, perpetual
      attributes: full, newton off, kokkos_device
      pair build: full/bin/kk/device
      stencil: full/bin/3d
      bin: kk/device
Setting up Verlet run ...
  Unit style    : real
  Current step  : 0
  Time step     : 1
Per MPI rank memory allocation (min/avg/max) = 29.38 | 29.38 | 29.38 Mbytes
   Step          Time           Temp          Press         Enthalpy        TotEng         KinEng         PotEng         E_bond        E_angle        E_dihed        E_impro         E_vdwl         E_coul         E_long         E_tail         Volume           Lx             Ly             Lz          Density          Pxx            Pyy            Pzz      
         0   0              575.74512      120.44698      26967.688      26833.225      9288.5752      17544.65       3125.067       5279.4259      5211.5617      602.5408      -361.83688      11070.469     -7382.5779     -519.42924      76547.774      42.459759      42.459759      42.459759      1.126188      -1350.8543      2000.639      -288.44371    
       500   500            540.70148     -50.23485       25891.531      25947.343      8723.2114      17224.131      3173.22        5126.4603      5055.5203      560.67034     -395.46278      11079.548     -7375.8251     -521.93242      76180.652      42.391771      42.391771      42.391771      1.1316152     -307.36863      722.52054     -565.85646    
      1000   1000           550.06049     -360.26197      25657.103      26054.384      8874.2016      17180.183      3133.3303      5240.471       5006.4416      544.29709     -476.23983      11105.778     -7373.8956     -525.84152      75614.325      42.286463      42.286463      42.286463      1.1400906     -496.73132      306.2076      -890.26219    
      1500   1500           551.79349      412.58839      26631.931      26175.457      8902.1602      17273.297      3190.6967      5281.6915      4948.2611      533.91034     -410.14432      11098.258     -7369.3762     -524.1259       75861.834      42.332552      42.332552      42.332552      1.1363709     -197.76386     -174.2953       1609.8243    
      2000   2000           559.9644       982.42956      27365.596      26271.561      9033.9827      17237.579      3127.8658      5201.6763      5041.5983      570.18848     -433.13587      11099.859     -7370.4735     -520.72106      76357.872      42.424618      42.424618      42.424618      1.1289888      524.36426      1195.0872      1227.8372    
      2500   2500           550.89936     -1117.2366      24979.446      26217.397      8887.7352      17329.662      3241.8744      5255.5085      5041.3611      557.46822     -503.1048       11103.349     -7366.795      -523.33093      75977.072      42.353976      42.353976      42.353976      1.1346473      34.407553     -2749.4947     -636.62252    
      3000   3000           557.07062     -20.47123       26071.71       26094.189      8987.297       17106.892      3163.9972      5219.7374      4938.0387      522.64701     -447.80593      11086.211     -7375.9326     -528.06909      75295.36       42.22692       42.22692       42.22692       1.1449203     -1003.523       909.11972      32.989557    
      3500   3500           538.7883       21.209498      25885.919      25862.722      8692.3458      17170.376      3195.7531      5238.299       4989.4723      522.3552      -490.6132       11089.075     -7373.9656     -530.18509      74994.851      42.170668      42.170668      42.170668      1.149508      -1655.2148      834.61795      884.22532    
      4000   4000           542.03275     -1873.8929      23820.676      25886.691      8744.689       17142.002      3171.8303      5204.8745      5012.2429      552.44652     -496.47958      11068.372     -7371.2838     -525.95207      75598.432      42.2835        42.2835        42.2835        1.1403303     -2610.2483     -1176.4249     -1835.0055    
      4500   4500           539.81009     -621.96292      25199.108      25884.866      8708.8304      17176.035      3273.7143      5131.4185      5026.6893      557.97798     -513.53937      11072.922     -7373.1473     -525.9308       75601.49       42.28407       42.28407       42.28407       1.1402842      354.38951     -1801.2236     -419.05468    
      5000   5000           548.51084      1470.4209      27694.883      26075.694      8849.2009      17226.493      3297.9058      5187.218       4943.8415      550.00575     -448.02179      11072.823     -7377.2793     -526.59759      75505.762      42.266216      42.266216      42.266216      1.1417299      1963.4222      59.957287      2387.8833    
      5500   5500           557.92007      427.66026      26595.76       26124.474      9001.0013      17123.473      3179.7727      5299.7639      4888.6856      537.03915     -487.13747      11081.116     -7375.767      -526.19753      75563.168      42.276924      42.276924      42.276924      1.1408625      2594.7164     -1180.9637     -130.77195    
      6000   6000           546.48771     -1592.1739      24334.819      26080.3        8816.5614      17263.738      3193.342       5147.2584      5182.0756      562.25677     -529.20953      11085.421     -7377.406      -528.94478      75170.704      42.203604      42.203604      42.203604      1.1468189     -3357.8498     -848.45371     -570.21819    
      6500   6500           544.85487     -372.58426      25278.754      25685.065      8790.2186      16894.846      3172.6423      5091.9994      4904.8903      532.69525     -509.80762      11078.438     -7376.0118     -531.74203      74775.266      42.129469      42.129469      42.129469      1.1528837     -1476.7157      90.123801      268.83915    
      7000   7000           550.60864      1366.479       27669.449      26166.455      8883.0449      17283.41       3359.5845      5162.3639      4904.8216      540.35117     -397.32756      11092.246     -7378.6291     -527.2063       75418.583      42.249943      42.249943      42.249943      1.1430496      2128.6968      2620.6589     -649.91862    
      7500   7500           554.47034      1226.8247      27446.377      26097.169      8945.3463      17151.823      3226.5515      5110.2343      4995.6233      565.01445     -450.20901      11077.809     -7373.2006     -527.27652      75408.539      42.248067      42.248067      42.248067      1.1432019      1261.7004      1747.3722      671.4015     
      8000   8000           552.14515      1026.3732      27435.173      26309.917      8907.8337      17402.084      3231.8956      5184.4524      5108.628       561.61673     -397.57467      11085.756     -7372.6904     -528.9187       75174.412      42.204298      42.204298      42.204298      1.1467623      682.46402      1210.9383      1185.7174    
      8500   8500           558.32654      1213.8222      27537.116      26196.024      9007.5589      17188.465      3186.8675      5148.7676      4991.3825      550.30507     -407.15642      11087.426     -7369.127      -524.84539      75757.838      42.313199      42.313199      42.313199      1.1379309      1470.5962     -203.19443      2374.0648    
      9000   9000           547.04969     -1983.4408      23814.277      26011.749      8825.6279      17186.121      3064.9734      5250.9105      5095.8832      549.04795     -491.74739      11089.609     -7372.556      -523.39642      75967.566      42.352209      42.352209      42.352209      1.1347893     -973.08433     -3463.5672     -1513.6709    
      9500   9500           546.62111     -548.76057      25330.003      25937.906      8818.7136      17119.192      3063.4438      5229.6667      5034.9729      522.29892     -462.44583      11097.798     -7366.5424     -523.46033      75958.292      42.350486      42.350486      42.350486      1.1349279     -2163.1238     -1234.0656      1750.9077    
     10000   10000          566.57652      1177.0618      27490.266      26204.925      9140.657       17064.268      3171.711       5085.4074      5025.5598      539.17068     -450.83911      11067.018     -7373.7598     -531.02595      74876.1        42.148398      42.148398      42.148398      1.1513311      2910.5894      1615.919      -995.32286    
     10500   10500          548.21332     -1062.7612      24916.888      26083.251      8844.4009      17238.85       3246.2361      5259.6456      5034.8103      537.13078     -556.01401      11086.339     -7369.2983     -528.36867      75252.668      42.218938      42.218938      42.218938      1.1455698     -191.19964     -1065.6979     -1931.386     
     11000   11000          534.36488     -994.1815       24629.934      25726.572      8620.9821      17105.59       3206.5595      5144.9518      5019.94        518.4058      -505.21375      11091.085     -7370.139      -525.69938      75634.771      42.290274      42.290274      42.290274      1.1397824     -230.87036     -2472.0265     -279.64763    
     11500   11500          550.39529      1143.4878      27271.758      26010.771      8879.6029      17131.168      3142.612       5275.094       4904.4742      527.29487     -436.31394      11091.182     -7373.1751     -525.84265      75614.164      42.286433      42.286433      42.286433      1.1400931      1619.7725      390.83024      1419.8607    
     12000   12000          555.09744      464.24049      26597.172      26090.782      8955.4633      17135.319      3115.9668      5257.8112      4966.1734      554.40694     -487.637        11100.001     -7371.4032     -531.6098       74793.866      42.132962      42.132962      42.132962      1.152597       173.468        1342.5032     -123.24973    
     12500   12500          552.96253      747.93145      26987.767      26168.488      8921.0205      17247.468      3217.769       5242.0251      4946.2103      579.6551      -478.26707      11107.562     -7367.4869     -529.37688      75109.348      42.192118      42.192118      42.192118      1.1477557     -120.08381      1318.8128      1045.0653    
     13000   13000          543.01921      1480.3791      27449.336      25825.872      8760.6036      17065.268      3209.0004      5210.2829      4917.7476      542.86736     -512.04145      11079.15      -7381.7387     -528.7678       75195.865      42.208312      42.208312      42.208312      1.1464352      2272.1081     -49.016375      2218.0456    
     13500   13500          548.77848      599.16514      26524.545      25868.854      8853.5187      17015.335      3055.3565      5184.1069      4998.2873      545.98354     -486.96039      11091.366     -7372.8044     -529.88529      75037.282      42.17862       42.17862       42.17862       1.148858      -389.59077      1488.5042      698.58196    
     14000   14000          544.27488      424.42977      26436.741      25970.265      8780.8614      17189.404      3195.5787      5263.1052      4957.4587      536.78865     -498.32451      11100.913     -7366.1158     -527.60782      75361.187      42.239222      42.239222      42.239222      1.1439202      1518.181      -1275.2534      1030.3617    
     14500   14500          544.00573     -1688.1177      24216.247      26064.768      8776.5193      17288.249      3175.1453      5322.5018      5014.2197      544.03136     -510.67277      11109.834     -7366.8107     -529.55736      75083.749      42.187325      42.187325      42.187325      1.148147      -2092.2673     -1112.6446     -1859.441     
     15000   15000          552.191       -118.43491      26067.184      26196.435      8908.5734      17287.861      3297.0008      5240.7361      4996.42        546.04517     -520.47363      11101.015     -7372.8827     -531.3501       74830.422      42.139825      42.139825      42.139825      1.1520339     -1493.2576     -141.66625      1279.6191    
     15500   15500          551.64758     -725.8713       25347.995      26145.953      8899.8064      17246.147      3147.3349      5267.5188      5077.8335      525.57422     -494.66688      11095.564     -7373.0122     -527.49008      75378.009      42.242365      42.242365      42.242365      1.1436649      383.27753     -839.35072     -1721.5407    
     16000   16000          547.87476     -1970.9614      23866.1        26058.462      8838.9389      17219.523      3216.6568      5232.9359      5024.0178      535.46962     -485.27482      11073.456     -7377.7383     -521.31556      76270.795      42.408485      42.408485      42.408485      1.1302778     -1100.3562     -2840.0508     -1972.4772    
     16500   16500          549.58518     -129.76329      25990.575      26133.405      8866.5334      17266.872      3241.874       5207.1672      5025.7335      527.26294     -457.98986      11099.29      -7376.4656     -526.82725      75472.846      42.260073      42.260073      42.260073      1.1422278      478.2671      -836.69968     -30.857282    
     17000   17000          543.84409      1774.0823      27910.207      25975.687      8773.9115      17201.776      3236.1134      5173.6714      5026.2561      547.35945     -491.70609      11090.098     -7380.0164     -531.78414      74769.345      42.128357      42.128357      42.128357      1.152975       3033.7933      754.05038      1534.4032    
     17500   17500          556.43303      1154.7712      27274.88       26007.677      8977.0106      17030.667      3152.4036      5159.4722      4908.6687      533.66074     -415.31898      11069.998     -7378.2179     -528.42644      75244.441      42.217399      42.217399      42.217399      1.145695       2234.9915      798.10361      431.21845    
     18000   18000          556.63601      984.49931      27295.271      26211.052      8980.2853      17230.767      3173.5569      5143.0912      5113.7439      565.69899     -477.03781      11082.582     -7370.8679     -526.54223      75513.699      42.267697      42.267697      42.267697      1.1416098      88.480388      945.05789      1919.9597    
     18500   18500          540.00505     -755.43004      25225.688      26054.772      8711.9758      17342.796      3215.4927      5230.024       5080.2505      548.4566      -434.81919      11078.244     -7374.8521     -528.36077      75253.793      42.219148      42.219148      42.219148      1.1455527      705.52473     -740.76508     -2231.0498    
     19000   19000          556.01115     -2174.4599      23830.919      26237.285      8970.2044      17267.081      3132.3535      5212.0506      5202.2326      553.63856     -552.71134      11092.483     -7372.9656     -523.99174      75881.257      42.336164      42.336164      42.336164      1.1360801     -2290.3844     -1912.1444     -2320.8508    
     19500   19500          553.82828     -710.81373      25529.359      26313.274      8934.9878      17378.286      3152.1838      5160.232       5174.7666      557.25798     -378.35132      11089.375     -7377.1779     -525.80159      75620.067      42.287533      42.287533      42.287533      1.140004      -441.28493      217.87805     -1909.0343    
     20000   20000          550.71328     -2710.095       23163.166      26156.498      8884.733       17271.765      3183.7483      5152.7374      5202.6312      550.02617     -522.69167      11084         -7378.6858     -525.00627      75734.623      42.308876      42.308876      42.308876      1.1382797     -2877.9439     -2705.9391     -2546.402     
     20500   20500          550.15744     -523.46825      25566.018      26137.833      8875.7657      17262.067      3088.8406      5263.0795      5178.5734      560.28642     -531.4585       11084.135     -7381.3893     -530.84806      74901.191      42.153105      42.153105      42.153105      1.1509454     -710.65439     -175.72399     -684.02637    
     21000   21000          537.16957      1049.8595      27010.826      25861.131      8666.2306      17194.9        3126.0706      5285.5587      5006.2503      553.47445     -465.77833      11070.9       -7381.5754     -529.52081      75088.932      42.188295      42.188295      42.188295      1.1480678      3989.4113     -1151.5144      311.68166    
     21500   21500          537.99828     -284.72155      25490.211      25805.253      8679.6002      17125.653      3140.2914      5211.5949      4963.116       557.10079     -437.72184      11067.544     -7376.2723     -524.0677       75870.259      42.334119      42.334119      42.334119      1.1362447      291.88957     -695.82315     -450.23107    
     22000   22000          550.81722      1505.8706      27795.755      26147.607      8886.4099      17261.197      3223.4958      5217.2006      5024.9762      540.54646     -431.06896      11066.868     -7380.8216     -529.81761      75046.868      42.180416      42.180416      42.180416      1.1487113      1224.4889      1479.9853      1813.1377    
     22500   22500          550.91547      948.60737      27159.711      26120.038      8887.9951      17232.042      3247.284       5204.2236      5038.7214      565.09208     -492.1263       11052.113     -7383.2656     -529.0836       75150.982      42.199913      42.199913      42.199913      1.1471198      1359.6664     -357.15078      1843.3065    
     23000   23000          552.2501       944.93326      27053.744      26009.678      8909.5268      17100.151      3177.6634      5202.6719      4967.1974      536.76328     -475.98663      11075.122     -7383.2802     -524.8172       75761.908      42.313956      42.313956      42.313956      1.1378697      948.1824       1157.3982      729.21921    
     23500   23500          548.25721      474.01627      26272.465      25752.018      8845.109       16906.909      3036.122       5074.8032      4984.0439      544.17958     -404.01094      11059.908     -7388.1366     -528.14309      75284.809      42.224948      42.224948      42.224948      1.1450807      1993.0937     -840.1377       269.0928     
     24000   24000          547.1856       1341.2549      27387.942      25914.133      8827.8206      17086.312      3337.251       5094.718       4906.5435      528.65912     -468.91074      11070.123     -7382.071      -527.72162      75344.936      42.236186      42.236186      42.236186      1.1441669      2394.6355      1835.3298     -206.20067    
     24500   24500          539.86479     -696.04292      25303.539      26067.382      8709.7129      17357.669      3310.9441      5273.6147      5005.4195      578.49286     -500.20664      11065.396     -7375.9915     -528.40452      75247.563      42.217983      42.217983      42.217983      1.1456475     -2672.2632     -718.34462      1302.4791    
     25000   25000          550.82262      1423.5615      27651.522      26091.107      8886.4972      17204.61       3223.1645      5131.6488      5032.6663      573.88254     -468.85885      11090.375     -7378.268      -529.01865      75160.209      42.20164       42.20164       42.20164       1.146979       1608.3224      1862.7396      799.62244    
     25500   25500          547.07982      1001.9084      27086.521      25984.541      8826.114       17158.426      3209.878       5130.5493      5014.5219      561.62101     -455.84775      11075.963     -7378.2592     -527.21649      75417.126      42.24967       42.24967       42.24967       1.1430717      1971.7942      349.99355      683.93757    
     26000   26000          547.96259     -190.87288      25739.43       25949.871      8840.3559      17109.515      3248.8585      5078.7693      5075.1243      535.76091     -525.63108      11077.044     -7380.4103     -525.95547      75597.943      42.283409      42.283409      42.283409      1.1403377     -684.66929     -107.99672      220.04737    
     26500   26500          540.9553       370.77995      26434.778      26022.111      8727.3064      17294.805      3297.7231      5117.1977      5042.5317      573.8812      -426.09686      11068.563     -7378.9947     -521.01705      76314.492      42.416582      42.416582      42.416582      1.1296306      599.60221      1866.2465     -1353.5088    
     27000   27000          557.11033      511.49065      26547.246      25984.585      8987.9376      16996.648      3069.2567      5155.8559      4939.9086      536.36369     -395.10777      11069.963     -7379.5928     -527.13946      75428.145      42.251728      42.251728      42.251728      1.1429047      532.18082      1340.3097     -338.01855    
     27500   27500          532.7976      -1171.4222      24674.429      25967.645      8595.697       17371.948      3238.6639      5273.8736      5063.9813      543.25036     -449.81747      11076.553     -7374.5572     -525.26365      75697.512      42.301964      42.301964      42.301964      1.1388377     -959.38751      640.66005     -3195.539     
     28000   28000          544.45791      1350.6425      27656.186      26168.818      8783.8144      17385.004      3371.9968      5302.9576      4946.7846      532.89407     -457.65908      11068.597     -7380.5671     -526.57098      75509.578      42.266928      42.266928      42.266928      1.1416722      1963.4522      1093.6871      994.78833    
     28500   28500          554.60372      1039.6849      27356.986      26212.203      8947.4982      17264.704      3290.529       5216.1209      4964.6214      538.57087     -449.39459      11078.616     -7374.3596     -526.63918      75499.799      42.265103      42.265103      42.265103      1.14182        600.57597      1008.9852      1509.4936    
     29000   29000          556.3279      -537.89233      25557.129      26150.388      8975.3146      17175.073      3191.3923      5238.6246      4976.3412      538.1793      -467.95491      11077.474     -7378.983      -525.75764      75626.389      42.288712      42.288712      42.288712      1.1399088     -1223.0266     -1855.2141      1464.5637    
     29500   29500          548.61318     -1263.911       24749.456      26140.308      8850.8519      17289.456      3220.6846      5254.7105      5008.5234      549.36508     -436.02576      11071.185     -7378.9864     -526.95123      75455.09       42.256759      42.256759      42.256759      1.1424966     -1700.5542     -1192.5016     -898.67726    
     30000   30000          550.167       -786.91654      25231.171      26089.718      8875.9199      17213.798      3076.8595      5180.6085      5153.6615      568.32443     -480.53354      11094.564     -7379.6863     -531.49546      74809.956      42.135983      42.135983      42.135983      1.1523491      178.17311     -987.26718     -1551.6555    
     30500   30500          536.14052     -1741.4854      23828.507      25726.218      8649.6288      17076.589      3070.9017      5068.9296      5191.5236      552.65358     -534.03422      11099.811     -7373.1961     -532.13851      74719.553      42.119004      42.119004      42.119004      1.1537433     -511.95542     -2409.1373     -2303.3636    
     31000   31000          551.19217     -1342.958       24368.919      25838.51       8892.4592      16946.051      3052.1595      5123.8866      4984.4789      529.15167     -454.92688      11086.743     -7375.4426     -529.90848      75033.999      42.178005      42.178005      42.178005      1.1489083     -130.93879     -2023.4239     -1874.5114    
     31500   31500          553.07478     -712.34183      25302.933      26082.408      8922.8315      17159.576      3198.7741      5197.3022      5003.3607      528.57205     -469.15253      11076.297     -7375.5774     -529.93357      75030.446      42.177339      42.177339      42.177339      1.1489627      723.7695      -2127.9702     -732.82475    
     32000   32000          553.59892      1338.4952      27556.709      26102.106      8931.2876      17170.819      3277.3593      5145.9252      5035.528       536.73755     -531.12034      11081.218     -7374.8293     -533.58945      74516.376      42.080792      42.080792      42.080792      1.1568891      22.16495       1188.0371      2805.2836    
     32500   32500          550.29169     -1114.9395      24890.042      26120.394      8877.9316      17242.462      3252.23        5229.0111      5053.5039      529.92143     -522.74281      11079.556     -7379.0177     -525.48092      75666.214      42.296134      42.296134      42.296134      1.1393088     -3673.3647     -841.40166      1169.9479    
     33000   33000          541.82413      1012.7452      26914.975      25803.692      8741.3232      17062.369      3169.5945      5130.7782      4967.7614      558.65252     -459.50807      11080.477     -7385.3872     -528.45789      75239.963      42.216561      42.216561      42.216561      1.1457632     -846.65808      272.14866      3612.745     
     33500   33500          546.88827     -615.20152      25199.362      25875.807      8823.0237      17052.784      3147.0392      5141.2547      5112.79        554.20661     -627.66988      11100.684     -7375.521      -527.37474      75394.495      42.245444      42.245444      42.245444      1.1434148     -2299.6329     -249.16895      703.19726    
     34000   34000          542.24799     -1476.9674      24320.92       25957.94       8748.1614      17209.779      3207.4959      5288.3277      4990.2291      543.40571     -528.99363      11085.08      -7375.7662     -523.18062      75998.9        42.358032      42.358032      42.358032      1.1343215     -1018.0085     -1892.6645     -1520.2292    
     34500   34500          541.14755      317.44491      26301.192      25957.071      8730.4079      17226.663      3186.8518      5140.0139      5132.4751      579.03306     -487.06014      11058.54      -7383.1906     -534.92414      74330.45       42.045764      42.045764      42.045764      1.1597829      1201.6326     -1325.9493      1076.6514    
     35000   35000          554.24335     -169.58997      26033.026      26218.983      8941.6842      17277.299      3099.1881      5264.0476      5118.7779      586.61199     -502.38575      11094.153     -7383.0943     -528.83758      75185.943      42.206456      42.206456      42.206456      1.1465864     -1190.5171      614.0287       67.718474    
     35500   35500          548.95452     -673.33576      25561.136      26303.736      8856.3588      17447.377      3251.3291      5235.6047      5145.9069      535.16445     -419.47902      11078.192     -7379.3414     -525.78887      75621.898      42.287875      42.287875      42.287875      1.1399765     -1600.1478     -764.30297      344.44346    
     36000   36000          547.47704     -579.84934      25432.224      26068.278      8832.5225      17235.756      3250.31        5132.6479      5102.9024      555.04185     -507.26673      11082.036     -7379.9149     -528.63479      75214.786      42.211852      42.211852      42.211852      1.1461468     -1047.2811      67.73841      -760.0053     
     36500   36500          547.84686     -1130.9814      24659.111      25896.156      8838.4888      17057.667      3205.5776      5174.8876      5043.8101      525.37265     -593.61073      11078.976     -7377.3469     -530.15769      74998.728      42.171395      42.171395      42.171395      1.1494486     -2346.9314     -281.57617     -764.43656    
     37000   37000          545.91689     -349.35619      25709.575      26093.121      8807.3524      17285.768      3261.9092      5240.1659      4995.2982      549.52681     -466.121        11081.474     -7376.4848     -528.1852       75278.807      42.223825      42.223825      42.223825      1.145172       839.64973      1142.1856     -3029.9039    
     37500   37500          552.26556     -1972.0045      24033.772      26207.183      8909.7763      17297.407      3190.5076      5280.7898      5147.5174      520.68896     -543.49829      11075.027     -7373.6255     -526.13941      75571.514      42.278481      42.278481      42.278481      1.1407365     -1233.0835     -2886.2733     -1796.6568    
     38000   38000          562.45796      1035.6254      27499.062      26368.59       9074.2117      17294.378      3244.0066      5304.287       5022.5039      542.22244     -499.67725      11059.744     -7378.7087     -531.22386      74848.204      42.143163      42.143163      42.143163      1.1517602      839.74155      2168.3063      98.82821     
     38500   38500          552.33066      774.09168      27057.035      26207.626      8910.8265      17296.8        3241.4435      5259.0873      5005.3696      556.13879     -465.54963      11080.589     -7380.279      -528.45813      75239.929      42.216555      42.216555      42.216555      1.1457638      2228.314       1503.9287     -1409.9676    
     39000   39000          556.59563      557.93218      26735.308      26118.326      8979.6339      17138.692      3195.1259      5260.4843      4916.107       547.63107     -492.58671      11091.433     -7379.5019     -524.3777       75825.407      42.325775      42.325775      42.325775      1.1369169      692.86455     -607.90214      1588.8341    
     39500   39500          542.27885      2601.3399      28712.917      25860.617      8748.6593      17111.958      3328.2772      5162.9133      4823.8808      535.73851     -430.3255       11071.679     -7380.2052     -528.85516      75183.443      42.205988      42.205988      42.205988      1.1466246      2606.6762      1249.2104      3948.1333    
     40000   40000          545.13499      2069.4417      28107.965      25824.288      8794.7378      17029.55       3202.0863      5192.6589      4888.4793      525.83163     -476.88458      11079.121     -7381.742      -525.47654      75666.846      42.296251      42.296251      42.296251      1.1392993      1150.8179      2826.1948      2231.3125    
     40500   40500          554.0365      -1398.6833      24656.231      26196.252      8938.3472      17257.905      3278.6663      5225.6525      5022.7557      537.66541     -508.97749      11078.888     -7376.7456     -526.65664      75497.295      42.264636      42.264636      42.264636      1.1418579     -1579.2468     -1718.495      -898.30803    
     41000   41000          566.65199     -1476.5917      24752.809      26371.356      9141.8745      17229.481      3252.6522      5160.252       5100.5896      543.64334     -532.83635      11084.762     -7379.5812     -529.01748      75160.374      42.201671      42.201671      42.201671      1.1469765     -514.61023     -1760.4069     -2154.7579    
     41500   41500          543.85697     -2281.1678      23405.385      25933.005      8774.1193      17158.885      3132.0062      5170.4639      5094.4619      543.10736     -499.65009      11099.076     -7380.5802     -523.33564      75976.388      42.353849      42.353849      42.353849      1.1346576     -3671.8066     -1525.5866     -1646.1103    
     42000   42000          541.43387      721.58392      26644.834      25849.257      8735.0272      17114.23       3215.0586      5024.4669      5039.6587      543.57259     -411.75666      11082.754     -7379.5241     -525.94361      75599.649      42.283727      42.283727      42.283727      1.140312       850.18475     -1274.0259      2588.5929    
     42500   42500          549.11003     -1587.0275      24129.37       25865.737      8858.8677      17006.869      3072.6811      5182.9626      5071.2307      551.98467     -581.98464      11089.27      -7379.2751     -530.00248      75020.69       42.175511      42.175511      42.175511      1.1491121     -2281.6012     -2184.249      -295.23224    
     43000   43000          557.4558      -548.67281      25573.883      26174.326      8993.5112      17180.815      3287.8863      5208.8449      4909.9438      562.5836      -496.44603      11088.171     -7380.169      -529.87901      75038.171      42.178787      42.178787      42.178787      1.1488444     -507.76756     -1384.6579      246.40704    
     43500   43500          549.26817     -971.69362      24980.638      26050.458      8861.4189      17189.039      3184.3612      5217.703       4991.8641      557.50972     -452.07391      11070.03      -7380.3547     -526.68816      75492.778      42.263793      42.263793      42.263793      1.1419262     -464.96865     -728.99158     -1721.1206    
     44000   44000          550.688       -982.12215      24898.829      25988.138      8884.3253      17103.813      3208.9924      5233.7678      4980.3564      550.26473     -571.94524      11081.976     -7379.5997     -522.81632      76051.857      42.367868      42.367868      42.367868      1.1335316     -73.458793     -2149.8464     -723.06132    
     44500   44500          545.33816     -1043.9661      24761.758      25914.206      8798.0155      17116.191      3130.9481      5092.2913      5051.0099      541.40774     -399.16816      11079.38      -7379.6782     -525.29084      75693.594      42.301235      42.301235      42.301235      1.1388967     -199.46546     -1718.3381     -1214.0948    
     45000   45000          544.60192      1174.111       27117.637      25819.917      8786.1377      17033.78       3065.6051      5165.6722      4886.7522      555.96772     -339.02513      11079.777     -7380.9699     -524.64206      75787.198      42.318664      42.318664      42.318664      1.13749       -273.5875       2307.9753      1487.9451    
     45500   45500          544.12312     -713.49098      25144.984      25929.673      8778.4132      17151.26       3232.1142      5095.2286      5083.5799      542.47451     -497.41999      11072.751     -7377.4682     -527.26057      75410.82       42.248493      42.248493      42.248493      1.1431673     -616.54194     -1181.5485     -342.38246    
     46000   46000          552.56868     -1720.8792      24270.957      26165.91       8914.6665      17251.244      3202.695       5196.7555      5097.5475      552.47709     -473.57016      11057.489     -7382.1496     -526.60725      75504.377      42.265957      42.265957      42.265957      1.1417508     -3005.0269      133.99679     -2291.6077    
     46500   46500          554.52598     -524.40263      25638.024      26215.193      8946.2439      17268.949      3169.1075      5159.5133      5150.8447      568.29929     -486.18774      11088.343     -7380.9715     -526.86184      75467.89       42.259148      42.259148      42.259148      1.1423028     -641.52279     -806.45998     -125.22512    
     47000   47000          547.48405      394.10694      26394.125      25957.145      8832.6355      17124.51       3164.4607      5159.7852      4980.028       537.55923     -425.06618      11083.974     -7376.2307     -522.98296      76027.625      42.363367      42.363367      42.363367      1.1338929     -837.75283      2260.7299     -240.6562     
     47500   47500          540.69478     -954.54029      24958.34       26012.049      8723.1032      17288.945      3186.1093      5242.7025      5060.3246      543.32068     -435.53832      11074.511     -7382.4844     -525.30159      75692.046      42.300946      42.300946      42.300946      1.13892       -2467.2541     -1453.6079      1057.2412    
     48000   48000          548.26672     -41.620403      26059.866      26105.746      8845.2624      17260.483      3206.6492      5166.2414      5033.8971      555.76416     -391.35333      11071.324     -7382.0394     -526.04312      75585.347      42.28106       42.28106       42.28106       1.1405277      416.13289     -823.67662      282.68252    
     48500   48500          548.5152      -372.01691      25770.818      26180.445      8849.2711      17331.174      3202.1511      5250.6666      5075.6168      543.32338     -443.74795      11076.865     -7373.7001     -526.63301      75500.683      42.265268      42.265268      42.265268      1.1418067      379.12358     -219.42924     -1275.7451    
     49000   49000          546.17638     -1240.6814      24602.12       25967.907      8811.5387      17156.369      3149.3272      5142.5859      5137.1063      547.34069     -539.05386      11090.145     -7371.082      -526.7591       75482.611      42.261896      42.261896      42.261896      1.14208       -1302.2081     -1351.7746     -1068.0614    
     49500   49500          549.34314      1432.3915      27534.206      25956.191      8862.6285      17093.563      3201.4023      5238.7994      4859.4362      552.2254      -476.19848      11094.268     -7376.3707     -526.36318      75539.387      42.272489      42.272489      42.272489      1.1412216      3558.0883      1288.8725     -549.78625    
     50000   50000          559.6184       536.13828      26951.883      26358.542      9028.4006      17330.142      3198.8355      5221.2692      5063.4222      553.11661     -425.91154      11096.312     -7376.902      -523.97139      75884.204      42.336712      42.336712      42.336712      1.1360359      342.15423     -0.98047977     1267.2411    
     50500   50500          558.11809     -1.7518         26352.198      26354.137      9004.1959      17349.941      3226.5601      5310.5702      5034.4892      542.90514     -470.41769      11077.863     -7372.0296     -523.94259      75888.375      42.337488      42.337488      42.337488      1.1359735      2634.4354     -1580.221      -1059.4699    
     51000   51000          556.60149      1626.1541      27954.578      26178.029      8979.7285      17198.301      3124.0253      5249.0576      5008.6918      557.38029     -440.3187       11076.398     -7376.9339     -530.78583      74909.973      42.154753      42.154753      42.154753      1.1508105      952.39102      1714.7308      2211.3406    
     51500   51500          543.60891     -1253.818       24640.751      26015.849      8770.1174      17245.731      3119.9953      5187.7252      5165.3927      578.50877     -511.32864      11079.214     -7373.7759     -528.73239      75200.9        42.209254      42.209254      42.209254      1.1463584     -408.04445     -651.52596     -2701.8837    
     52000   52000          533.74316     -618.45252      25268.194      25951.745      8610.9519      17340.794      3120.4998      5206.7138      5204.8495      562.78014     -466.94666      11089.632     -7376.7348     -524.65011      75786.036      42.318448      42.318448      42.318448      1.1375075     -1768.0325      481.87244     -569.19751    
     52500   52500          546.20941     -2396.3056      23233.502      25872.721      8812.0716      17060.649      3034.7494      5192.7727      5166.4131      529.07274     -541.28002      11059.384     -7380.4625     -526.50401      75519.182      42.26872       42.26872       42.26872       1.141527      -1418.45       -4966.8736     -803.59333    
     53000   53000          552.55944     -293.33798      25859.112      26181.78       8914.5174      17267.262      3185.9172      5281.0308      5021.396       558.33213     -479.02918      11074.693     -7375.0775     -527.16658      75424.266      42.251004      42.251004      42.251004      1.1429635      216.36107     -1428.4658      332.09081    
     53500   53500          553.54094      1938.7113      28319.65       26200.281      8930.3521      17269.929      3262.2997      5322.9494      4867.1813      559.8422      -470.91011      11100.851     -7372.285      -530.44619      74957.937      42.163748      42.163748      42.163748      1.1500741      566.55681      1776.7031      3472.8738    
     54000   54000          548.72249      877.12674      26867.49       25899.725      8852.6155      17047.109      3208.2949      5192.104       4865.2867      544.12096     -481.74889      11096.495     -7377.443      -525.56576      75653.999      42.293857      42.293857      42.293857      1.1394927     -1290.6236      2279.6439      1642.3599    
     54500   54500          539.93095      640.48536      26554.964      25856.601      8710.7803      17145.821      3085.1254      5295.587       5000.787       552.81588     -495.32229      11084.855     -7378.0275     -531.81794      74764.593      42.127465      42.127465      42.127465      1.1530482      828.81629      1772.986      -680.34625    
     55000   55000          545.91459      1572.5213      27639.017      25931.249      8807.3153      17123.933      3253.1202      5150.8486      4940.9346      577.94477     -512.11815      11093.234     -7380.0308     -533.95213      74465.762      42.071263      42.071263      42.071263      1.1576754      242.82132      4473.5913      1.1514058    
     55500   55500          553.31995     -2134.1703      23981.955      26332.337      8926.7869      17405.55       3226.729       5234.2867      5194.1665      578.38194     -529.30332      11072.603     -7371.3137     -526.53285      75515.045      42.267948      42.267948      42.267948      1.1415895     -1125.8734     -5861.8089      585.17135    
     56000   56000          564.07263     -410.06675      25819.837      26271.579      9100.2614      17171.318      3146.6684      5226.789       4963.7475      543.2682      -413.29375      11081.173     -7377.0349     -526.37958      75537.034      42.27205       42.27205       42.27205       1.1412572     -130.39411      452.28821     -1552.0943    
     56500   56500          551.63779     -1187.8797      24727.819      26028.9        8899.6483      17129.252      3045.4299      5180.7746      5096.2628      589.70417     -496.28204      11091.31      -7377.9483     -529.42334      75102.756      42.190884      42.190884      42.190884      1.1478565     -1666.6835     -1765.8347     -131.12091    
     57000   57000          548.65699      377.89419      26288.27       25874.928      8851.5587      17023.37       3159.2807      5115.7466      5003.2571      548.97948     -526.23904      11099.605     -7377.2606     -530.14648      75000.313      42.171692      42.171692      42.171692      1.1494243      628.66743      1611.8595     -1106.8444    
     57500   57500          548.60957      627.55317      26653.919      25969.08       8850.7936      17118.286      3211.4238      5135.9003      5000.4075      536.25141     -481.91675      11091.457     -7375.2371     -531.36965      74827.669      42.139309      42.139309      42.139309      1.1520763      42.471242      1499.0052      341.18307    
     58000   58000          550.74985      380.84975      26442.891      26025.086      8885.323       17139.763      3161.0123      5176.1138      4944.1841      571.97107     -430.4557       11091.958     -7375.021      -528.58488      75221.887      42.213181      42.213181      42.213181      1.1460386      1959.9791      911.24801     -1728.6778    
     58500   58500          553.82193     -505.09022      25690.928      26248.947      8934.8854      17314.061      3252.1898      5255.3102      5005.3736      555.35022     -460.0664       11080.162     -7374.2577     -524.87339      75753.796      42.312446      42.312446      42.312446      1.1379916      653.5481      -1225.1623     -943.65647    
     59000   59000          557.93776      1492.8309      27975.952      26343.766      9001.2867      17342.479      3352.0369      5194.9651      5004.3956      565.84318     -469.62875      11071.868     -7377.0009     -530.36598      74969.273      42.165873      42.165873      42.165873      1.1499002      320.21511      2241.9864      1916.2913    
     59500   59500          552.71503      1414.9278      27796.506      26235.689      8917.0277      17318.661      3226.2806      5308.8947      4952.8689      552.95138     -460.71446      11105.987     -7367.6067     -525.67464      75638.33       42.290937      42.290937      42.290937      1.1397288      1773.1554      2163.1049      308.52292    
     60000   60000          540.75511      1353.0789      27605.599      26120.365      8724.0765      17396.288      3346.4005      5159.9811      4997.7433      578.88763     -426.08055      11107.577     -7368.2206     -528.27865      75265.49       42.221335      42.221335      42.221335      1.1453746      636.15222      1836.7876      1586.297     
     60500   60500          545.87196     -149.75132      25834.791      25998.108      8806.6274      17191.48       3296.9781      5184.7872      4941.4308      551.12475     -500.27994      11090.478     -7373.0386     -531.70954      74779.836      42.130328      42.130328      42.130328      1.1528132      1593.0476      1632.0085     -3674.31      
     61000   61000          543.0659       590.97559      26443.461      25789.684      8761.3569      17028.327      3181.7459      5179.6204      4879.4499      534.51        -477.73582      11104.835     -7374.098      -524.1734       75854.96       42.331273      42.331273      42.331273      1.1364739     -622.08726      91.251597      2303.7624    
     61500   61500          548.27818      1048.8889      27308.992      26148.237      8845.4473      17302.79       3229.5521      5331.9247      4860.3492      545.14127     -378.31436      11089.355     -7375.2184     -523.99071      75881.407      42.336192      42.336192      42.336192      1.1360778      450.40654      2060.6896      635.57066    
     62000   62000          557.56798      46.334744      26301.644      26250.523      8995.321       17255.202      3184.5801      5134.8639      5102.6195      554.49455     -434.63575      11091.53      -7378.2504     -525.58279      75651.549      42.293401      42.293401      42.293401      1.1395297      1926.8842     -829.35111     -958.52888    
     62500   62500          551.93606     -2793.4403      23026.315      26088.988      8904.4605      17184.528      3092.4157      5182.1987      5162.0492      551.97077     -530.66981      11093.477     -7366.9143     -528.90001      75177.068      42.204795      42.204795      42.204795      1.1467218     -1751.2438     -4149.1805     -2479.8966    
     63000   63000          549.17464      176.16522      26188.082      25993.474      8859.91        17133.564      3087.5626      5093.8542      5092.5613      569.20292     -442.32224      11099.641     -7366.9359     -524.9225       75746.71       42.311127      42.311127      42.311127      1.1380981      917.13515     -481.50941      92.869927    
     63500   63500          554.91399     -632.60976      25635.59       26331.503      8952.5037      17379          3277.5932      5125.9861      5185.377       574.64298     -485.39529      11076.177     -7375.3813     -527.12747      75429.862      42.252049      42.252049      42.252049      1.1428787     -561.67937      432.74552     -1768.8954    
     64000   64000          550.59932      991.49855      27241.127      26157.611      8882.8946      17274.716      3195.6113      5324.6808      4893.2986      543.00713     -403.07008      11093.336     -7372.1472     -530.62959      74932.029      42.15889       42.15889       42.15889       1.1504718      1598.0567      1580.2557     -203.81669    
     64500   64500          545.15935      379.77632      26549.616      26128.328      8795.1308      17333.197      3197.314       5358.4987      4955.2343      534.52811     -452.0535       11108.284     -7368.6084     -522.73722      76063.365      42.370005      42.370005      42.370005      1.1333601      664.63736     -15.142852      489.83444    
     65000   65000          543.35922     -209.13484      25812.716      26042.068      8766.089       17275.979      3129.3402      5137.9114      5229.8991      553.44169     -500.99018      11093.628     -7367.2509     -528.76042      75196.914      42.208508      42.208508      42.208508      1.1464192     -1471.5978     -513.30042      1357.4937    
     65500   65500          548.0041       190.64077      26250.727      26041.52       8841.0256      17200.494      3221.081       5150.0804      5042.9217      539.33378     -452.69892      11072.509     -7372.7329     -528.4144       75246.155      42.21772       42.21772       42.21772       1.1456689      6.7232387     -1189.438       1754.6371    
     66000   66000          551.39114      354.47201      26449.26       26060.288      8895.6691      17164.618      3317.6114      5172.037       4939.0042      537.03563     -499.76221      11072.193     -7373.5004     -528.44251      75242.153      42.216971      42.216971      42.216971      1.1457299     -366.92113      797.64873      632.68844    
     66500   66500          551.37914     -218.15398      25968.387      26207.576      8895.4755      17312.101      3353.4567      5186.0777      4970.9481      564.1511      -479.93346      11095.571     -7378.1703     -528.87925      75180.019      42.205347      42.205347      42.205347      1.1466768      1144.6973      354.32804     -2153.4873    
     67000   67000          551.8313       2137.3703      28582.313      26217.485      8902.7704      17314.715      3233.9142      5178.8897      4992.798       558.71901     -357.31547      11085.012     -7377.303      -524.10117      75865.414      42.333217      42.333217      42.333217      1.1363173      2184.2252      272.70741      3955.1782    
     67500   67500          551.17771     -1549.8339      24314.907      26011.954      8892.2258      17119.728      3043.3822      5235.6134      5053.9704      536.67693     -432.86615      11065.58      -7382.6284     -529.57331      75081.488      42.186901      42.186901      42.186901      1.1481816     -2328.3015     -759.29977     -1561.9006    
     68000   68000          544.44269     -832.20642      25042.149      25962.184      8783.5688      17178.615      3245.6419      5255.9754      4943.4239      530.17797     -505.7589       11082.073     -7372.9186     -524.5195       75804.907      42.32196       42.32196       42.32196       1.1372243     -211.43879     -749.2953      -1535.8852    
     68500   68500          547.45984      2010.6855      28358.301      26152.295      8832.245       17320.05       3235.9531      5269.1556      4988.6804      561.01266     -449.34137      11088.909     -7374.3196     -528.5333       75229.227      42.214554      42.214554      42.214554      1.1459267      1824.7709      2103.8352      2103.4505    
     69000   69000          543.90044     -731.83154      25148.822      25946.091      8774.8206      17171.271      3108.4893      5186.0965      5161.5359      562.92442     -560.44379      11081.773     -7369.1046     -532.28088      74699.569      42.115248      42.115248      42.115248      1.1540519     -1778.2977     -525.5427       108.3458     
     69500   69500          535.72663     -1814.4185      23872.041      25859.047      8642.9515      17216.096      3267.0746      5150.2238      5045.6365      530.91894     -482.34668      11075.376     -7370.7878     -529.50867      75090.654      42.188618      42.188618      42.188618      1.1480414     -1711.1429     -1804.4801     -1927.6327    
     70000   70000          549.72733     -2560.9761      23315.515      26125.85       8868.8267      17257.024      3159.75        5176.8386      5223.965       549.22858     -560.28894      11088.344     -7380.8134     -528.42367      75244.836      42.217473      42.217473      42.217473      1.145689      -4942.0494     -1305.2653     -1435.6136    
     70500   70500          544.33627     -178.3433       25744.142      25939.267      8781.8519      17157.415      3061.4111      5197.8563      5096.4299      558.85339     -448.07285      11068.099     -7377.1619     -530.00495      75020.341      42.175445      42.175445      42.175445      1.1491175      526.28614     -1110.2129      48.896861    
     71000   71000          556.85587     -1979.7878      23984.458      26159.196      8983.8324      17175.364      3053.3964      5228.0431      5178.093       569.88424     -552.98736      11076.269     -7377.3348     -527.89376      75320.368      42.231594      42.231594      42.231594      1.1445401     -139.06259     -3979.821      -1820.4798    
     71500   71500          550.57107      1097.2569      27412.228      26213.792      8882.4388      17331.353      3248.2121      5210.1826      5051.1181      599.96974     -476.53402      11073.909     -7375.5041     -530.91912      74891.166      42.151225      42.151225      42.151225      1.1510995      1139.1863      320.60121      1831.9831    
     72000   72000          544.78519     -68.028007      25842.366      25916.786      8789.0944      17127.692      3141.9778      5191.9948      5093.1121      544.28906     -543.20037      11079.028     -7379.5095     -530.07013      75011.116      42.173717      42.173717      42.173717      1.1492588     -234.66908     -744.0773       774.66236    
     72500   72500          540.42786      529.65975      26479.694      25897.989      8718.7971      17179.192      3099.0622      5205.1333      4988.1816      576.27046     -401.53462      11094.306     -7382.2266     -527.9936       75306.125      42.228932      42.228932      42.228932      1.1447566      1213.0555     -479.84156      855.76527    
     73000   73000          554.79889      849.12351      26941.9        26003.741      8950.6468      17053.094      3087.4842      5195.002       4940.9579      547.3576      -426.61935      11082.995     -7374.0832     -524.84327      75758.144      42.313256      42.313256      42.313256      1.1379263      1957.7809      116.42734      473.16227    
     73500   73500          551.29449      1319.597       27649.741      26207.036      8894.1099      17312.926      3276.5268      5111.7771      5075.3063      552.49512     -416.2287       11088.027     -7374.9772     -530.39403      74965.308      42.16513       42.16513       42.16513       1.149961       1347.8662      2552.6523      58.272394    
     74000   74000          546.61878     -443.50596      25719.582      26208.333      8818.676       17389.657      3210.7582      5251.8778      5057.5202      548.23299     -378.60823      11075.252     -7375.3761     -526.19532      75563.485      42.276984      42.276984      42.276984      1.1408577      146.15131     -84.197842     -1392.4714    
     74500   74500          543.58899     -1122.4342      24666.96       25902.756      8769.796       17132.96       3076.9609      5252.3268      5029.0391      546.99004     -482.77782      11091.676     -7381.2547     -526.68249      75493.589      42.263944      42.263944      42.263944      1.141914      -1484.3997     -1399.4491     -483.45377    
     75000   75000          539.57687     -1763.2517      23951.521      25885.909      8705.0679      17180.841      3237.3218      5080.3028      5080.7325      537.32626     -458.38561      11080.009     -7376.4655     -528.57376      75223.47       42.213477      42.213477      42.213477      1.1460144     -1719.9728     -2089.6894     -1480.093     
     75500   75500          545.25539      285.44532      26217.506      25904.657      8796.6802      17107.976      3223.1655      5147.3618      5049.0476      537.85115     -565.98405      11091.331     -7374.7965     -529.08127      75151.313      42.199975      42.199975      42.199975      1.1471148      1711.4377      311.03617     -1166.1379    
     76000   76000          549.8531       131.20602      26206.531      26062.355      8870.8558      17191.499      3071.9593      5224.3515      5002.061       559.77867     -388.47949      11090.36      -7368.5321     -527.70939      75346.683      42.236512      42.236512      42.236512      1.1441404     -2714.7039      319.46968      2788.8523    
     76500   76500          550.64938      1057.3217      27276.936      26110.383      8883.7022      17226.681      3214.4711      5297.0274      4908.7504      564.81209     -488.39593      11101.918     -7371.9027     -525.57831      75652.193      42.293521      42.293521      42.293521      1.1395199      2110.4613      911.52594      149.97775    
     77000   77000          545.73268     -875.97232      24931.918      25898.948      8804.3804      17094.568      3295.5351      5171.1194      4893.4574      533.88821     -523.53142      11094.189     -7370.0898     -525.27312      75696.149      42.30171       42.30171       42.30171       1.1388582     -120.32721     -1045.4352     -1462.1546    
     77500   77500          547.02542     -536.83684      25409.979      25999.688      8825.2363      17174.452      3231.333       5201.5749      5030.7309      527.48725     -549.40251      11103.906     -7371.1778     -527.88495      75321.625      42.231829      42.231829      42.231829      1.144521      -739.81397      43.134673     -913.83122    
     78000   78000          554.85796      1151.1137      27391.45       26132.356      8951.5998      17180.756      3272.0071      5071.2793      5042.2505      533.73267     -457.98879      11093.33      -7373.8551     -530.14531      75000.478      42.171723      42.171723      42.171723      1.1494218      1851.7939     -412.55194      2014.0992    
     78500   78500          560.4381       1164.348       27549.264      26268.083      9041.6249      17226.458      3261.5657      5115.4084      5015.8796      551.37836     -435.8038       11091.706     -7373.6762     -526.99589      75448.695      42.255565      42.255565      42.255565      1.1425934     -588.72753      1953.1769      2128.5945    
     79000   79000          545.71543      1503.0247      27744.477      26090.118      8804.1022      17286.015      3399.2095      5179.7934      4900.4604      535.61227     -445.75254      11090.001     -7373.3087     -526.8308       75472.338      42.259978      42.259978      42.259978      1.1422355      2223.1745      996.62909      1289.2707    
     79500   79500          550.70759     -54.700811      25952.365      26012.037      8884.6413      17127.396      3269.5784      5158.0664      4985.7766      534.91268     -529.85716      11087.926     -7379.0068     -531.56792      74799.758      42.134069      42.134069      42.134069      1.1525062     -441.01566      1647.765      -1370.8518    
     80000   80000          540.3388       945.97912      26842.851      25808.157      8717.3603      17090.797      3213.1895      5229.3578      4893.2647      542.48115     -498.80166      11087.709     -7376.4036     -530.15706      74998.816      42.171411      42.171411      42.171411      1.1494472      2883.2963     -698.14477      652.78585    
     80500   80500          541.41571     -2118.0651      23592.971      25931.868      8734.7341      17197.133      3158.5403      5241.4264      5096.762       553.69766     -553.51242      11071.75      -7371.5306     -525.12554      75717.421      42.305673      42.305673      42.305673      1.1385383     -2384.3919     -1646.4309     -2323.3725    
     81000   81000          559.20009     -1128.0226      24948.087      26173.768      9021.6519      17152.116      3183.6357      5222.1204      5065.9663      544.64891     -571.8011       11083.393     -7375.8472     -533.67261      74504.765      42.078607      42.078607      42.078607      1.1570694      1807.763      -2586.5753     -2605.2555    
     81500   81500          544.91283     -2646.3383      23221.229      26105.743      8791.1537      17314.59       3188.5671      5133.8578      5327.2575      532.70738     -568.10413      11072.847     -7372.5429     -531.99489      74739.725      42.122794      42.122794      42.122794      1.1534319     -1962.7045     -3136.5204     -2839.7899    
     82000   82000          541.51333     -1797.8862      23988.679      25954.658      8736.309       17218.349      3132.4661      5213.4624      5125.0307      556.90596     -520.01193      11081.966     -7371.4708     -530.29588      74979.183      42.167731      42.167731      42.167731      1.1497482     -688.57242     -1186.9334     -3518.1527    
     82500   82500          550.46357     -318.57922      25614.551      25963.83       8880.7046      17083.126      3162.2495      5150.4452      5052.9701      519.26493     -485.83735      11066.022     -7381.9882     -528.90669      75176.119      42.204617      42.204617      42.204617      1.1467363     -1774.3257      857.46857     -38.880521    
     83000   83000          553.34506     -810.71411      25251.148      26146.034      8927.1921      17218.842      3168.7972      5229.7533      5101.3892      540.06933     -534.47279      11091.192     -7377.8865     -525.33354      75687.443      42.300089      42.300089      42.300089      1.1389892     -1292.9546      92.042188     -1231.23      
     83500   83500          547.7516      -729.4152       25160.742      25966.834      8836.952       17129.882      3120.622       5209.1228      5031.241       530.9698      -450.57308      11073.951     -7385.4517     -524.71735      75776.325      42.31664       42.31664       42.31664       1.1376533     -421.64886     -738.91756     -1027.6792    
     84000   84000          547.75239     -492.37253      25327.972      25871.731      8836.9646      17034.767      3207.992       5140.4875      4915.736       513.3769      -442.96109      11076.28      -7376.1444     -525.07553      75724.633      42.307016      42.307016      42.307016      1.1384299     -1720.9681     -718.1401       961.99058    
     84500   84500          544.42167      1070.9445      27178.637      25990.476      8783.2297      17207.247      3306.0613      5165.4454      4932.6172      546.57202     -451.86089      11080.012     -7371.6004     -522.66894      76073.302      42.37185       42.37185       42.37185       1.1332121      2398.7486      2790.2477     -1976.1629    
     85000   85000          554.92158     -691.50313      25400.482      26160.812      8952.6263      17208.186      3162.2311      5265.9343      4992.3985      558.09746     -482.12349      11084.4       -7372.7517     -527.38327      75393.275      42.245216      42.245216      42.245216      1.1434333      670.3487      -763.43168     -1981.4264    
     85500   85500          562.45891      1936.2373      28341.905      26228.792      9074.227       17154.565      3112.9963      5257.0012      5009.7703      558.29032     -499.61242      11094.085     -7377.9656     -531.33795      74832.133      42.140146      42.140146      42.140146      1.1520076      2962.3265      789.295        2057.0905    
     86000   86000          540.63056      2015.7061      28211.519      26014.049      8722.0671      17291.982      3140.321       5238.2502      5075.3565      542.82144     -424.77009      11093.022     -7373.0189     -531.91106      74751.504      42.125006      42.125006      42.125006      1.1532501      3055.4166      902.16407      2089.5376    
     86500   86500          561.29055      140.99633      26405.519      26249.677      9055.3777      17194.299      3153.1466      5153.5872      5072.197       542.45878     -447.37812      11098.575     -7378.2873     -524.63609      75788.06       42.318825      42.318825      42.318825      1.1374771     -1713.4488      1358.7954      777.64236    
     87000   87000          548.92375      61.383228      26141.722      26073.962      8855.8624      17218.099      3131.0756      5139.8389      5082.794       579.30212     -428.94448      11093.367     -7379.3339     -525.29878      75692.45       42.301021      42.301021      42.301021      1.1389139     -668.21515      1189.4303     -337.06547    
     87500   87500          554.1491       20.877392      26144.507      26121.635      8940.1636      17181.471      3232.5082      5185.1388      5049.4751      543.85744     -526.86278      11076.38      -7379.0255     -529.31343      75118.351      42.193804      42.193804      42.193804      1.1476181      1546.4652     -1110.0223     -373.8108     
     88000   88000          552.6046       243.18412      26563.612      26296.413      8915.2461      17381.167      3201.2778      5234.6345      5129.3405      571.10146     -459.37332      11086.77      -7382.584      -527.75906      75339.591      42.235187      42.235187      42.235187      1.1442481      510.55294     -552.12182      771.12125    
     88500   88500          548.06588      155.53229      26417.716      26246.047      8842.0223      17404.025      3269.6032      5197.3064      5075.6286      563.81219     -409.9635       11079.433     -7371.7945     -525.3676       75682.535      42.299174      42.299174      42.299174      1.1390631     -500.83031     -255.5222       1222.9494    
     89000   89000          564.17686      248.91759      26431.997      26157.037      9101.943       17055.094      3132.7836      5178.6131      4985.4717      524.95793     -458.14794      11069.159     -7377.7433     -524.95404      75742.158      42.310279      42.310279      42.310279      1.1381664     -501.38655      314.18923      933.95007    
     89500   89500          551.02224     -385.21494      25618.628      26037.972      8889.7177      17148.255      3083.7222      5175.0168      5191.4266      544.55184     -550.52027      11088.111     -7384.0538     -532.68089      74643.474      42.104704      42.104704      42.104704      1.1549192     -51.522795     -2209.4021      1105.2801    
     90000   90000          545.12905     -1063.245       24800.788      25975.246      8794.642       17180.604      3122.8793      5162.3454      5115.5875      539.07151     -453.11014      11075.303     -7381.4733     -524.9658       75740.461      42.309963      42.309963      42.309963      1.1381919     -644.6154      -1227.4213     -1317.6982    
     90500   90500          540.84589      820.87392      26765.81       25861.221      8725.5411      17135.68       3172.055       5176.1262      4919.0159      545.67894     -378.18032      11082.985     -7382.0013     -526.21124      75561.198      42.276557      42.276557      42.276557      1.1408922      1241.9735      319.03443      901.61385    
     91000   91000          545.92207     -1015.0209      24789.505      25908.776      8807.4359      17101.34       3124.5255      5170.4427      5066.5045      547.39331     -510.82995      11080.314     -7377.0104     -525.86551      75610.877      42.28582       42.28582       42.28582       1.1401426     -1213.2983     -977.99244     -853.77195    
     91500   91500          549.64689      741.54994      26968.237      26144.927      8867.5289      17277.398      3214.7447      5193.464       5009.2352      559.40146     -419.86269      11087.456     -7367.0409     -522.28992      76128.507      42.382097      42.382097      42.382097      1.1323903      847.05946      296.70996      1080.8804    
     92000   92000          550.03962      1123.3496      27390.768      26159.909      8873.8649      17286.044      3229.1671      5264.0542      4960.795       543.15897     -426.74172      11088.424     -7372.8131     -529.22651      75130.688      42.196114      42.196114      42.196114      1.1474297      1777.7685      793.47546      798.80482    
     92500   92500          553.83629      443.59438      26436.003      25947.881      8935.1171      17012.764      3084.9033      5227.6759      4906.9245      536.90218     -450.3934       11080.696     -7373.9444     -526.97816      75451.233      42.256039      42.256039      42.256039      1.142555       2901.4362      531.80111     -2102.4541    
     93000   93000          561.3389      -1359.0705      24849.989      26358.151      9056.1577      17301.994      3128.5156      5260.2497      5126.598       547.41497     -459.52051      11075.457     -7376.7212     -522.55112      76090.454      42.375034      42.375034      42.375034      1.1329566     -2018.1006     -2441.4819      382.37109    
     93500   93500          550.6646       1496.7947      27973.743      26323.134      8883.9477      17439.186      3331.0007      5217.3407      5012.8498      571.59944     -415.3901       11097.18      -7375.3942     -525.83898      75614.691      42.286531      42.286531      42.286531      1.1400851      1201.5982      1631.7656      1657.0204    
     94000   94000          547.24263     -648.72028      25496.041      26213.932      8828.7407      17385.191      3234.7616      5369.6792      4985.3127      558.18158     -494.66074      11106.287     -7374.3707     -524.00301      75879.625      42.33586       42.33586       42.33586       1.1361045      130.17676     -1619.0924     -457.24518    
     94500   94500          548.03745      2210.45        28432.854      26032.707      8841.5636      17191.144      3260.0973      5244.5225      4867.6546      537.26038     -440.15866      11097.965     -7376.1971     -534.04484      74452.835      42.068828      42.068828      42.068828      1.1578764      1335.5612      3312.727       1983.0617    
     95000   95000          557.12665     -2600.5584      23160.835      26030.481      8988.2009      17042.28       3046.5821      5154.3061      5111.8711      543.04785     -518.04805      11084.193     -7379.6718     -525.50052      75663.392      42.295608      42.295608      42.295608      1.1393513     -3507.267      -3674.5081     -619.90013    
     95500   95500          546.99599     -768.63464      25251.771      26099.497      8824.7615      17274.736      3228.0867      5211.7073      5092.222       533.41867     -501.43055      11091.988     -7381.2561     -525.77423      75624.004      42.288267      42.288267      42.288267      1.1399447     -1606.9985     -1783.8591      1084.9537    
     96000   96000          553.50891     -2533.2624      23458.465      26253.783      8929.8355      17323.947      3208.6026      5247.9109      5133.7162      546.54868     -502.40219      11067.278     -7377.707      -525.51343      75661.534      42.295261      42.295261      42.295261      1.1393793     -3766.939      -2386.5326     -1446.3155    
     96500   96500          553.53049      1002.0585      27317.522      26212.478      8930.1835      17282.294      3256.9354      5182.3748      5008.2395      551.0187      -413.98902      11076.665     -7378.9495     -525.83364      75615.459      42.286674      42.286674      42.286674      1.1400735      494.72852      524.7197       1986.7273    
     97000   97000          542.98562     -1063.6626      24942.308      26115.385      8760.0616      17355.324      3379.85        5207.8242      4952.0272      559.07887     -451.35695      11079.852     -7371.9517     -525.78987      75621.754      42.287848      42.287848      42.287848      1.1399786     -711.25489     -3975.4472      1495.7142    
     97500   97500          554.28639     -939.17184      25012.536      26041.047      8942.3786      17098.669      3230.326       5065.6007      5006.4026      552.22623     -476.06301      11091.138     -7370.9622     -529.50597      75091.037      42.188689      42.188689      42.188689      1.1480356      1620.0171     -2112.3053     -2325.2273    
     98000   98000          546.36013      1829.7298      28195.359      26174.845      8814.5031      17360.342      3197.6609      5356.3513      4881.9723      527.83992     -322.66198      11087.948     -7368.7684     -525.12164      75717.984      42.305777      42.305777      42.305777      1.1385298     -213.56514      1813.2394      3889.5152    
     98500   98500          550.59806      1446.7032      27537.385      25939.296      8882.8742      17056.422      3157.21        5218.7219      4793.9583      550.80346     -374.46674      11081.109     -7370.9137     -524.94435      75743.556      42.31054       42.31054       42.31054       1.1381454      2407.6306      509.97443      1422.5044    
     99000   99000          548.29532      544.71514      26671.126      26072.481      8845.7238      17226.757      3232.103       5246.5594      4967.6956      564.7178      -493.59407      11086.008     -7376.7334     -527.63637      75357.109      42.23846       42.23846       42.23846       1.1439821      947.28         417.52072      269.3447     
     99500   99500          548.63331      1295.8102      27620.201      26194.047      8851.1767      17342.87       3217.4869      5328.5135      5043.0776      562.45454     -521.23772      11085.26      -7372.6849     -526.87749      75465.649      42.25873       42.25873       42.25873       1.1423367      1855.9174     -698.96801      2730.4811    
    100000   100000         559.20036      1396.7856      27882.902      26341.733      9021.6564      17320.076      3196.6984      5167.0781      5056.3407      592.58488     -384.85305      11073.545     -7381.3175     -525.55033      75656.222      42.294272      42.294272      42.294272      1.1394593      345.94796      1798.8013      2045.6075    
    100500   100500         547.59911      1262.9708      27455.005      26062.563      8834.4918      17228.071      3199.5979      5372.9145      4893.9355      544.59826     -480.57234      11073.694     -7376.0972     -525.95781      75597.607      42.283346      42.283346      42.283346      1.1403427      3198.5181      452.76362      137.63071    
    101000   101000         553.79638     -1160.0792      24889.862      26151.374      8934.4732      17216.901      3242.7338      5259.5142      5094.0952      520.73926     -602.3838       11077.144     -7374.9417     -533.25004      74563.805      42.089718      42.089718      42.089718      1.1561532     -1899.7031     -1551.5815     -28.953069    
    101500   101500         552.9447       188.47187      26359.209      26153.516      8920.7329      17232.783      3287.4491      5062.1105      5064.7336      558.83401     -458.8632       11091.13      -7372.6107     -531.3289       74833.407      42.140386      42.140386      42.140386      1.151988       1084.606      -1125.9753      606.7849     
    102000   102000         544.08835     -1314.0228      24548.128      25987.912      8777.8522      17210.059      3116.3369      5260.8213      5103.5721      555.41666     -519.11335      11070.591     -7377.5655     -529.22535      75130.853      42.196145      42.196145      42.196145      1.1474272     -655.71318     -1817.3404     -1469.0148    
    102500   102500         548.61525      848.60006      27011.126      26081.731      8850.8853      17230.845      3246.4993      5228.085       5008.4371      563.10921     -504.61829      11068.906     -7379.5725     -529.46494      75096.855      42.189779      42.189779      42.189779      1.1479467      141.73903      476.04986      1928.0113    
    103000   103000         552.97362      184.34852      26179.76       25979.053      8921.1995      17057.853      3204.1466      5174.2654      4971.1891      538.88291     -521.62596      11073.223     -7382.2273     -532.61267      74653.034      42.106501      42.106501      42.106501      1.1547713     -472.81817      855.73934      170.1244     
    103500   103500         548.73485      1276.1338      27460.383      26052.943      8852.8149      17200.128      3348.071       5087.8396      4969.0572      571.20734     -489.62871      11086.359     -7372.7775     -525.77637      75623.695      42.288209      42.288209      42.288209      1.1399494      3302.9293     -129.2396       654.71159    
    104000   104000         562.60255      1852.9982      28229.125      26191.54       9076.5444      17114.996      3231.1535      5236.7982      4824.5194      539.59397     -439.31574      11102.384     -7380.1376     -527.3443       75398.846      42.246257      42.246257      42.246257      1.1433488      2641.5233      1771.6416      1145.8298    
    104500   104500         546.06218      2187.3533      28351.932      25955.161      8809.6963      17145.464      3245.7095      5227.0197      4889.2917      561.87963     -484.92159      11082.956     -7376.4706     -529.20899      75133.176      42.19658       42.19658       42.19658       1.1473917      2950.8793      2642.5066      968.67413    
    105000   105000         544.80531      303.37507      26298.859      25960.518      8789.4191      17171.099      3120.7915      5331.4273      4920.5343      544.30143     -447.92417      11077.592     -7375.6238     -519.94714      76471.528      42.445657      42.445657      42.445657      1.1273109      50.738713      614.77824      244.60825    
    105500   105500         552.1962       928.24618      26899.191      25883.053      8908.6573      16974.396      3102.2319      5106.3853      5007.9426      539.25743     -471.03833      11066.612     -7376.9949     -529.71883      75060.862      42.183038      42.183038      42.183038      1.1484971     -261.12365      1966.9191      1078.9431    
    106000   106000         551.2081      -1024.2266      24935.503      26050.412      8892.7161      17157.696      3183.7398      5042.0074      5204.622       527.76279     -518.1528       11086.8       -7369.0827     -532.71047      74639.329      42.103924      42.103924      42.103924      1.1549834     -1236.1189     -1399.6364     -436.92443    
    106500   106500         553.21419     -547.16087      25522.171      26127.18       8925.0806      17202.099      3118.5091      5228.0273      5051.8229      546.12962     -461.7836       11086.627     -7367.2325     -524.43095      75817.707      42.324342      42.324342      42.324342      1.1370323      1826.0868     -2692.5422     -775.02724    
    107000   107000         555.15631     -1697.5983      24210.453      26082.507      8956.4132      17126.094      3173.2592      5124.0409      5078.2162      523.18309     -492.27187      11090.297     -7370.6305     -525.83741      75614.917      42.286573      42.286573      42.286573      1.1400817     -3090.8501      587.38163     -2589.3266    
    107500   107500         552.97729     -96.664222      25823.53       25929.206      8921.2587      17007.948      3200.617       5173.6117      4921.5798      530.62787     -514.91075      11070.277     -7373.8553     -530.42374      74961.109      42.164343      42.164343      42.164343      1.1500254      1013.7977     -323.92674     -979.86359    
    108000   108000         553.1429      -1219.5928      24587.607      25920.527      8923.9306      16996.597      3138.2306      5097.3594      5036.9556      537.15101     -527.53077      11092.604     -7378.1735     -530.57343      74939.96       42.160377      42.160377      42.160377      1.15035       -3273.6382      173.02598     -558.16625    
    108500   108500         551.35876      227.96258      26290.302      26042.612      8895.1467      17147.465      3234.8389      5170.9782      4928.6273      533.26781     -418.63895      11074.218     -7375.8256     -533.69017      74502.313      42.078145      42.078145      42.078145      1.1571075     -1137.4243      35.767105      1785.5449    
    109000   109000         557.18686     -777.53425      25194.286      26044.52       8989.1723      17055.348      3106.7435      5182.0236      5068.7193      552.57513     -531.6556       11058.203     -7381.2604     -530.29281      74979.617      42.167813      42.167813      42.167813      1.1497416      652.13583      188.14839     -3172.887     
    109500   109500         553.01601      432.18042      26565.859      26088.272      8921.8833      17166.389      3240.8945      5285.8318      4908.7307      534.20575     -509.07066      11082.654     -7376.8575     -524.74435      75772.425      42.315914      42.315914      42.315914      1.1377118      66.518213      219.57178      1010.4513    
    110000   110000         542.66801     -550.29457      25103.951      25701.881      8754.9376      16946.943      3235.0966      5027.1127      4975.2335      527.05295     -502.00953      11064.984     -7380.5274     -533.67882      74503.897      42.078443      42.078443      42.078443      1.1570829     -903.90635      1253.4018     -2000.3791    
    110500   110500         545.37436      593.66456      26492.909      25840.667      8798.5995      17042.068      3165.998       5073.1852      5021.5348      527.61787     -448.78072      11082.938     -7380.4249     -527.79742      75334.116      42.234164      42.234164      42.234164      1.1443312      57.266177     -244.90255      1968.63      
    111000   111000         549.35424     -35.761837      25962.199      26001.373      8862.8075      17138.565      3128.1015      5206.5395      5063.8783      538.98625     -507.44282      11087.365     -7378.8623     -529.37521      75109.585      42.192163      42.192163      42.192163      1.1477521      2364.1361     -141.45823     -2329.9634    
    111500   111500         554.00649     -2021.1856      23851.643      26068.482      8937.8629      17130.619      3185.7704      5155.6801      5064.0167      544.74858     -534.43947      11092.543     -7377.7        -528.69704      75205.928      42.210195      42.210195      42.210195      1.1462817     -2670.9147     -2258.6424     -1133.9996    
    112000   112000         546.97985     -3009.7932      22820.066      26127.203      8824.5012      17302.702      3166.4314      5256.3204      5164.7518      558.32136     -525.57713      11061.33      -7378.8758     -527.7391       75342.441      42.235719      42.235719      42.235719      1.1442048     -3996.1694     -2005.5191     -3027.6911    
    112500   112500         547.21565     -402.88298      25558.056      25994.315      8828.3054      17166.01       3237.9996      5183.0758      5059.8209      521.74882     -537.74238      11081.336     -7380.2292     -535.51224      74248.82       42.030367      42.030367      42.030367      1.161058      -2190.0846      431.83594      549.59973    
    113000   113000         544.51848     -851.66862      24828.51       25759.895      8784.7915      16975.104      3087.8202      5144.0425      5005.6242      548.19659     -516.58781      11085.641     -7379.6326     -530.24427      74986.481      42.169099      42.169099      42.169099      1.1496363     -1343.8047     -1794.5604      583.35929    
    113500   113500         544.33234      59.627028      25908.343      25842.782      8781.7886      17060.993      3117.2482      5175.4393      4992.4278      578.65192     -514.26316      11089.792     -7378.3032     -527.38556      75392.947      42.245155      42.245155      42.245155      1.1434383      578.28921     -1219.8619      820.45375    
    114000   114000         554.30241      889.71219      26971.438      25999.593      8942.637       17056.956      3187.6362      5222.841       4954.4677      543.28465     -550.04129      11076.908     -7378.1401     -530.86884      74898.259      42.152555      42.152555      42.152555      1.1509905      2371.9371     -555.60186      852.80135    
    114500   114500         551.37185      1341.3635      27519.056      26056.801      8895.3579      17161.443      3243.8254      5199.0404      4962.0645      549.29661     -482.3529       11062.032     -7372.4625     -531.93461      74748.195      42.124385      42.124385      42.124385      1.1533012      3139.1163      319.20855      565.7658     
    115000   115000         554.15541      750.41249      26847.737      26028.013      8940.2654      17087.747      3238.378       5112.2386      5006.9041      544.48464     -517.38395      11085.69      -7382.5641     -530.84461      74901.678      42.153197      42.153197      42.153197      1.1509379      2985.8527     -183.11645     -551.49875    
    115500   115500         539.84978      85.171944      25923.651      25830.581      8709.4708      17121.11       3361.8591      5112.8752      4987.3239      543.51338     -571.3795       11069.946     -7383.0274     -530.6673       74926.705      42.157891      42.157891      42.157891      1.1505535     -1008.3799      652.73949      611.15624    
    116000   116000         547.37402      1741.4246      27743.322      25838.738      8830.8604      17007.877      3287.3012      5186.275       4755.7715      538.61003     -468.24894      11085.624     -7377.4555     -530.19952      74992.81       42.170286      42.170286      42.170286      1.1495393      2531.4371      600.07375      2092.7631    
    116500   116500         545.91297      869.09882      26822.819      25868.759      8807.289       17061.47       3177.2379      5118.6384      5000.2489      558.29666     -497.43326      11081.757     -7377.2753     -528.2366       75271.483      42.222456      42.222456      42.222456      1.1452834      1266.086      -550.23278      1891.4432    
    117000   117000         545.26318     -151.11128      26006.302      26172.101      8796.8059      17375.295      3289.2945      5222.9605      5090.6863      578.52286     -512.09256      11084.777     -7378.8535     -528.5056       75233.17       42.215291      42.215291      42.215291      1.1458667     -263.6829      -873.17503      683.52408    
    117500   117500         554.06497     -818.11996      25151.3        26038.238      8938.8063      17099.432      3205.8691      5170.5843      5075.6643      540.3337      -605.77813      11093.326     -7380.5669     -534.88266      74336.214      42.046851      42.046851      42.046851      1.1596929     -1151.6656     -221.43804     -1081.2562    
    118000   118000         547.85849     -1063.9258      24817.447      25979.379      8838.6764      17140.703      3109.5153      5231.1696      5119.1649      544.66011     -593.92548      11106.603     -7376.4848     -530.96435      74884.787      42.150028      42.150028      42.150028      1.1511975      421.13588     -2935.1024     -677.81089    
    118500   118500         555.28178     -1544.6628      24354.272      26036.432      8958.4373      17077.995      3111.9362      5116.0329      5216.8899      542.61368     -595.46141      11066.587     -7380.6034     -532.47744      74671.994      42.110065      42.110065      42.110065      1.1544781     -283.18239     -1838.9644     -2511.8414    
    119000   119000         545.08212     -886.6202       24861.422      25841.539      8793.8848      17047.654      3044.8599      5172.7218      5028.7807      535.18929     -422.71635      11067.909     -7379.0903     -524.55908      75799.187      42.320896      42.320896      42.320896      1.1373101     -462.80632     -1336.139      -860.91531    
    119500   119500         545.22017      1648.8755      27758.015      25948.782      8796.112       17152.67       3378.6934      5020.9534      4920.6098      536.37535     -431.5873       11097.399     -7369.7737     -528.4794       75236.9        42.215989      42.215989      42.215989      1.1458099      2733.2307      1117.5138      1095.8821    
    120000   120000         548.80036      191.92247      26131.269      25923.259      8853.8717      17069.387      3165.3388      5155.9116      4931.7158      544.80725     -432.84784      11079.083     -7374.6213     -535.02617      74316.275      42.043092      42.043092      42.043092      1.1600041     -46.475296     -1269.8716      1892.1143    
    120500   120500         556.7464      -1846.5501      24006.628      26043.434      8982.0662      17061.367      3100.1907      5232.0339      5073.3582      532.31838     -562.54975      11064.782     -7378.7656     -525.71006      75633.234      42.289988      42.289988      42.289988      1.1398056     -2898.8974     -1418.8865     -1221.8663    
    121000   121000         555.60747      1390.7383      27625.722      26094.994      8963.6917      17131.302      3232.0062      5111.8862      5047.2906      542.10572     -494.40182      11070.281     -7377.8659     -526.84418      75470.42       42.25962       42.25962       42.25962       1.1422645      2671.3274      848.27063      652.61684    
    121500   121500         544.93024      1146.2036      27178.251      25926.014      8791.4345      17134.58       3177.7623      5266.3181      4962.3235      561.90152     -514.99147      11065.196     -7383.9299     -530.77448      74911.575      42.155053      42.155053      42.155053      1.1507859     -341.64821      1278.1771      2502.0819    
    122000   122000         554.22203      929.21835      27080.336      26062.642      8941.3403      17121.302      3254.125       5193.1854      4955.4645      541.08385     -533.35976      11089.972     -7379.1689     -529.46272      75097.171      42.189838      42.189838      42.189838      1.1479418      1685.2714     -262.84508      1365.2288    
    122500   122500         548.18327      1690.7842      27802.889      25954.845      8843.9161      17110.929      3211.2625      5206.6817      4936.7525      551.49652     -498.25118      11081.129     -7378.1418     -530.53107      74945.944      42.161499      42.161499      42.161499      1.1502582      2721.5366      950.93844      1399.8776    
    123000   123000         543.36794      107.3018       26022.443      25904.136      8766.2297      17137.907      3167.1819      5217.7235      4917.9907      549.64795     -437.77944      11097.004     -7373.8619     -525.93631      75600.698      42.283923      42.283923      42.283923      1.1402961      856.63923      41.358641     -576.09249    
    123500   123500         552.55002      109.21629      26252.396      26132.408      8914.3655      17218.043      3194.094       5238.1929      4998.6967      528.88884     -424.40299      11065.866     -7383.2926     -527.82119      75330.724      42.23353       42.23353       42.23353       1.1443828     -211.03026     -196.15508      734.83421    
    124000   124000         546.50994     -2614.5571      23167.544      26041.663      8816.92        17224.743      3168.7167      5203.7118      5106.733       554.15763     -523.55078      11088.994     -7374.0193     -527.50702      75375.588      42.241912      42.241912      42.241912      1.1437016     -3448.505      -1399.8675     -2995.2989    
    124500   124500         540.32509     -272.67527      25471.598      25770.975      8717.1391      17053.836      3195.0562      5175.5017      4940.3269      533.51239     -485.44653      11070.666     -7375.7811     -528.15585      75282.991      42.224608      42.224608      42.224608      1.1451084     -1503.7298      459.17118      226.5328     
    125000   125000         547.83619     -194.60005      25824.554      26038.671      8838.3166      17200.354      3193.0116      5149.0992      5049.0103      548.3955      -443.34471      11082.608     -7378.4253     -527.01938      75445.332      42.254937      42.254937      42.254937      1.1426444      118.51484     -487.13285     -215.18214    
    125500   125500         560.45273     -514.78983      25685.859      26252.695      9041.861       17210.834      3246.3333      5192.5137      5031.7491      537.12609     -487.80568      11070.022     -7379.1052     -526.63282      75500.71       42.265273      42.265273      42.265273      1.1418063      894.37601     -2590.9087      152.16318    
    126000   126000         553.44081     -350.48576      25782.183      26165.787      8928.7368      17237.05       3221.9111      5301.2706      5015.5223      549.96063     -533.17474      11061.373     -7379.8123     -529.81208      75047.65       42.180562      42.180562      42.180562      1.1486993     -631.80915      1230.6633     -1650.3114    
    126500   126500         557.1214       2220.422       28543.451      26108.29       8988.1162      17120.174      3309.6633      5172.3273      4839.6921      543.94374     -439.45765      11074.222     -7380.2174     -528.74065      75199.726      42.209035      42.209035      42.209035      1.1463763      3450.7259      1378.3547      1832.1853    
    127000   127000         552.96198     -509.49299      25433.376      25991.318      8921.0117      17070.307      3121.5555      5335.363       4896.1968      546.05797     -499.24482      11048.122     -7377.7437     -529.52144      75088.843      42.188278      42.188278      42.188278      1.1480691     -1825.3063      238.89035      57.937026    
    127500   127500         550.59411      940.61973      26863.597      25839.536      8882.8105      16956.725      3118.3227      5161.4246      4937.5239      522.72105     -464.36581      11067.1       -7386.0012     -532.62676      74651.06       42.10613       42.10613       42.10613       1.1548019      34.196933      1034.5061      1753.1562    
    128000   128000         547.66113     -73.334894      25863.144      25943.732      8835.4924      17108.24       3212.7119      5177.3808      4998.4522      557.92718     -508.84665      11051.615     -7381.0002     -527.68437      75350.255      42.237179      42.237179      42.237179      1.1440861      1101.8217     -118.81495     -1203.0114    
    128500   128500         555.00587      2165.298       28478.092      26103.222      8953.986       17149.236      3238.112       5180.5667      4983.0131      545.27367     -480.44829      11069.318     -7386.5988     -528.70404      75204.934      42.210009      42.210009      42.210009      1.1462969      3690.7715      983.43575      1821.6868    
    129000   129000         551.31978      320.31158      26276.832      25926.716      8894.5178      17032.198      3263.3093      5179.0706      4873.7867      514.60062     -495.68164      11074.341     -7377.2285     -530.51237      74948.586      42.161995      42.161995      42.161995      1.1502176      929.92498     -496.67194      527.6817     
    129500   129500         542.92705     -674.34364      25195.91       25938.918      8759.1168      17179.801      3203.1692      5178.1504      5021.883       542.68077     -464.40572      11075.21      -7376.8866     -526.28698      75550.325      42.274529      42.274529      42.274529      1.1410564      148.15692     -1321.8816     -849.30622    
    130000   130000         545.74445      647.12911      26726.11       26021.2        8804.5704      17216.629      3167.0987      5182.7186      5107.7338      571.93653     -504.41289      11070.769     -7379.2144     -532.34315      74690.831      42.113606      42.113606      42.113606      1.154187       2160.9488     -499.85234      280.29084    
    130500   130500         559.36729      2389.4184      28863.631      26232.478      9024.3495      17208.129      3221.6446      5271.1005      4942.0073      555.29596     -471.52793      11068.698     -7379.0898     -526.60007      75505.405      42.266149      42.266149      42.266149      1.1417353      2551.7851      1530.2119      3086.2583    
    131000   131000         544.87398     -27.36527       26037.911      26067.898      8790.5269      17277.371      3304.8545      5205.4141      4945.3228      552.45369     -414.4496       11061.973     -7378.1971     -529.17736      75137.667      42.19742       42.19742       42.19742       1.1473231     -589.69819      14.105144      493.49724    
    131500   131500         546.40368      1227.9334      27354.421      26005.605      8815.2057      17190.4        3338.4199      5124.3027      4914.2389      548.64502     -428.76236      11077.465     -7383.9095     -527.90652      75318.547      42.231254      42.231254      42.231254      1.1445678      2006.2743     -1655.9168      3333.4426    
    132000   132000         558.87377      285.68227      26370.85       26056.775      9016.3875      17040.387      3226.8974      5210.1481      4846.1689      517.892       -454.30469      11071.964     -7378.378      -527.45381      75383.192      42.243333      42.243333      42.243333      1.1435863      725.33895     -651.27569      782.98356    
    132500   132500         556.9816       1085.6762      27343.596      26154.959      8985.8608      17169.098      3198.8639      5212.746       5026.4758      573.55485     -521.81841      11065.97      -7386.6938     -529.64623      75071.15       42.184965      42.184965      42.184965      1.1483397      1404.0722      479.55637      1373.4001    
    133000   133000         561.02651     -474.32845      25642.993      26161.659      9051.1178      17110.541      3031.6611      5256.1485      5073.0496      560.63323     -496.8598       11067.425     -7381.5162     -530.30552      74977.821      42.167476      42.167476      42.167476      1.1497691     -821.38834      835.65188     -1437.2489    
    133500   133500         543.30382     -1025.4233      24529.901      25656.069      8765.1953      16890.873      3065.3395      5079.2726      5010.336       521.29398     -482.1782       11079.173     -7382.3641     -528.00121      75305.04       42.228729      42.228729      42.228729      1.1447731     -2329.8643     -702.69471     -43.710907    
    134000   134000         559.91553      1444.0834      27701.518      26133.804      9033.1943      17100.61       3126.0194      5191.6299      5014.2591      534.63027     -486.15355      11098.279     -7378.0545     -534.14655      74438.658      42.066158      42.066158      42.066158      1.158097       4783.7003     -714.67638      263.22633    
    134500   134500         554.02235     -588.96435      25488.902      26141.08       8938.1189      17202.961      3141.2557      5273.5943      5016.2294      523.92159     -447.71766      11078.921     -7383.2428     -523.67009      75927.865      42.34483       42.34483       42.34483       1.1353827     -1187.7638      105.43196     -684.56122    
    135000   135000         548.51467      726.13053      26695.183      25904.86       8849.2626      17055.598      3182.0985      5172.6107      4939.9266      542.02455     -469.4022       11068.734     -7380.3949     -532.77618      74630.123      42.102193      42.102193      42.102193      1.1551258      1496.7868     -660.34095      1341.9457    
    135500   135500         551.40803     -2500.1946      23079.013      25819.267      8895.9417      16923.325      3054.2912      5126.7649      5046.114       526.47236     -513.90039      11063.078     -7379.4954     -529.07577      75152.094      42.200121      42.200121      42.200121      1.1471029     -2454.8048     -2197.8021     -2847.977     
    136000   136000         540.20536      155.3774       25884.962      25714.661      8715.2074      16999.453      3111.1141      5205.1646      4914.9373      529.05924     -448.74236      11065.326     -7377.4057     -529.05959      75154.392      42.200551      42.200551      42.200551      1.1470678     -986.08077     -643.52992      2095.7429    
    136500   136500         544.05691      1441.6812      27595.916      26009.588      8777.345       17232.243      3214.1006      5217.0621      4974.4364      574.378       -438.08083      11067.363     -7377.0167     -527.00047      75448.038      42.255442      42.255442      42.255442      1.1426034      839.58562      1382.1498      2103.3081    
    137000   137000         541.757       -332.97654      25581.522      25950.21       8740.2402      17209.969      3166.9248      5177.5903      5098.2556      558.39049     -491.11827      11077.253     -7377.3269     -523.70904      75922.219      42.343781      42.343781      42.343781      1.1354671     -402.57381      377.48377     -973.83958    
    137500   137500         549.75636      2449.0173      28623.623      25930.309      8869.295       17061.013      3261.8242      5151.1912      4853.5072      549.33826     -452.82111      11078.425     -7380.4508     -527.27804      75408.321      42.248026      42.248026      42.248026      1.1432052      1282.2387      1381.3293      4683.484     
    138000   138000         547.59518     -802.77412      25094.357      25973.573      8834.4283      17139.145      3157.197       5241.3051      4985.4929      541.08917     -490.09945      11086.48      -7382.3197     -529.45917      75097.673      42.189932      42.189932      42.189932      1.1479341     -196.45743      320.67282     -2532.5377    
    138500   138500         550.44928     -444.16088      25549.552      26036.489      8880.474       17156.015      3221.2456      5213.3013      4993.436       555.32279     -531.27738      11080.039     -7376.0517     -528.93458      75172.155      42.203876      42.203876      42.203876      1.1467967     -70.984344     -1665.1414      403.64306    
    139000   139000         550.40871      396.48823      26435.405      26003.728      8879.8195      17123.908      3112.7533      5100.431       5069.8178      561.28724     -415.34288      11073.793     -7378.8318     -532.60552      74654.036      42.10669       42.10669       42.10669       1.1547558     -451.09303      1111.923       528.63476    
    139500   139500         550.87011      362.56317      26390.695      25989.268      8887.2632      17102.005      3066.4607      5218.3622      5021.9587      540.4365      -435.53905      11066.053     -7375.7269     -523.73615      75918.288      42.34305       42.34305       42.34305       1.1355259     -1133.5322      892.67253      1328.5492    
    140000   140000         543.46036      95.124904      26087.22       25983.163      8767.7208      17215.442      3145.3661      5156.2151      5141.4173      566.01917     -492.94228      11076.931     -7377.564      -530.09664      75007.365      42.173014      42.173014      42.173014      1.1493162     -253.00966      100.22471      438.15966    
    140500   140500         554.71384      62.596953      25976.929      25908.801      8949.2747      16959.526      3119.8943      5076.6433      5066.1155      541.95003     -528.38856      11063.761     -7380.4494     -532.79854      74626.992      42.101604      42.101604      42.101604      1.1551743      32.815039     -2218.2809      2373.2567    
    141000   141000         534.19877      322.74288      26156.509      25802.844      8618.3023      17184.542      3141.1603      5259.2994      5005.9455      543.09282     -467.86372      11084.842     -7381.935      -529.1751       75137.987      42.19748       42.19748       42.19748       1.1473182      978.99622     -407.26454      396.49697    
    141500   141500         550.172        1595.5081      27828.097      26073.915      8876.0005      17197.914      3242.8126      5097.6212      5012.8273      559.04753     -423.9619       11081.408     -7371.8405     -527.42327      75387.557      42.244148      42.244148      42.244148      1.1435201      1498.8274      1435.6525      1852.0442    
    142000   142000         544.1204      -1070.6734      24934.299      26120.887      8778.3693      17342.517      3223.5116      5293.5548      5074.1403      561.16231     -495.0797       11064.974     -7379.7456     -523.22922      75991.842      42.35672       42.35672       42.35672       1.1344268     -1068.2687     -1250.0317     -893.71985    
    142500   142500         547.30134     -1087.3769      24663.608      25850.634      8829.6879      17020.947      3128.9603      5084.6111      5131.2453      541.84739     -579.4905       11089.744     -7375.9712     -531.19567      74852.176      42.143909      42.143909      42.143909      1.1516991      706.94603     -1082.8319     -2886.2449    
    143000   143000         551.07087      1068.4457      27113.253      25945.094      8890.5022      17054.592      3146.2523      5149.1229      4969.4314      551.54777     -463.09262      11075.88      -7374.55       -530.37805      74967.566      42.165553      42.165553      42.165553      1.1499264      2287.3856      855.46321      62.48826     
    143500   143500         544.18418      1195.6914      27163.195      25861.037      8779.3983      17081.639      3130.7803      5096.4839      5034.8826      557.12208     -421.2426       11064.456     -7380.8427     -532.46404      74673.873      42.110419      42.110419      42.110419      1.1544491      1417.3337      84.883795      2084.8568    
    144000   144000         549.19214     -195.89704      25598.932      25815.569      8860.1924      16955.377      3079.6905      5233.3489      4854.9051      524.76841     -427.61273      11068.761     -7378.4842     -524.36031      75827.921      42.326243      42.326243      42.326243      1.1368792      1154.5188     -1539.5905     -202.61936    
    144500   144500         553.4669       137.83907      26143.223      25992.144      8929.1577      17062.987      3099.0241      5211.997       5047.0551      531.66117     -512.30356      11066.997     -7381.4439     -529.05934      75154.428      42.200558      42.200558      42.200558      1.1470672      420.43689     -2313.0824      2306.1627    
    145000   145000         547.78802      760.43764      26910.753      26077.227      8837.5395      17239.687      3159.6968      5310.6371      4974.3354      571.25897     -484.96334      11085.511     -7376.7885     -529.02873      75158.776      42.201372      42.201372      42.201372      1.1470009      1239.1768      810.55468      231.58149    
    145500   145500         537.34138      1160.4098      27334.611      26060.169      8669.0025      17391.167      3344.4585      5197.3995      5069.5425      554.12956     -469.32542      11072.281     -7377.3187     -527.99056      75306.559      42.229013      42.229013      42.229013      1.14475        1647.8176     -160.65709      1994.0689    
    146000   146000         545.56228      2675.3466      28880.229      25952.583      8801.6314      17150.952      3382.2916      5260.6504      4710.5382      545.09258     -443.53445      11076.416     -7380.5025     -529.90294      75034.782      42.178151      42.178151      42.178151      1.1488963      3586.0154      2392.5621      2047.4623    
    146500   146500         540.77224      389.12106      26248.615      25823.469      8724.3529      17099.116      3270.1942      5283.9333      4883.9369      546.15897     -566.87328      11060.306     -7378.5397     -530.73919      74916.556      42.155988      42.155988      42.155988      1.1507094      1699.2935     -1495.3048      963.37443    
    147000   147000         545.14105     -95.122947      25771.733      25875.684      8794.8356      17080.848      3160.8515      5146.0308      5031.2122      543.47497     -528.15265      11103.172     -7375.7407     -530.63275      74931.584      42.158806      42.158806      42.158806      1.1504786      123.33768     -1533.8833      1125.1768    
    147500   147500         544.12442     -1263.9273      24479.002      25856.782      8778.4341      17078.348      3130.9379      5100.5732      5100.8146      547.44103     -505.64815      11080.568     -7376.3382     -531.95765      74744.957      42.123776      42.123776      42.123776      1.1533512      265.3861      -1860.9409     -2196.2272    
    148000   148000         555.70117     -891.59762      25103.83       26085.524      8965.2034      17120.32       3116.6189      5169.6547      5064.8513      558.99493     -508.1367       11096.36      -7378.0227     -526.65709      75497.231      42.264624      42.264624      42.264624      1.1418589     -1099.1106     -1429.3942     -146.28804    
    148500   148500         555.84044      109.81014      26201.93       26082.297      8967.4504      17114.847      3178.585       5190.5778      4974.5229      547.40617     -467.67647      11076.984     -7385.5525     -532.26343      74702.017      42.115708      42.115708      42.115708      1.1540141      806.38006     -1423.6494      946.69979    
    149000   149000         548.50404      124.75411      26210.043      26073.165      8849.0912      17224.074      3264.2387      5202.4238      5031.8874      569.82412     -553.84487      11089.175     -7379.6295     -528.51479      75231.863      42.215046      42.215046      42.215046      1.1458866     -721.29469      1392.0424     -296.48534    
    149500   149500         552.05256     -1631.1834      24203.253      25983.564      8906.3399      17077.224      3163.5785      5148.1012      5083.9309      553.03166     -560.0692       11069.893     -7381.2425     -531.30249      74837.127      42.141084      42.141084      42.141084      1.1519307     -301.04718     -3531.6855     -1060.8174    
    150000   150000         550.18001     -3198.0326      22560.216      26094.732      8876.1298      17218.602      3113.463       5241.937       5125.2891      567.50063     -511.11536      11059.199     -7377.6711     -524.67198      75782.876      42.31786       42.31786       42.31786       1.1375549     -2625.2961     -3238.589      -3730.2126    
    150500   150500         549.32958      349.31473      26243.119      25860.618      8862.4098      16998.208      3131.4668      5066.1609      5046.8654      545.6049      -488.18542      11077.435     -7381.1398     -529.56476      75082.7        42.187128      42.187128      42.187128      1.1481631     -79.070598      409.35934      717.65545    
    151000   151000         541.54202     -838.92498      24808.998      25726.408      8736.772       16989.636      3062.614       5174.3575      5000.4045      537.57806     -485.12832      11080.589     -7380.7785     -530.26703      74983.263      42.168496      42.168496      42.168496      1.1496857     -1538.7581      544.34711     -1522.3639    
    151500   151500         547.12919     -443.25903      25429.733      25913.549      8826.9105      17086.638      3023.713       5235.9629      5057.238       557.95561     -468.70345      11064.54      -7384.0676     -531.26687      74842.145      42.142026      42.142026      42.142026      1.1518535      2845.2746     -2121.4732     -2053.5785    
    152000   152000         551.83105     -1929.9754      23943.597      26050.616      8902.7663      17147.85       3074.1306      5130.0146      5163.0525      549.52645     -448.32382      11058.648     -7379.1984     -531.15121      74858.441      42.145084      42.145084      42.145084      1.1516027     -840.15973     -1840.8485     -3108.9179    
    152500   152500         548.59778     -412.16092      25666.675      26123.34       8850.6035      17272.736      3360.4247      5075.5017      5027.3588      546.80708     -437.08753      11080.283     -7380.5517     -523.36495      75972.134      42.353058      42.353058      42.353058      1.1347211      491.70478     -1702.4301     -25.757481    
    153000   153000         544.08516      758.54276      26782.956      25950.704      8777.8007      17172.903      3212.2067      5246.89        4891.474       556.42238     -421.62814      11066.634     -7379.0953     -528.5187       75231.306      42.214942      42.214942      42.214942      1.1458951      1625.411       441.63292      208.58436    
    153500   153500         550.31655     -211.46937      25671.733      25904.133      8878.3326      17025.8        3150.8072      5138.6083      4982.7521      555.91506     -476.03866      11056.645     -7382.8885     -527.65095      75355.028      42.238071      42.238071      42.238071      1.1440137     -486.56975     -1282.6339      1134.7955    
    154000   154000         548.72051     -765.7002       25153.455      25996.308      8852.5835      17143.725      3199.0839      5143.8454      5069.5325      552.6104      -496.31848      11053.885     -7378.9145     -526.79529      75477.426      42.260928      42.260928      42.260928      1.1421585      182.26302      694.24006     -3173.6037    
    154500   154500         539.03672     -1163.6624      24749.273      26033.845      8696.3535      17337.491      3248.4003      5313.3192      5059.8877      566.64902     -533.51838      11064.183     -7381.4297     -525.29506      75692.986      42.301121      42.301121      42.301121      1.1389058     -1625.6592     -1004.9988     -860.32926    
    155000   155000         556.62932     -207.64135      25829.799      26059.553      8980.1774      17079.376      3205.6008      5141.088       4976.0742      547.74691     -480.02826      11069.473     -7380.5784     -524.06499      75870.652      42.334192      42.334192      42.334192      1.1362389      956.07326     -594.22427     -984.77303    
    155500   155500         549.43841     -342.56663      25729.831      26104.183      8864.1654      17240.017      3241.544       5163.9581      5072.0549      569.02642     -495.27791      11069.374     -7380.6625     -530.63956      74930.621      42.158626      42.158626      42.158626      1.1504934     -12.451768     -1867.0764      851.82826    
    156000   156000         553.64615     -1154.7991      24829.698      26093.438      8932.0496      17161.389      3172.3787      5145.6034      5188.6906      547.53891     -566.09453      11053.794     -7380.5224     -529.88717      75037.015      42.17857       42.17857       42.17857       1.1488621     -930.0054      -168.15677     -2366.2352    
    156500   156500         550.17687     -1145.6189      24738.953      25994.743      8876.0792      17118.664      3188.5141      5211.3241      5064.2354      517.6406      -551.78695      11070.127     -7381.3898     -529.00274      75162.469      42.202063      42.202063      42.202063      1.1469445     -642.93422      164.71905     -2958.6416    
    157000   157000         538.64189     -1728.1367      23866.428      25763.202      8689.9838      17073.219      3079.6984      5138.3062      5103.9584      578.654       -533.53446      11082.768     -7376.6316     -528.32032      75259.555      42.220226      42.220226      42.220226      1.145465      -1653.087      -1595.6791     -1935.6439    
    157500   157500         552.25173     -1376.6788      24578.496      26095.263      8909.5532      17185.71       3191.4358      5139.7065      5147.5224      532.71493     -513.92281      11068.66      -7380.4065     -526.31822      75545.84       42.273693      42.273693      42.273693      1.1411242     -839.68178     -2431.5426     -858.81183    
    158000   158000         556.94099      18.730718      26166.665      26146.268      8985.2057      17161.062      3084.7785      5140.4716      5168.6219      562.55229     -504.83997      11089.763     -7380.285      -532.50499      74668.131      42.109339      42.109339      42.109339      1.1545378     -470.38181      604.39719     -77.823222    
    158500   158500         556.16018     -650.46714      25549.801      26268.15       8972.6087      17295.541      3123.4868      5299.8418      5068.7838      545.57927     -453.29995      11087.663     -7376.5139     -525.07927      75724.095      42.306916      42.306916      42.306916      1.1384379      962.30725     -1603.8498     -1309.8589    
    159000   159000         549.72445     -955.6111       24972.661      26017.222      8868.7802      17148.442      3112.8878      5234.3242      5052.5176      557.53997     -516.75756      11087.509     -7379.5792     -530.49612      74950.882      42.162425      42.162425      42.162425      1.1501824     -909.17073     -2283.4807      325.81813    
    159500   159500         556.07697     -1842.3563      24029.563      26046.012      8971.2663      17074.745      3158.1283      5125.2684      5154.0087      516.16226     -603.90028      11101.072     -7375.9947     -529.81153      75047.728      42.180577      42.180577      42.180577      1.1486981     -841.53022     -4157.0116     -528.52713    
    160000   160000         549.79738      78.889772      26241.98       26154.997      8869.9568      17285.041      3214.8007      5161.5369      5065.4144      550.1276      -415.28782      11085.88      -7377.4313     -525.92172      75602.795      42.284314      42.284314      42.284314      1.1402645     -786.27304     -156.87285      1179.8152    
    160500   160500         545.07843     -659.60569      25225.221      25948.714      8793.8254      17154.889      3139.4711      5189.3557      5060.0672      549.39023     -469.90269      11065.229     -7378.7221     -528.67048      75209.707      42.210902      42.210902      42.210902      1.1462242     -1676.9038      823.67964     -1125.5929    
    161000   161000         555.78648      399.12945      26417.437      25981.024      8966.5798      17014.444      3186.1414      5020.7703      5039.56        553.29711     -512.84413      11095.149     -7367.6296     -530.3352       74973.625      42.166689      42.166689      42.166689      1.1498335      194.91868      676.98981      325.47987    
    161500   161500         552.92617     -630.19163      25462.342      26151.579      8920.434       17231.145      3058.6624      5384.3981      5121.3602      545.06085     -583.488        11082.841     -7377.6889     -530.19854      74992.949      42.170312      42.170312      42.170312      1.1495372     -1457.8181     -1683.7109      1250.9541    
    162000   162000         544.55855      1791.944       27992.024      26043.137      8785.438       17257.699      3232.587       5309.334       4979.5649      534.73677     -492.40779      11068.189     -7374.3053     -533.17852      74573.807      42.0916        42.0916        42.0916        1.1559982      1551.9906      1870.1571      1953.6845    
    162500   162500         551.27636      565.40223      26470.81       25848.629      8893.8173      16954.812      3075.8402      5214.6065      4927.8422      527.0132      -508.24825      11092.841     -7375.0832     -526.9574       75454.206      42.256594      42.256594      42.256594      1.14251        581.37117      609.64978      505.18574    
    163000   163000         549.6805       1404.3892      27408.826      25878.463      8868.0711      17010.391      3128.4712      5123.7147      5020.5145      553.27        -519.33164      11084.848     -7381.0951     -532.14233      74719.017      42.118903      42.118903      42.118903      1.1537516      2105.0362     -217.7006       2325.8319    
    163500   163500         554.05556      302.59261      26475.846      26143.224      8938.6547      17204.569      3167.4547      5171.1349      5106.1575      535.44879     -497.3941       11092.558     -7370.79       -527.52376      75373.196      42.241465      42.241465      42.241465      1.1437379      341.69701     -621.76         1187.8408    
    164000   164000         553.66725     -1767.3024      24176.158      26115.116      8932.3899      17182.726      3133.2743      5186.4331      5166.3837      545.30648     -536.71797      11065.961     -7377.9144     -528.53951      75228.344      42.214388      42.214388      42.214388      1.1459402     -715.44555     -953.42901     -3633.0326    
    164500   164500         549.39188     -1996.831       23786.229      25984.729      8863.4148      17121.314      3139.9956      5188.5844      5103.4332      536.02914     -570.12179      11098.161     -7374.7672     -526.68347      75493.449      42.263918      42.263918      42.263918      1.1419161     -1219.9991     -2421.2315     -2349.2625    
    165000   165000         551.44447      199.69534      26196.585      25978.835      8896.5295      17082.306      3198.7848      5095.9733      5082.3952      552.24625     -536.98683      11064.424     -7374.5311     -531.79458      74767.877      42.128082      42.128082      42.128082      1.1529976      1776.8439      364.93992     -1542.6978    
    165500   165500         554.16899     -842.98779      25162.958      26095.969      8940.4846      17155.485      3245.8919      5020.9742      5106.3498      543.27633     -462.51712      11083.445     -7381.935      -523.9251       75890.908      42.337959      42.337959      42.337959      1.1359356      1087.329      -2364.6833     -1251.6091    
    166000   166000         553.2969      -300.19271      25743.208      26071.283      8926.415       17144.868      3214.1472      5105.5437      5031.1468      551.91873     -448.30655      11068.376     -7377.9575     -530.59375      74937.09       42.159839      42.159839      42.159839      1.1503941     -1611.35       -458.54847      1169.3203    
    166500   166500         550.49833     -566.85584      25423.47       26042.678      8881.2653      17161.413      3058.7922      5262.9116      5124.5243      534.83386     -523.86326      11086.591     -7382.3765     -530.84862      74901.112      42.153091      42.153091      42.153091      1.1509466     -1072.781      -2240.6275      1612.8409    
    167000   167000         555.28169      247.33389      26415.319      26144.713      8958.4358      17186.278      3140.1327      5124.9125      5144.8965      557.16745     -508.9968       11107.036     -7378.8706     -530.00804      75019.903      42.175363      42.175363      42.175363      1.1491242      1076.7655      274.62985     -609.39369    
    167500   167500         546.7281      -459.1993       25581.986      26084.479      8820.4396      17264.04       3225.0116      5141.1515      5129.0752      567.57931     -508.4528       11086.613     -7376.9382     -529.91425      75033.182      42.177852      42.177852      42.177852      1.1489208     -392.00682     -1260.073       274.48189    
    168000   168000         558.10362      1281.5815      27458.228      26059.89       9003.9624      17055.928      3111.8688      5166.7822      4976.8208      554.72422     -460.22269      11081.195     -7375.2406     -531.458        74815.229      42.136973      42.136973      42.136973      1.1522679      677.77478      1093.4097      2073.5601    
    168500   168500         544.17888      889.5401       27012.942      26030.502      8779.3127      17251.19       3207.3873      5150.2447      5015.9702      546.70597     -376.83831      11083.931     -7376.211      -525.04285      75729.347      42.307894      42.307894      42.307894      1.138359       118.05961      1046.4568      1504.1039    
    169000   169000         547.91885     -49.608038      25931.37       25985.937      8839.6502      17146.287      3151.3073      5141.9052      5049.4939      537.53017     -421.21463      11066.679     -7379.4139     -527.17635      75422.868      42.250743      42.250743      42.250743      1.1429847      1135.2095      1388.9397     -2672.9733    
    169500   169500         549.78122     -1108.1268      24767.148      25982.652      8869.6961      17112.956      3132.2346      5218.1354      4983.6968      523.91196     -446.73523      11081.132     -7379.4196     -528.64931      75212.719      42.211465      42.211465      42.211465      1.1461783     -686.38989     -2342.564      -295.42645    
    170000   170000         556.40479     -447.06886      25758.423      26251.881      8976.555       17275.326      3161.6461      5232.4878      5114.5949      555.19428     -505.26238      11092.776     -7376.1108     -525.36238      75683.287      42.299314      42.299314      42.299314      1.1390518     -574.82388     -653.81067     -112.57202    
    170500   170500         547.83504      2267.8522      28445.198      25936.066      8838.2981      17097.768      3184.1772      5217.2052      4840.265       534.73132     -387.59373      11089.211     -7380.228      -524.11434      75863.507      42.332863      42.332863      42.332863      1.1363459      4445.8591      2163.9056      193.79179    
    171000   171000         540.77925      224.20956      26084.944      25838.356      8724.4661      17113.89       3208.2351      5172.2761      5026.3162      544.22007     -540.94279      11078.902     -7375.1172     -527.25039      75412.276      42.248765      42.248765      42.248765      1.1431452     -1560.4692      1790.9235      442.17439    
    171500   171500         550.41516      1140.3199      27294.033      26037.823      8879.9236      17157.9        3176.4956      5145.5231      5032.3543      563.58406     -479.81201      11087.841     -7368.0862     -526.38019      75536.947      42.272034      42.272034      42.272034      1.1412585      432.90613      655.37314      2332.6804    
    172000   172000         552.30759     -45.980188      25902.556      25953.387      8910.4543      17042.933      3106.6274      5237.7649      4928.7276      533.75473     -472.17111      11087.625     -7379.3959     -524.53422      75802.78       42.321564      42.321564      42.321564      1.1372562      508.329       -1269.1766      622.90704    
    172500   172500         545.79168      832.42266      26917.454      25999.863      8805.3323      17194.53       3152.8862      5240.0324      5086.1482      528.31086     -498.82845      11062.979     -7376.9978     -526.05324      75583.894      42.280789      42.280789      42.280789      1.1405496     -437.24518     -453.55516      3388.0683    
    173000   173000         544.81727      1957.3376      28339.154      26163.145      8789.6121      17373.533      3223.551       5255.2912      5018.8664      526.74944     -352.18432      11075.415     -7374.1565     -521.60274      76228.802      42.400701      42.400701      42.400701      1.1309004      2074.6069      1136.2678      2661.138     
    173500   173500         558.72119     -260.74708      26045.67       26335.313      9013.9258      17321.387      3113.0572      5184.9011      5198.9098      566.66522     -431.01899      11067.96      -7379.0867     -522.02418      76167.261      42.389287      42.389287      42.389287      1.1318141     -1119.843       653.56951     -315.96774    
    174000   174000         552.3416      -274.44217      25810.269      26111.679      8911.003       17200.676      3134.4469      5171.3973      5133.6426      548.48269     -489.60512      11077.806     -7375.4943     -527.99182      75306.378      42.22898       42.22898       42.22898       1.1447527      296.81903     -353.30521     -766.84031    
    174500   174500         541.1782      -132.66286      25798.038      25943.935      8730.9023      17213.033      3228.7601      5146.917       5045.5268      578.11626     -483.32885      11076.596     -7379.5551     -527.27417      75408.875      42.24813       42.24813       42.24813       1.1431968     -1489.8162      1329.3667     -237.53909    
    175000   175000         556.41196      2202.3643      28579.064      26168.193      8976.6707      17191.523      3155.3025      5209.1598      5017.4191      551.60975     -449.0248       11081.278     -7374.2219     -529.72461      75060.043      42.182884      42.182884      42.182884      1.1485096      3347.1012      1364.2301      1895.7614    
    175500   175500         545.07333      494.95308      26648.522      26103.351      8793.743       17309.608      3238.7949      5314.8431      5011.0489      537.30248     -512.8598       11088.656     -7368.1771     -526.4613       75525.308      42.269862      42.269862      42.269862      1.1414344     -253.44937      1094.7577      643.55091    
    176000   176000         538.19341      1672.2595      27692.993      25858.38       8682.7484      17175.632      3219.6027      5308.2437      4849.6545      548.50924     -443.53082      11069.138     -7375.9852     -528.55973      75225.465      42.21385       42.21385       42.21385       1.145984       804.86652      1809.7119      2402.2001    
    176500   176500         552.76682     -506.10767      25407.031      25962.755      8917.8631      17044.892      3123.5536      5163.4322      5055.2425      545.34716     -518.86893      11056.755     -7380.5697     -528.10294      75290.533      42.226018      42.226018      42.226018      1.1449937      337.0009       244.36016     -2099.6841    
    177000   177000         560.70905     -2284.9856      23816.882      26347.894      9045.9963      17301.898      3157.0049      5205.2575      5157.4948      546.71957     -467.01046      11080.442     -7378.0102     -523.50889      75951.246      42.349176      42.349176      42.349176      1.1350332     -243.58988     -3268.0627     -3343.3041    
    177500   177500         556.2336      -202.73469      25951.203      26175.12       8973.7932      17201.327      3066.4148      5231.7548      5054.5973      561.48325     -424.27604      11083.064     -7371.7113     -525.01917      75732.762      42.30853       42.30853       42.30853       1.1383077      1163.5079     -649.63052     -1122.0815    
    178000   178000         545.63539     -674.44176      25376.7        26122.469      8802.8109      17319.658      3148.6336      5256.814       5155.5624      542.62043     -485.42708      11074.861     -7373.4065     -524.41477      75820.046      42.324777      42.324777      42.324777      1.1369972      61.558636     -1129.3187     -955.56522    
    178500   178500         551.36336      2104.7865      28352.727      26028.924      8895.2209      17133.703      3197.821       5201.1216      4939.9126      542.92754     -436.7613       11067.049     -7378.3673     -525.2228       75703.401      42.303061      42.303061      42.303061      1.1387491      2327.8977      2344.8047      1641.6572    
    179000   179000         558.6453       1937.6435      28459.202      26309.868      9012.7014      17297.167      3229.146       5147.8782      5054.6259      541.68374     -370.69078      11074.849     -7380.325      -522.76299      76059.615      42.369308      42.369308      42.369308      1.133416       3601.4254      414.68916      1796.8159    
    179500   179500         553.44378      781.82672      27061.969      26194.89       8928.7847      17266.105      3191.5549      5117.5547      5027.9147      555.86681     -327.88885      11077.759     -7376.656      -522.86117      76045.333      42.366656      42.366656      42.366656      1.1336288     -453.18722     -145.30938      2943.9767    
    180000   180000         546.65795     -661.74301      25273.576      26002.657      8819.3079      17183.349      3196.1521      5104.972       5135.0743      545.37443     -517.53963      11093.652     -7374.336      -526.318        75545.872      42.273699      42.273699      42.273699      1.1411237      413.31069     -1368.3292     -1030.2105    
    180500   180500         545.55811     -1151.3731      24640.908      25905.715      8801.564       17104.151      3070.0895      5139.8533      5117.7848      555.00399     -470.55246      11073.332     -7381.3595     -527.86949      75323.83       42.232241      42.232241      42.232241      1.1444875     -2387.0123     -2165.7484      1098.6416    
    181000   181000         543.49479     -1462.1612      24251.834      25874.843      8768.2762      17106.566      3153.7199      5062.4888      5089.0352      537.11853     -439.78405      11081.626     -7377.6378     -522.40748      76111.376      42.378917      42.378917      42.378917      1.1326452     -2250.9567      388.34765     -2523.8747    
    181500   181500         546.61369      194.49408      26238.479      26026.029      8818.5938      17207.435      3237.1706      5116.5135      5040.164       545.30151     -449.94794      11093.312     -7375.0784     -530.86418      74898.916      42.152679      42.152679      42.152679      1.1509804      1088.3714      401.52552     -906.4147     
    182000   182000         550.47164      215.81649      26350.968      26113.003      8880.8347      17232.168      3282.8274      5198.9864      4923.8081      542.68607     -415.28754      11075.501     -7376.3536     -525.90316      75605.463      42.284811      42.284811      42.284811      1.1402243     -133.93575      1341.9682     -560.58293    
    182500   182500         547.905       -639.31003      25418.861      26123.67       8839.4267      17284.243      3197.7276      5297.6765      5008.5475      548.41561     -479.33679      11085.32      -7374.1069     -525.98722      75593.381      42.282558      42.282558      42.282558      1.1404065      327.57935     -588.87915     -1656.6303    
    183000   183000         554.51502     -354.54946      25727.879      26113.969      8946.0672      17167.901      3182.2962      5160.3202      5057.5749      564.97742     -503.06371      11077.682     -7371.8857     -532.50494      74668.138      42.109341      42.109341      42.109341      1.1545377      1469.1579      553.26919     -3086.0754    
    183500   183500         560.35465      109.54063      26410.578      26289.726      9040.2787      17249.447      3235.4969      5230.0615      5022.5291      545.85137     -504.79092      11099.178     -7378.8786     -525.60204      75648.778      42.292885      42.292885      42.292885      1.1395714     -873.84314      643.10929      559.35574    
    184000   184000         544.43886      692.98411      26727.956      25966.099      8783.507       17182.592      3200.1971      5205.6639      5015.1722      538.0165      -482.45694      11081.112     -7375.1132     -527.45359      75383.224      42.243339      42.243339      42.243339      1.1435858      2590.7624     -548.72154      36.911469    
    184500   184500         549.07918      98.256864      26104.977      25997.32       8858.3699      17138.95       3203.2047      5182.7951      5057.0482      519.7578      -536.48717      11088.93      -7376.2988     -529.24429      75128.164      42.195641      42.195641      42.195641      1.1474682     -209.62395      1231.1959     -726.80138    
    185000   185000         550.01932      893.68177      27067.914      26087.357      8873.5374      17213.82       3312.3918      5212.841       4889.4043      546.57161     -427.42486      11059.439     -7379.4028     -528.50014      75233.947      42.215436      42.215436      42.215436      1.1458548     -782.88771      2488.0987      975.83437    
    185500   185500         555.12165      443.88299      26770.029      26279.326      8955.8539      17323.472      3292.9273      5282.6499      4980.71        550.01295     -488.19161      11083.475     -7378.1114     -524.54808      75800.777      42.321192      42.321192      42.321192      1.1372863      1049.3947     -688.55485      970.80915    
    186000   186000         544.59587      788.26612      26938.478      26074.062      8786.04        17288.021      3251.7089      5122.1151      5048.1942      558.41114     -389.79354      11082.771     -7385.3851     -528.79205      75192.417      42.207667      42.207667      42.207667      1.1464877      1206.3761      392.69734      765.72486    
    186500   186500         552.03335     -1876.3561      24157.942      26213.724      8906.03        17307.694      3210.5526      5165.7202      5184.7791      582.6844      -548.93546      11086.704     -7373.8111     -529.26486      75125.244      42.195095      42.195095      42.195095      1.1475128     -953.40525     -1248.7952     -3426.8678    
    187000   187000         551.3502      -1343.9391      24640.713      26113.281      8895.0087      17218.273      3154.5506      5185.7806      5170.6063      550.64287     -537.58782      11068.063     -7373.7832     -529.22314      75131.166      42.196203      42.196203      42.196203      1.1474224     -2398.6995      289.84989     -1922.9676    
    187500   187500         547.10112      592.86869      26657.403      26004.7        8826.4576      17178.242      3281.7278      5161.2638      5033.3027      562.31915     -551.23978      11068.243     -7377.3742     -526.7179       75488.515      42.262997      42.262997      42.262997      1.1419907     -96.562918      18.375902      1856.7931    
    188000   188000         544.94892      1470.4934      27470.866      25867.057      8791.7359      17075.321      3124.2591      5218.9119      4971.5915      550.30897     -490.18927      11081.964     -7381.525      -531.6736       74784.89       42.131277      42.131277      42.131277      1.1527353      1825.2845      1330.5206      1255.6751    
    188500   188500         543.90404      17.58128       25851.265      25831.886      8774.8787      17057.007      3155.6718      5180.5496      4943.8518      533.85853     -446.83296      11066.059     -7376.1507     -526.08407      75579.464      42.279963      42.279963      42.279963      1.1406165      843.45406     -591.48824     -199.22198    
    189000   189000         548.70174     -565.65889      25305.092      25931.352      8852.2806      17079.071      3118.7703      5145.0268      5013.3101      543.56896     -440.83179      11073.249     -7374.0219     -523.76299      75914.397      42.342326      42.342326      42.342326      1.1355841     -1334.8787     -208.71133     -153.38663    
    189500   189500         555.81305      1199.1285      27272.325      25964.429      8967.0084      16997.421      3139.5237      5089.6622      5039.2821      545.30902     -524.10228      11087.425     -7379.6795     -531.65204      74787.923      42.131846      42.131846      42.131846      1.1526885      1224.6276      2042.2678      330.49011    
    190000   190000         542.69837      191.99251      26091.856      25881.992      8755.4275      17126.565      3140.3408      5235.6848      5027.3583      557.51958     -515.59416      11058.305     -7377.0495     -530.49684      74950.78       42.162406      42.162406      42.162406      1.1501839      355.12533     -886.84974      1107.7019    
    190500   190500         550.43035     -460.94961      25615.197      26123.608      8880.1685      17243.439      3278.1927      5223.5953      5044.9426      532.10473     -538.41589      11079.494     -7376.4741     -525.74358      75628.412      42.289089      42.289089      42.289089      1.1398783     -1163.4736     -565.30014      345.92493    
    191000   191000         547.59386     -165.22822      25918.339      26099.635      8834.407       17265.228      3190.1052      5250.4138      5049.6232      561.76373     -498.57265      11084.549     -7372.6544     -528.48184      75236.554      42.215924      42.215924      42.215924      1.1458152      1154.6981     -955.26871     -695.114      
    191500   191500         545.12902      449.66581      26425.25       25931.333      8794.6414      17136.692      3287.1033      5118.758       4994.8217      547.45647     -511.46541      11074.75      -7374.7318     -527.92362      75316.108      42.230798      42.230798      42.230798      1.1446049      1259.886      -236.95092      326.06237    
    192000   192000         545.05414      454.6812       26520.819      26020.439      8793.4334      17227.006      3157.0127      5346.0473      5003.1077      526.3628      -506.23484      11077.262     -7376.5518     -526.91672      75460.032      42.257681      42.257681      42.257681      1.1424218     -808.22406      1694.9721      477.29553    
    192500   192500         557.60059      905.47932      27142.186      26146.006      8995.847       17150.159      3196.0207      5174.6561      5020.7671      539.67544     -485.15276      11080.26      -7376.0675     -527.07885      75436.82       42.253348      42.253348      42.253348      1.1427733      43.47903      -83.147698      2756.1066    
    193000   193000         548.55086     -515.48475      25569.83       26141.937      8849.8464      17292.091      3181.1722      5235.4731      5030.8219      540.11857     -413.95803      11092.538     -7374.0748     -522.48435      76100.178      42.376839      42.376839      42.376839      1.1328118     -584.03047      275.5604      -1237.9842    
    193500   193500         546.65817      234.58654      26132.142      25874.862      8819.3114      17055.551      3180.707       5112.7646      4988.6354      542.16998     -482.967        11092.031     -7377.7906     -528.72739      75201.612      42.209388      42.209388      42.209388      1.1463475     -1050.0096      2348.3357     -594.56651    
    194000   194000         552.997       -620.01093      25324.243      26007.371      8921.5767      17085.794      3120.7822      5181.3286      5047.0076      535.03452     -493.10599      11076.608     -7381.8606     -526.29903      75548.595      42.274206      42.274206      42.274206      1.1410825      254.76104     -611.91707     -1502.8768    
    194500   194500         551.33107     -2295.0405      23620.979      26154.173      8894.6999      17259.473      3147.8277      5218.6674      5122.0058      541.49732     -499.34832      11103.531     -7374.708      -525.35961      75683.687      42.299389      42.299389      42.299389      1.1390458     -3980.9032     -413.84709     -2490.3711    
    195000   195000         547.30099     -779.6387       25102.38       25956.873      8829.6821      17127.191      3096.2164      5214.0395      5086.1226      569.44188     -544.30241      11084.292     -7378.6187     -529.07804      75151.771      42.200061      42.200061      42.200061      1.1471078      1429.1888     -1970.2378     -1797.867     
    195500   195500         540.18879     -924.36436      24913.26       25931.154      8714.94        17216.214      3253.7474      5150.2401      5086.7666      545.17169     -523.40527      11078.789     -7375.0951     -526.59307      75506.41       42.266337      42.266337      42.266337      1.1417201     -1881.9065     -994.81209      103.62555    
    196000   196000         549.08946     -921.93867      24991.143      26005.886      8858.5358      17147.35       3164.7627      5149.7726      5126.7758      540.30026     -555.98933      11095.952     -7374.2238     -526.84266      75470.638      42.259661      42.259661      42.259661      1.1422612     -719.35666     -1252.0589     -794.40047    
    196500   196500         548.29294     -505.70353      25563.169      26120.859      8845.6855      17275.174      3207.4936      5175.4443      5090.0559      555.61139     -443.00634      11071.701     -7382.1255     -525.82074      75617.314      42.28702       42.28702       42.28702       1.1400456     -762.45017     -2262.0238      1507.3634    
    197000   197000         546.65323      236.0788       26099.379      25839.246      8819.2318      17020.014      3103.1243      5157.5027      4968.927       549.82117     -444.93481      11065.336     -7379.7619     -526.256        75554.771      42.275358      42.275358      42.275358      1.1409893      1552.6568     -644.53284     -199.88755    
    197500   197500         546.41377      1626.0638      27718.65       25936.343      8815.3685      17120.975      3178.6255      5200.0804      4949.0532      562.31602     -492.51812      11098.802     -7375.3839     -529.04199      75156.892      42.201019      42.201019      42.201019      1.1470296      1708.1595      97.144764      3072.8872    
    198000   198000         552.35868      2807.1193      29230.335      26128.273      8911.2786      17216.995      3260.2316      5167.6357      4942.6154      570.54491     -443.12071      11096.905     -7377.8173     -524.7413       75772.866      42.315996      42.315996      42.315996      1.1377052      1053.1166      3096.2091      4272.0321    
    198500   198500         550.5655       443.56681      26614.7        26128.948      8882.349       17246.599      3248.3581      5252.7501      4974.4767      533.2342      -470.77014      11084.339     -7375.7886     -529.51687      75089.491      42.1884        42.1884        42.1884        1.1480592      650.49075     -363.76191      1043.9716    
    199000   199000         550.97281     -1301.0632      24587.971      26011.635      8888.9201      17122.715      3278.1485      4996.0817      5110.7326      540.90264     -496.73299      11073.121     -7379.5391     -529.93875      75029.713      42.177202      42.177202      42.177202      1.1489739     -1548.5064     -491.56334     -1863.12      
    199500   199500         541.57019     -258.23897      25660.952      25943.793      8737.2264      17206.567      3286.7825      5095.9352      5018.1371      562.11326     -449.86196      11072.312     -7378.8512     -529.43803      75100.672      42.190494      42.190494      42.190494      1.1478883     -1092.1334      879.20152     -561.78503    
    200000   200000         550.43619     -813.02945      24992.255      25885.843      8880.2629      17005.581      3251.4048      5081.1867      4950.6852      513.26547     -508.11306      11094.205     -7377.0539     -527.59851      75362.518      42.239471      42.239471      42.239471      1.1439        -2060.6756      677.31472     -1055.7275    
Loop time of 458.875 on 1 procs for 200000 steps with 6140 atoms

Performance: 37.657 ns/day, 0.637 hours/ns, 435.849 timesteps/s, 2.676 Matom-step/s
100.0% CPU use with 1 MPI tasks x 1 OpenMP threads

MPI task timing breakdown:
Section |  min time  |  avg time  |  max time  |%varavg| %total
---------------------------------------------------------------
Pair    | 40.366     | 40.366     | 40.366     |   0.0 |  8.80
Bond    | 52.64      | 52.64      | 52.64      |   0.0 | 11.47
Kspace  | 189.89     | 189.89     | 189.89     |   0.0 | 41.38
Neigh   | 48.384     | 48.384     | 48.384     |   0.0 | 10.54
Comm    | 8.5907     | 8.5907     | 8.5907     |   0.0 |  1.87
Output  | 0.0402     | 0.0402     | 0.0402     |   0.0 |  0.01
Modify  | 110.71     | 110.71     | 110.71     |   0.0 | 24.13
Other   |            | 8.253      |            |       |  1.80

Nlocal:           6140 ave        6140 max        6140 min
Histogram: 1 0 0 0 0 0 0 0 0 0
Nghost:          16488 ave       16488 max       16488 min
Histogram: 1 0 0 0 0 0 0 0 0 0
Neighs:              0 ave           0 max           0 min
Histogram: 1 0 0 0 0 0 0 0 0 0
FullNghs:  3.18152e+06 ave 3.18152e+06 max 3.18152e+06 min
Histogram: 1 0 0 0 0 0 0 0 0 0

Total # of neighbors = 3181522
Ave neighs/atom = 518.16319
Ave special neighs/atom = 5.6319218
Neighbor list builds = 11439
Dangerous builds = 0
WARNING: No fixes with time integration, atoms won't move
For more information see https://docs.lammps.org/err0028 (src/verlet.cpp:60)
PPPM Kokkos initialization ...
  using 12-bit tables for long-range coulomb
  G vector (1/distance) = 0.30586887
  grid = 32 32 32
  stencil order = 5
  estimated absolute RMS force accuracy = 0.00039937138
  estimated relative force accuracy = 1.202695e-06
  using double precision cuFFT
  3d grid and FFT values/proc = 59319 32768
Generated 21 of 21 mixed pair_coeff terms from sixthpower/sixthpower mixing rule
Setting up Verlet run ...
  Unit style    : real
  Current step  : 200000
  Time step     : 1
Per MPI rank memory allocation (min/avg/max) = 28.61 | 28.61 | 28.61 Mbytes
   Step          Time           Temp          Press         Enthalpy        TotEng         KinEng         PotEng         E_bond        E_angle        E_dihed        E_impro         E_vdwl         E_coul         E_long         E_tail         Volume           Lx             Ly             Lz          Density          Pxx            Pyy            Pzz      
    200000   200000         485.28167      1491.6829      27525.33       25885.843      8880.2629      17005.581      3251.4049      5081.1867      4950.6852      513.26547     -508.11306      11103.175     -7386.0241     -527.59851      75362.518      42.239471      42.239471      42.239471      1.1439         275.52894      2946.773       1252.7468    
Loop time of 4.2049e-05 on 1 procs for 0 steps with 6140 atoms

99.9% CPU use with 1 MPI tasks x 1 OpenMP threads

MPI task timing breakdown:
Section |  min time  |  avg time  |  max time  |%varavg| %total
---------------------------------------------------------------
Pair    | 0          | 0          | 0          |   0.0 |  0.00
Bond    | 0          | 0          | 0          |   0.0 |  0.00
Kspace  | 0          | 0          | 0          |   0.0 |  0.00
Neigh   | 0          | 0          | 0          |   0.0 |  0.00
Comm    | 0          | 0          | 0          |   0.0 |  0.00
Output  | 0          | 0          | 0          |   0.0 |  0.00
Modify  | 0          | 0          | 0          |   0.0 |  0.00
Other   |            | 4.205e-05  |            |       |100.00

Nlocal:           6140 ave        6140 max        6140 min
Histogram: 1 0 0 0 0 0 0 0 0 0
Nghost:          16495 ave       16495 max       16495 min
Histogram: 1 0 0 0 0 0 0 0 0 0
Neighs:              0 ave           0 max           0 min
Histogram: 1 0 0 0 0 0 0 0 0 0
FullNghs:  3.18108e+06 ave 3.18108e+06 max 3.18108e+06 min
Histogram: 1 0 0 0 0 0 0 0 0 0

Total # of neighbors = 3181082
Ave neighs/atom = 518.09153
Ave special neighs/atom = 5.6319218
Neighbor list builds = 0
Dangerous builds = 0
System init for write_data ...
PPPM Kokkos initialization ...
  using 12-bit tables for long-range coulomb
  G vector (1/distance) = 0.30586887
  grid = 32 32 32
  stencil order = 5
  estimated absolute RMS force accuracy = 0.00039937138
  estimated relative force accuracy = 1.202695e-06
  using double precision cuFFT
  3d grid and FFT values/proc = 59319 32768
Generated 21 of 21 mixed pair_coeff terms from sixthpower/sixthpower mixing rule
STAGE COMPLETE: Tg step T=550.0K P=1.0atm steps=200000
