Authorization required, but no authorization protocol specified

Authorization required, but no authorization protocol specified

Authorization required, but no authorization protocol specified

Authorization required, but no authorization protocol specified

LAMMPS (22 Jul 2025 - Update 3)
KOKKOS mode with Kokkos version 4.6.2 is enabled
  will use up to 1 GPU(s) per node
  using 1 OpenMP thread(s) per MPI task
Reading data file ...
  orthogonal box = (0 0 0) to (53.692693 53.692693 53.692693)
  1 by 1 by 1 MPI processor grid
  reading atoms ...
  4940 atoms
  scanning bonds ...
  4 = max bonds/atom
  scanning angles ...
  12 = max angles/atom
  scanning dihedrals ...
  24 = max dihedrals/atom
  scanning impropers ...
  10 = max impropers/atom
  orthogonal box = (0 0 0) to (53.692693 53.692693 53.692693)
  1 by 1 by 1 MPI processor grid
  reading bonds ...
  4930 bonds
  reading angles ...
  9840 angles
  reading dihedrals ...
  14670 dihedrals
  reading impropers ...
  6560 impropers
Finding 1-2 1-3 1-4 neighbors ...
  special bond factors lj:    0        0        1       
  special bond factors coul:  0        0        1       
     4 = max # of 1-2 neighbors
     6 = max # of 1-3 neighbors
    10 = max # of special neighbors
  special bonds CPU = 0.003 seconds
  read_data CPU = 0.120 seconds
PPPM Kokkos initialization ...
  using 12-bit tables for long-range coulomb
  G vector (1/distance) = 0.28561812
  grid = 32 32 32
  stencil order = 5
  estimated absolute RMS force accuracy = 0.00040420636
  estimated relative force accuracy = 1.2172555e-06
  using double precision cuFFT
  3d grid and FFT values/proc = 59319 32768
Generated 6 of 6 mixed pair_coeff terms from sixthpower/sixthpower mixing rule
Neighbor list info ...
  update: every = 1 steps, delay = 0 steps, check = yes
  max neighbors/atom: 4000, page size: 100000
  master list distance cutoff = 11.5
  ghost atom cutoff = 11.5
  binsize = 11.5, bins = 5 5 5
  1 neighbor lists, perpetual/occasional/extra = 1 0 0
  (1) pair lj/class2/coul/long/kk, perpetual
      attributes: full, newton off, kokkos_device
      pair build: full/bin/kk/device
      stencil: full/bin/3d
      bin: kk/device
Setting up cg/kk style minimization ...
  Unit style    : real
  Current step  : 0
WARNING: Fix MINIMIZE/kk not compatible with sending data in Kokkos communication (src/KOKKOS/comm_kokkos.cpp:767)
WARNING: Fix with atom-based arrays not compatible with sending data in Kokkos communication, switching to classic exchange/border communication (src/KOKKOS/comm_kokkos.cpp:780)
WARNING: Fix MINIMIZE/kk not compatible with Kokkos sorting on device (src/KOKKOS/atom_kokkos.cpp:212)
WARNING: Fix with atom-based arrays not compatible with Kokkos sorting on device, switching to classic host sorting (src/KOKKOS/atom_kokkos.cpp:218)
Per MPI rank memory allocation (min/avg/max) = 27.99 | 27.99 | 27.99 Mbytes
   Step          Time           Temp          Press          TotEng         PotEng         E_bond        E_angle        E_dihed        E_impro         E_vdwl         E_coul         E_long         Volume           Lx             Ly             Lz          Density    
         0   0              0              7540.6397      3662.4722      3662.4722      2032.464       5307.1498     -2274.7643      65.075651      3238.216      -1972.9445     -2732.7244      154790.95      53.692693      53.692693      53.692693      0.54999999   
       500   500            0             -354.90996     -6966.4039     -6966.4039      194.19412      1077.9725     -2784.3157      25.096622     -499.24281     -2122.26       -2857.8487      154790.95      53.692693      53.692693      53.692693      0.54999999   
      1000   1000           0             -308.73176     -7215.0504     -7215.0504      187.88616      1046.3349     -2807.6261      24.554362     -632.17417     -2150.4311     -2883.5944      154790.95      53.692693      53.692693      53.692693      0.54999999   
      1500   1500           0             -307.49217     -7337.297      -7337.297       186.0029       1023.5081     -2816.7821      24.010024     -693.80719     -2160.9701     -2899.2587      154790.95      53.692693      53.692693      53.692693      0.54999999   
      2000   2000           0             -222.8873      -7413.4409     -7413.4409      181.00834      1001.5074     -2807.4675      23.393806     -728.8292      -2175.9157     -2907.138       154790.95      53.692693      53.692693      53.692693      0.54999999   
      2500   2500           0             -246.29396     -7449.5493     -7449.5493      181.58989      1010.8952     -2816.8457      23.669937     -760.30512     -2179.1671     -2909.3864      154790.95      53.692693      53.692693      53.692693      0.54999999   
      2587   2587           0             -258.49546     -7452.9032     -7452.9032      181.34725      1012.2355     -2817.3019      23.705546     -764.37525     -2178.7779     -2909.7364      154790.95      53.692693      53.692693      53.692693      0.54999999   
Loop time of 11.6147 on 1 procs for 2587 steps with 4940 atoms

99.8% CPU use with 1 MPI tasks x 1 OpenMP threads

Minimization stats:
  Stopping criterion = energy tolerance
  Energy initial, next-to-last, final = 
      3662.47223221674  -7452.90000852842  -7452.90319595746
  Force two-norm initial, final = 2280.5153 5.7904572
  Force max component initial, final = 96.259231 0.89866682
  Final line search alpha, max atom move = 0.02319354 0.020843265
  Iterations, force evaluations = 2587 5149

MPI task timing breakdown:
Section |  min time  |  avg time  |  max time  |%varavg| %total
---------------------------------------------------------------
Pair    | 4.3386     | 4.3386     | 4.3386     |   0.0 | 37.35
Bond    | 1.7768     | 1.7768     | 1.7768     |   0.0 | 15.30
Kspace  | 4.2651     | 4.2651     | 4.2651     |   0.0 | 36.72
Neigh   | 0.55385    | 0.55385    | 0.55385    |   0.0 |  4.77
Comm    | 0.082937   | 0.082937   | 0.082937   |   0.0 |  0.71
Output  | 0.01255    | 0.01255    | 0.01255    |   0.0 |  0.11
Modify  | 0          | 0          | 0          |   0.0 |  0.00
Other   |            | 0.5848     |            |       |  5.04

Nlocal:           4940 ave        4940 max        4940 min
Histogram: 1 0 0 0 0 0 0 0 0 0
Nghost:          10667 ave       10667 max       10667 min
Histogram: 1 0 0 0 0 0 0 0 0 0
Neighs:              0 ave           0 max           0 min
Histogram: 1 0 0 0 0 0 0 0 0 0
FullNghs:  1.58516e+06 ave 1.58516e+06 max 1.58516e+06 min
Histogram: 1 0 0 0 0 0 0 0 0 0

Total # of neighbors = 1585164
Ave neighs/atom = 320.8834
Ave special neighs/atom = 5.9797571
Neighbor list builds = 72
Dangerous builds = 0
System init for write_data ...
PPPM Kokkos initialization ...
  using 12-bit tables for long-range coulomb
  G vector (1/distance) = 0.28561812
  grid = 32 32 32
  stencil order = 5
  estimated absolute RMS force accuracy = 0.00040420636
  estimated relative force accuracy = 1.2172555e-06
  using double precision cuFFT
  3d grid and FFT values/proc = 59319 32768
Generated 6 of 6 mixed pair_coeff terms from sixthpower/sixthpower mixing rule
System init for write_restart ...
PPPM Kokkos initialization ...
  using 12-bit tables for long-range coulomb
  G vector (1/distance) = 0.28561812
  grid = 32 32 32
  stencil order = 5
  estimated absolute RMS force accuracy = 0.00040420636
  estimated relative force accuracy = 1.2172555e-06
  using double precision cuFFT
  3d grid and FFT values/proc = 59319 32768
Generated 6 of 6 mixed pair_coeff terms from sixthpower/sixthpower mixing rule
STAGE COMPLETE: minimization
