Authorization required, but no authorization protocol specified

Authorization required, but no authorization protocol specified

Authorization required, but no authorization protocol specified

Authorization required, but no authorization protocol specified

LAMMPS (22 Jul 2025 - Update 3)
KOKKOS mode with Kokkos version 4.6.2 is enabled
  will use up to 1 GPU(s) per node
  using 1 OpenMP thread(s) per MPI task
Reading data file ...
  orthogonal box = (4.6584774 4.6584774 4.6584774) to (40.703116 40.703116 40.703116)
  1 by 1 by 1 MPI processor grid
  reading atoms ...
  3020 atoms
  reading velocities ...
  3020 velocities
  scanning bonds ...
  4 = max bonds/atom
  scanning angles ...
  12 = max angles/atom
  scanning dihedrals ...
  24 = max dihedrals/atom
  orthogonal box = (4.6584774 4.6584774 4.6584774) to (40.703116 40.703116 40.703116)
  1 by 1 by 1 MPI processor grid
  reading bonds ...
  3010 bonds
  reading angles ...
  6000 angles
  reading dihedrals ...
  8910 dihedrals
Finding 1-2 1-3 1-4 neighbors ...
  special bond factors lj:    0        0        0.5     
  special bond factors coul:  0        0        0.5     
     4 = max # of 1-2 neighbors
     6 = max # of 1-3 neighbors
    12 = max # of 1-4 neighbors
    16 = max # of special neighbors
  special bonds CPU = 0.004 seconds
  read_data CPU = 0.075 seconds
PPPM Kokkos initialization ...
  using 12-bit tables for long-range coulomb
  G vector (1/distance) = 0.3275935
  grid = 36 36 36
  stencil order = 5
  estimated absolute RMS force accuracy = 0.00039803261
  estimated relative force accuracy = 1.1986634e-06
  using double precision cuFFT
  3d grid and FFT values/proc = 79507 46656
Generated 3 of 3 mixed pair_coeff terms from geometric mixing rule
Neighbor list info ...
  update: every = 1 steps, delay = 0 steps, check = yes
  max neighbors/atom: 4000, page size: 100000
  master list distance cutoff = 11.5
  ghost atom cutoff = 11.5
  binsize = 11.5, bins = 4 4 4
  1 neighbor lists, perpetual/occasional/extra = 1 0 0
  (1) pair lj/cut/coul/long/kk, perpetual
      attributes: full, newton off, kokkos_device
      pair build: full/bin/kk/device
      stencil: full/bin/3d
      bin: kk/device
Setting up Verlet run ...
  Unit style    : real
  Current step  : 0
  Time step     : 1
Per MPI rank memory allocation (min/avg/max) = 25.91 | 25.91 | 25.91 Mbytes
   Step          Time           Temp          Press         Enthalpy        TotEng         KinEng         PotEng         E_bond        E_angle        E_dihed        E_impro         E_vdwl         E_coul         E_long         E_tail         Volume           Lx             Ly             Lz          Density          Pxx            Pyy            Pzz      
         0   0              469.19477      97.747075      5760.7986      5694.0409      4222.3145      1471.7264      1798.0551      2931.8658     -4365.0233      0              509.95064      14978.936     -14382.057     -116.36521      46829.768      36.044638      36.044638      36.044638      1.7739153     -88.693172      568.76291     -186.82852    
      1000   1000           480.09279     -47.598087      5695.5413      5728.303       4320.3864      1407.9166      1780.4776      2975.0355     -4367.6233      0              405.9008       14990.546     -14376.42      -115.46305      47195.665      36.138271      36.138271      36.138271      1.7601626      552.20248      1009.9828     -1704.9795    
      2000   2000           469.76583      232.38495      5819.3855      5657.0667      4227.4535      1429.6132      1744.5098      2966.6714     -4347.9566      0              469.80095      14961.7       -14365.113     -113.77846      47894.442      36.315752      36.315752      36.315752      1.7344819      1237.0702     -535.11615     -4.7992415    
      3000   3000           469.14454     -25.175241      5668.0568      5685.4346      4221.8625      1463.5721      1801.286       2888.323      -4334.7981      0              495.53326      14989.371     -14376.143     -115.13326      47330.855      36.172744      36.172744      36.172744      1.7551351      93.895626     -353.18204      183.76069    
      4000   4000           466.1752       323.03522      5819.4689      5594.2806      4195.1412      1399.1394      1765.41        2959.9531     -4351.1035      0              408.26693      14982.613     -14366         -114.00529      47799.145      36.29165       36.29165       36.29165       1.7379399     -1232.7746      1411.1781      790.70217    
      5000   5000           489.57115      178.85383      5956.422       5834.199       4405.6828      1428.5162      1786.1105      2955.8593     -4353.6618      0              413.84227      15013.278     -14386.912     -116.29645      46857.454      36.05174       36.05174       36.05174       1.7728672      1607.7873      1589.852      -2661.0779    
      6000   6000           478.61511     -1755.6181      4409.5545      5599.0075      4307.0887      1291.9187      1736.9757      2908.2899     -4354.937       0              389.37204      15002.705     -14390.487     -117.30157      46455.949      35.948473      35.948473      35.948473      1.7881896     -2039.2528      1040.7719     -4268.3734    
      7000   7000           470.49638     -1044.2414      5074.2257      5791.3417      4234.0278      1557.3139      1852.7737      3004.5342     -4324.7761      0              401.09485      15016.777     -14393.089     -115.72644      47088.25       36.110834      36.110834      36.110834      1.7641777     -293.9242      -2968.1834      129.38331    
      8000   8000           472.03124      1423.3615      6636.271       5659.8143      4247.8401      1411.9743      1743.5819      2948.1149     -4343.1262      0              444.19804      14995.464     -14376.259     -115.8466       47039.409      36.098344      36.098344      36.098344      1.7660095      1049.5549      356.1908       2864.3387    
      9000   9000           462.71852      1622.9248      6643.4251      5522.9291      4164.0343      1358.8948      1693.6878      2924.0839     -4365.7855      0              488.93067      14996.311     -14378.333     -115.10895      47340.85       36.17529       36.17529       36.17529       1.7547645      2211.7379      199.6575       2457.3789    
     10000   10000          476.28049     -1713.4444      4536.0575      5706.4346      4286.0794      1420.3552      1791.0717      2952.2851     -4356.2761      0              426.55844      14995.707     -14388.991     -116.3497       46836.009      36.046239      36.046239      36.046239      1.7736789     -2751.5895     -1634.3756     -754.36821    
     11000   11000          464.46237     -1359.296       4658.9397      5606.2267      4179.7273      1426.4995      1813.352       2929.8804     -4338.6349      0              406.12509      14987.438     -14371.661     -114.03903      47785.006      36.288071      36.288071      36.288071      1.7384542     -190.04482     -2444.5137     -1443.3296    
     12000   12000          475.93747      0.30265308     5837.6565      5837.4427      4282.9925      1554.4502      1812.8989      2994.0944     -4350.5673      0              473.9075       14982.282     -14358.165     -112.52755      48426.859      36.449824      36.449824      36.449824      1.7154126      1736.4746     -2533.1441      797.57749    
     13000   13000          478.81723      855.31214      6256.5561      5664.6003      4308.9077      1355.6927      1746.1241      2895.9839     -4354.7246      0              460.48715      14984.916     -14377.093     -114.83028      47455.738      36.20453       36.20453       36.20453       1.7505163      852.64099      1635.0147      78.280759    
     14000   14000          471.62224      1230.1099      6560.4442      5710.9128      4244.1595      1466.7533      1801.801       2927.4273     -4346.4063      0              464.8922       14995.342     -14376.303     -115.07619      47354.326      36.178722      36.178722      36.178722      1.7542651      1737.5102      308.94136      1643.8781    
     15000   15000          472.39807     -1046.7742      5027.8798      5764.1807      4251.1412      1513.0395      1850.6269      2913.4467     -4351.4169      0              492.30231      14965.273     -14357.192     -112.98446      48231.017      36.400622      36.400622      36.400622      1.722378      -2219.5072     -670.95213     -249.86314    
     16000   16000          457.37798     -2540.5165      3748.2649      5495.3842      4115.9744      1379.4097      1822.9807      2890.1129     -4374.1207      0              433.96985      14985.638     -14379.171     -115.56346      47154.661      36.127802      36.127802      36.127802      1.7616931     -2732.7095     -3239.6561     -1649.1841    
     17000   17000          474.38737     -422.11279      5308.1107      5601.9702      4269.043       1332.9272      1724.5904      2938.4298     -4369.0145      0              430.45906      14966.493     -14358.031     -114.15888      47734.839      36.275367      36.275367      36.275367      1.7402812     -2479.1497     -7.1436757      1219.9551    
     18000   18000          469.67708      2230.4669      7067.9405      5539.2122      4226.6548      1312.5574      1656.8627      2975.4674     -4362.9204      0              427.5643       14998.985     -14383.402     -115.95421      46995.753      36.087174      36.087174      36.087174      1.76765        762.05857      2150.0265      3779.3158    
     19000   19000          481.41129      1130.4882      6511.953       5736.637       4332.2517      1404.3853      1755.9842      2901.8434     -4352.9913      0              485.37399      14996.198     -14382.023     -115.87996      47025.866      36.09488       36.09488       36.09488       1.7665181      789.79705      2240.5554      361.1123     
     20000   20000          469.28539     -587.08772      5269.7166      5672.2802      4223.13        1449.1502      1771.5858      2975.4709     -4337.9104      0              436.69771      14987.087     -14383.781     -115.90162      47017.079      36.092632      36.092632      36.092632      1.7668482     -1858.7787     -739.89176      837.40734    
     21000   21000          468.00695     -675.12358      5024.0982      5487.3633      4211.6252      1275.7381      1716.5985      2917.1997     -4370.8078      0              399.99339      14994.288     -14381.534     -115.81764      47051.173      36.101354      36.101354      36.101354      1.765568       659.32722     -3172.3652      487.66725    
     22000   22000          472.64694     -2055.5947      4264.0298      5679.306       4253.3808      1425.9252      1823.145       2927.855      -4371.9613      0              449.41799      14964.513     -14367.044     -115.42963      47209.329      36.141758      36.141758      36.141758      1.7596531     -1105.8234     -1093.4862     -3967.4745    
     23000   23000          465.48838     -554.00008      5160.1653      5541.2464      4188.9605      1352.286       1737.1474      2900.7196     -4369.9403      0              468.91315      14988.704     -14373.258     -115.53497      47166.286      36.130771      36.130771      36.130771      1.7612589      190.46741     -626.09371     -1226.3739    
     24000   24000          476.54024     -796.75489      5090.5825      5630.4648      4288.4169      1342.0479      1824.8288      2931.7139     -4375.6958      0              366.59937      14983.692     -14389.091     -117.28614      46462.058      35.950048      35.950048      35.950048      1.7879545     -469.69041     -1416.9535     -503.62072    
     25000   25000          475.11013      202.71044      5777.1016      5638.2165      4275.5472      1362.6693      1702.313       2981.7488     -4383.7539      0              442.67635      14993.32      -14373.635     -115.99559      46978.988      36.082882      36.082882      36.082882      1.7682808      1933.5216      1150.6874     -2476.0777    
     26000   26000          471.30571     -199.23088      5477.0028      5612.7079      4241.311       1371.3969      1777.0166      2915.6801     -4348.7871      0              398.42192      15010.786     -14381.721     -116.676        46705.028      36.012606      36.012606      36.012606      1.7786531      15.947097      718.70221     -1332.3419    
     27000   27000          474.62236     -307.5369       5505.0955      5717.6731      4271.1578      1446.5153      1801.2091      2917.6483     -4358.2728      0              462.30157      15000.975     -14377.346     -114.97431      47396.287      36.189405      36.189405      36.189405      1.752712      -132.56984      1282.3256     -2072.3665    
     28000   28000          476.51108      900.39308      6332.779       5717.4934      4288.1545      1429.3389      1786.039       2939.3647     -4352.6282      0              440.70768      15004.831     -14388.976     -116.29913      46856.374      36.051463      36.051463      36.051463      1.7729081      2003.6038     -244.23109      941.80655    
     29000   29000          478.98311     -377.33397      5481.6165      5744.9928      4310.4004      1434.5923      1814.5005      2890.7129     -4361.7431      0              460.46266      15000.699     -14370.039     -113.85975      47860.244      36.307106      36.307106      36.307106      1.7357213     -1047.8439     -599.75969      515.60169    
     30000   30000          467.36797     -494.10478      5172.6485      5516.2795      4205.875       1310.4045      1811.069       2820.7772     -4376.6166      0              446.0154       14971.486     -14362.326     -114.27408      47686.715      36.263173      36.263173      36.263173      1.7420375     -253.84428     -1136.1142     -92.355861    
     31000   31000          478.12419     -1251.4617      4854.3603      5736.4742      4302.6709      1433.8033      1847.5781      2910.7017     -4367.4324      0              406.10164      14993.244     -14356.39      -112.74932      48331.604      36.425909      36.425909      36.425909      1.7187934     -1614.5905     -1846.1625     -293.63215    
     32000   32000          474.8088       1027.5979      6373.0425      5670.4025      4272.8355      1397.567       1801.0863      2883.8154     -4351.4133      0              452.52998      14992.487     -14380.938     -116.22817      46884.983      36.058799      36.058799      36.058799      1.7718262     -328.92842      1368.8608      2042.8613    
     33000   33000          472.47886      806.11529      6156.1502      5602.7477      4251.8682      1350.8794      1715.4159      2912.9415     -4345.014       0              457.43782      14989.503     -14379.405     -115.76494      47072.592      36.106831      36.106831      36.106831      1.7647646      4126.9901      27.355264     -1735.9994    
     34000   34000          462.13427     -608.50053      5071.4674      5492.0212      4158.7765      1333.2447      1788.9812      2873.5093     -4360.1333      0              422.14621      14979.197     -14370.456     -114.99009      47389.784      36.18775       36.18775       36.18775       1.7529526     -603.20856     -258.60439     -963.68864    
     35000   35000          472.8052      -1127.4874      4843.4791      5631.3861      4254.805       1376.5811      1748.025       2968.7876     -4371.9841      0              409.13405      14992.544     -14369.926     -113.72548      47916.752      36.32139       36.32139       36.32139       1.7336743      126.80415     -3257.1745     -252.09174    
     36000   36000          477.46009     -1638.6035      4534.3771      5647.9175      4296.6947      1351.2228      1793.8108      2953.3621     -4366.0197      0              374.16849      14984.443     -14388.542     -116.94696      46596.814      35.984771      35.984771      35.984771      1.7827838     -3042.5141     -309.60168     -1563.6946    
     37000   37000          455.73038      214.17071      5702.884       5555.9335      4101.1476      1454.7859      1801.4938      2942.7943     -4376.3063      0              478.58478      14990.212     -14381.993     -115.82704      47047.351      36.100376      36.100376      36.100376      1.7657114      132.57701      556.1163      -46.181167    
     38000   38000          469.33413     -408.64308      5149.2959      5426.5669      4223.5686      1202.9983      1693.8656      2857.8999     -4350.8167      0              394.2032       15000.119     -14392.272     -117.128        46524.79       35.966221      35.966221      35.966221      1.7855436      605.36568     -1231.4346     -599.86037    
     39000   39000          474.98619      951.37878      6323.5318      5677.2979      4274.4319      1402.8661      1766.7465      2922.3912     -4343.0489      0              441.90422      15007.886     -14393.013     -116.99972      46575.802      35.979361      35.979361      35.979361      1.783588      -298.0461       224.56609      2927.6163    
     40000   40000          470.16227     -148.53617      5521.4079      5622.9547      4231.0211      1391.9336      1807.7486      2896.7213     -4375.093       0              437.3518       15001.61      -14376.405     -116.24848      46876.789      36.056698      36.056698      36.056698      1.7721359     -1616.0999     -55.940024      1226.4314    
     41000   41000          463.89086     -751.25709      5015.548       5536.7919      4174.5842      1362.2077      1726.0339      2957.181      -4369.2337      0              449.8019       14957.534     -14359.11      -114.54302      47574.752      36.23477       36.23477       36.23477       1.7461372     -664.23237     -97.727837     -1491.8111    
     42000   42000          473.58132     -1991.5511      4380.3575      5737.6222      4261.7893      1475.8328      1836.3658      2937.4284     -4350.6496      0              434.53445      15002.039     -14383.885     -116.61326      46730.155      36.019063      36.019063      36.019063      1.7776967     -2784.1799      878.94555     -4069.4188    
     43000   43000          464.54519      672.44589      6004.2083      5545.8268      4180.4726      1365.3542      1721.6443      2941.1983     -4367.3298      0              459.37644      14992.717     -14382.252     -116.58733      46740.549      36.021733      36.021733      36.021733      1.7773014     -535.64203      2360.461       192.51873    
     44000   44000          475.78589      749.12553      6201.5759      5684.0527      4281.6284      1402.4243      1697.8622      2978.284      -4353.071       0              488.5263       14961.655     -14370.832     -115.03919      47369.559      36.182601      36.182601      36.182601      1.753701       1932.8111      113.03532      201.53019    
     45000   45000          479.70613     -93.719378      5596.0089      5660.3477      4316.9069      1343.4408      1722.1389      2930.2386     -4365.8192      0              437.71263      14999.628     -14380.458     -115.76499      47072.571      36.106825      36.106825      36.106825      1.7647654     -507.2453      -179.36461      405.45177    
     46000   46000          459.24285      614.80243      5873.1052      5453.2379      4132.7565      1320.4814      1730.5402      2883.5589     -4359.805       0              462.53513      14993.808     -14390.156     -116.37094      46827.462      36.044046      36.044046      36.044046      1.7740027      417.07782      109.00804      1318.3214    
     47000   47000          471.24012     -817.97788      5112.9118      5673.0298      4240.7207      1432.3091      1804.2947      2951.5861     -4359.6994      0              423.7024       14997.389     -14384.963     -116.06013      46952.865      36.076193      36.076193      36.076193      1.7692646     -750.09386     -160.6842      -1543.1556    
     48000   48000          463.1335       1093.2063      6253.451       5507.4095      4167.7687      1339.6407      1712.2853      2941.435      -4348.4413      0              412.83142      15013.083     -14391.553     -116.45554      46793.441      36.035315      36.035315      36.035315      1.7752925     -387.82001      2107.2371      1560.2018    
     49000   49000          468.80792     -344.06769      5484.5484      5718.3315      4218.8332      1499.4983      1794.2507      2970.3318     -4353.9491      0              435.85085      15046.015     -14393.001     -116.96392      46590.054      35.983031      35.983031      35.983031      1.7830424     -506.69439     -829.79031      304.28163    
     50000   50000          463.05598     -559.64572      5156.5507      5536.852       4167.0711      1369.7808      1745.2437      2913.2775     -4362.1205      0              460.30478      15007.172     -14394.096     -116.95168      46594.931      35.984286      35.984286      35.984286      1.7828558      1115.1177     -2159.1956     -634.85919    
     51000   51000          472.96743     -906.18351      5003.6272      5625.2254      4256.2649      1368.9605      1807.5972      2904.034      -4377.8331      0              434.43534      14977.58      -14376.853     -115.85838      47034.626      36.097121      36.097121      36.097121      1.7661891     -1595.6981     -931.50981     -191.34261    
     52000   52000          461.16144     -1003.8215      4852.9849      5543.3396      4150.022       1393.3176      1686.4638      3009.0424     -4356.498       0              429.58886      14995.192     -14370.472     -115.5594       47156.317      36.128225      36.128225      36.128225      1.7616313     -2199.1705     -269.17103     -543.12309    
     53000   53000          474.73038      602.86608      6096.4702      5682.7224      4272.1298      1410.5926      1740.7057      2927.8757     -4355.1526      0              455.14877      15027.5       -14385.485     -115.79937      47058.593      36.103251      36.103251      36.103251      1.7652895      2141.8005      1207.0571     -1540.2594    
     54000   54000          480.56045     -1623.1408      4630.1914      5745.6887      4324.595       1421.0937      1820.594       2863.4439     -4355.9396      0              471.64003      15002.002     -14380.647     -115.64016      47123.383      36.119812      36.119812      36.119812      1.7628625     -1920.1237     -2531.772      -417.52663    
     55000   55000          476.5194      -503.33702      5257.2798      5602.5169      4288.2293      1314.2876      1756.5297      2916.266      -4373.155       0              395.77912      15006.945     -14388.077     -115.86774      47030.829      36.09615       36.09615       36.09615       1.7663317     -2650.8973      1727.8937     -587.0075     
     56000   56000          464.94283      1268.761       6335.8115      5453.7313      4184.051       1269.6803      1670.5574      2899.3373     -4358.9865      0              447.87668      14990.621     -14379.726     -114.31224      47670.796      36.259137      36.259137      36.259137      1.7426192      1434.5171      382.94189      1988.824     
     57000   57000          474.4287      -860.33923      4973.7685      5566.4184      4269.415       1297.0034      1704.5276      2902.3576     -4349.1328      0              417.99958      15000.57      -14379.318     -115.3699       47233.773      36.147995      36.147995      36.147995      1.7587425     -538.65538     -1601.6725     -440.68982    
     58000   58000          476.9055      -5.0466306      5575.7669      5579.2066      4291.7038      1287.5027      1666.6844      2953.0255     -4366.7965      0              421.34686      15005.185     -14391.943     -116.6022       46734.586      36.020201      36.020201      36.020201      1.7775282     -85.357097      1108.4995     -1038.2823    
     59000   59000          474.18321     -165.03064      5532.9343      5645.6703      4267.2058      1378.4645      1688.8951      3015.4501     -4352.9289      0              414.57184      14998.103     -14385.626     -116.33835      46840.578      36.047411      36.047411      36.047411      1.7735059     -927.6474       2056.4478     -1623.8923    
     60000   60000          461.3099       589.1786       5917.5905      5515.9492      4151.3581      1364.5911      1796.5124      2914.4744     -4378.0439      0              406.80921      15013.054     -14388.215     -116.58148      46742.894      36.022335      36.022335      36.022335      1.7772122     -612.0671       2166.7734      212.82951    
     61000   61000          463.72186     -1356.2952      4593.0815      5519.1245      4173.0634      1346.061       1780.0832      2875.8304     -4363.8545      0              434.75344      15006.178     -14386.93      -116.39763      46816.724      36.041291      36.041291      36.041291      1.7744096      33.076556     -2954.3809     -1147.5811    
     62000   62000          476.48725      1302.7616      6621.1543      5739.4066      4287.94        1451.4667      1773.557       2982.8294     -4343.4281      0              423.59782      15017.445     -14402.534     -117.4199       46409.132      35.936393      35.936393      35.936393      1.7899934     -97.609987      3154.0604      851.83445    
     63000   63000          466.99487      684.33633      6022.5537      5554.9308      4202.5174      1352.4134      1762.9017      2841.8919     -4352.3963      0              469.74285      15025.074     -14394.8       -116.30407      46854.386      36.050953      36.050953      36.050953      1.7729833      1604.6543     -437.53812      885.89284    
     64000   64000          475.00915      166.14433      5802.0774      5690.0476      4274.6385      1415.4091      1754.9791      2957.2114     -4352.9983      0              444.69523      15006.659     -14395.137     -117.8618       46235.13       35.891425      35.891425      35.891425      1.7967299      1191.1689      667.32009     -1360.056     
     65000   65000          479.06115     -573.90963      5228.4265      5623.1346      4311.1027      1312.032       1726.2694      2896.6776     -4363.7736      0              448.67256      14985.619     -14381.433     -115.55492      47158.144      36.128692      36.128692      36.128692      1.761563      -419.60869     -1050.3314     -251.78877    
     66000   66000          471.66467      326.30653      5811.8247      5588.6775      4244.5413      1344.1362      1696.6723      2989.3292     -4376.222       0              413.10583      15004.907     -14383.656     -116.21319      46891.026      36.060348      36.060348      36.060348      1.7715979      1034.0219      43.905601     -99.007908    
     67000   67000          463.68196     -477.61756      5201.2326      5521.8546      4172.7043      1349.1503      1746.8302      2915.1103     -4342.5914      0              413.09014      15009.64      -14392.929     -118.38809      46029.593      35.838161      35.838161      35.838161      1.8047529     -1424.7321      566.72659     -574.84711    
     68000   68000          473.44625     -581.52451      5275.9885      5670.9422      4260.5739      1410.3683      1774.3453      2948.3908     -4340.4405      0              406.60387      15009.632     -14388.163     -117.01537      46569.572      35.977757      35.977757      35.977757      1.7838267      603.1755      -2763.8191      416.0701     
     69000   69000          469.91651      19.849181      5591.6411      5578.1352      4228.8095      1349.3257      1704.4987      2935.0642     -4342.7651      0              428.93936      15017.583     -14393.995     -116.7995       46655.642      35.999908      35.999908      35.999908      1.7805358     -1962.6439     -903.13995      2925.3314    
     70000   70000          461.671       -1179.581       4703.1515      5519.3285      4154.6076      1364.7209      1746.8167      2970.8486     -4357.6556      0              387.74811      14989.972     -14373.009     -114.85885      47443.934      36.201528      36.201528      36.201528      1.7509518     -617.36074     -2709.3457     -212.03645    
     71000   71000          460.88226     -263.42237      5273.1182      5454.1849      4147.5097      1306.6753      1688.3408      2893.7831     -4369.3167      0              460.08299      15016.644     -14382.859     -115.62053      47131.385      36.121857      36.121857      36.121857      1.7625631     -908.27674      192.79209     -74.782451    
     72000   72000          457.90726     -1749.9452      4276.4858      5495.5538      4120.7375      1374.8163      1778.1088      2888.2015     -4370.7823      0              451.23447      14993.409     -14365.355     -114.08212      47766.957      36.283501      36.283501      36.283501      1.7391111     -1657.8541     -799.17186     -2792.8095    
     73000   73000          463.82822     -684.20882      5122.559       5585.0596      4174.0206      1411.039       1806.855       2969.2873     -4370.148       0              381.88944      15022.546     -14399.391     -117.57024      46349.788      35.921069      35.921069      35.921069      1.7922853     -2014.0089      535.88337     -574.50097    
     74000   74000          455.19534      611.27124      5790.0896      5374.2182      4096.3327      1277.8855      1687.5196      2857.0257     -4358.3714      0              467.91665      15019.806     -14396.011     -116.81429      46649.736      35.998389      35.998389      35.998389      1.7807613      1659.5375      133.17493      41.101333    
     75000   75000          464.30674     -703.66724      5046.0689      5530.3538      4178.3267      1352.0271      1718.3972      2904.1513     -4345.8354      0              468.28284      14985.513     -14378.481     -115.47485      47190.844      36.13704       36.13704       36.13704       1.7603424      38.812218     -943.23233     -1206.5816    
     76000   76000          468.98808      423.93521      5948.6467      5655.3873      4220.4544      1434.9329      1776.0457      2932.3515     -4363.9683      0              461.22763      15000.178     -14370.901     -114.88642      47432.55       36.198632      36.198632      36.198632      1.7513721      1497.3552     -424.08288      198.53327    
     77000   77000          473.20378      1406.8505      6626.3345      5661.3726      4258.3919      1402.9808      1776.9134      2945.6843     -4370.9223      0              425.67215      15008.958     -14383.325     -115.86676      47031.226      36.096251      36.096251      36.096251      1.7663168      2704.7145     -631.28606      2147.123     
     78000   78000          467.83019     -812.10453      4971.7414      5522.8458      4210.0345      1312.8113      1681.8184      2913.0879     -4346.9497      0              447.05648      15005.159     -14387.361     -117.11137      46531.396      35.967923      35.967923      35.967923      1.7852901     -201.1096      -882.0038      -1353.2002    
     79000   79000          466.72763      608.26089      5995.1602      5579.576       4200.1126      1379.4634      1744.343       2890.5864     -4372.4915      0              507.21607      14991.25      -14381.441     -116.31933      46848.237      36.049376      36.049376      36.049376      1.773216       662.00267      1335.2156     -172.43563    
     80000   80000          466.4028       458.48426      5923.5998      5608.8696      4197.1894      1411.6802      1754.447       2960.7516     -4390.072       0              472.69246      14992.643     -14378.782     -115.77294      47069.339      36.105999      36.105999      36.105999      1.7648865      1093.293       1483.5939     -1201.4341    
     81000   81000          469.22404      1069.1061      6266.1863      5528.1193      4222.5778      1305.5414      1679.3715      2882.7037     -4361.9579      0              480.40102      15008.625     -14383.602     -115.11874      47336.823      36.174264      36.174264      36.174264      1.7549138      1358.7993      28.450456      1820.0686    
     82000   82000          460.26354     -433.26491      5100.965       5401.8087      4141.9418      1259.8669      1706.8159      2868.3665     -4378.6765      0              445.42875      14980.405     -14362.473     -114.4547       47611.463      36.244088      36.244088      36.244088      1.7447908     -1009.1082      641.113       -931.79957    
     83000   83000          466.74364     -337.56408      5295.6803      5525.6814      4200.2566      1325.4249      1713.4391      2953.8818     -4360.0453      0              416.01862      14992.501     -14390.37      -116.63992      46719.473      36.016318      36.016318      36.016318      1.7781032     -2404.3427     -318.56209      1710.2125    
     84000   84000          457.94421      819.71712      5929.5999      5368.0732      4121.0699      1247.0033      1663.0655      2868.8678     -4349.061       0              437.39639      15012.62      -14385.885     -116.01513      46971.075      36.080856      36.080856      36.080856      1.7685787     -754.59185      891.63843      2322.1048    
     85000   85000          461.2302      -781.26452      4926.094       5454.7854      4150.6408      1304.1447      1781.0933      2875.7995     -4369.617       0              387.78291      15024.373     -14395.287     -117.44023      46401.097      35.934319      35.934319      35.934319      1.7903034     -2148.9324     -182.62021     -12.240932    
     86000   86000          475.75421      651.58338      5985.7196      5545.9528      4281.3434      1264.6094      1686.7571      2958.5997     -4378.0398      0              360.01273      15040.074     -14402.794     -117.75209      46278.208      35.902568      35.902568      35.902568      1.7950575     -1356.0697      242.40981      3068.41      
     87000   87000          466.47154      1180.868       6318.5071      5518.1262      4197.808       1320.3182      1776.3127      2891.6071     -4380.5692      0              420.44164      15001.568     -14389.042     -117.25346      46475.009      35.953389      35.953389      35.953389      1.7874562      2435.0644      1262.5055     -154.96577    
     88000   88000          464.77582      1553.8572      6500.3688      5437.2867      4182.5481      1254.7386      1725.9095      2842.9875     -4372.6107      0              448.27062      14992.006     -14381.824     -116.16233      46911.554      36.065609      36.065609      36.065609      1.7708227      835.19764      2313.3632      1513.0109    
     89000   89000          463.0678      -235.18051      5362.8118      5522.4908      4167.1775      1355.3133      1728.7755      2934.521      -4366.6805      0              437.63897      15010.263     -14389.204     -117.05084      46555.46       35.974122      35.974122      35.974122      1.7843674     -1047.4231      1455.9252     -1114.0436    
     90000   90000          467.66093     -16.588875      5507.5455      5518.7793      4208.5114      1310.2679      1723.7267      2960.2267     -4375.9988      0              376.03921      15017.855     -14391.581     -117.35779      46433.694      35.942731      35.942731      35.942731      1.7890466      1692.1659     -1122.1176     -619.81493    
     91000   91000          472.07615     -1179.1159      4639.1662      5443.1196      4248.2442      1194.8754      1723.61        2784.7147     -4363.2099      0              443.97254      14989.225     -14383.437     -116.55922      46751.82       36.024628      36.024628      36.024628      1.7768729     -1424.0443      1034.0337     -3147.3371    
     92000   92000          464.40444      130.46218      5596.764       5509.4693      4179.206       1330.2633      1709.5105      2946.7229     -4380.8371      0              450.75915      14992.98      -14388.873     -118.77294      45880.447      35.799411      35.799411      35.799411      1.8106197      437.92692     -476.10356      429.56317    
     93000   93000          473.43487     -464.44243      5288.5483      5601.0418      4260.4715      1340.5703      1790.859       2939.1987     -4358.2057      0              342.03993      15032.104     -14405.426     -118.11686      46135.289      35.865571      35.865571      35.865571      1.8006182      453.99026     -1390.9986     -456.31894    
     94000   94000          462.46851     -8.3456093      5491.096       5496.8652      4161.7845      1335.0807      1744.3677      2919.7129     -4353.7329      0              397.45613      15009.109     -14381.832     -114.96453      47400.321      36.190432      36.190432      36.190432      1.7525629      1292.5818     -200.86768     -1116.751     
     95000   95000          469.51759      1018.8655      6183.0489      5487.6617      4225.2196      1262.4422      1681.3119      2870.0952     -4354.0031      0              441.31628      15000.239     -14376.518     -116.44242      46798.713      36.036669      36.036669      36.036669      1.7750925      360.13468      701.68956      1994.7724    
     96000   96000          465.57422      1026.5468      6221.6813      5523.7523      4189.7329      1334.0194      1684.8587      2949.4103     -4356.2465      0              439.04886      14991.579     -14374.631     -116.893        46618.321      35.990306      35.990306      35.990306      1.7819613      396.31064      1077.7394      1605.5904    
     97000   97000          457.93939     -1654.5154      4280.5083      5407.2028      4121.0265      1286.1762      1757.1551      2833.9772     -4357.6892      0              424.39586      15011.554     -14383.217     -116.70398      46693.827      36.009727      36.009727      36.009727      1.7790798     -1949.2254     -474.27198     -2540.0488    
     98000   98000          459.75084      493.41213      5845.8895      5506.7542      4137.328       1369.4262      1770.2097      2895.4869     -4355.1526      0              445.45521      14984.49      -14371.063     -115.62663      47128.896      36.121221      36.121221      36.121221      1.7626563      681.19531     -682.7946       1481.8357    
     99000   99000          466.02339     -512.87488      5290.9363      5647.7923      4193.775       1454.0173      1753.7749      3024.1055     -4373.8035      0              426.77919      14985.721     -14362.56      -114.21928      47709.596      36.268972      36.268972      36.268972      1.741202      -842.81112      184.23654     -880.05007    
    100000   100000         454.23473     -900.375        4789.5299      5406.0701      4087.6881      1318.382       1763.3095      2883.8702     -4350.7041      0              404.24801      14997.996     -14380.338     -116.06013      46952.866      36.076193      36.076193      36.076193      1.7692646     -1564.3014     -1145.9041      9.0805017    
    101000   101000         463.40168     -1069.1583      4621.7291      5342.9733      4170.182       1172.7912      1713.4719      2864.2259     -4369.0756      0              347.42131      15015.783     -14399.035     -117.80961      46255.611      35.896723      35.896723      35.896723      1.7959344     -2766.9469      39.914099     -480.44224    
    102000   102000         463.08233     -147.42049      5463.0566      5563.5508      4167.3082      1396.2426      1779.7224      2900.0942     -4345.599       0              427.70787      15025.322     -14391.005     -116.58368      46742.009      36.022108      36.022108      36.022108      1.7772459      313.61781     -682.13073     -73.748566    
    103000   103000         468.39522     -535.49433      5262.9708      5630.4506      4215.1193      1415.3313      1780.7498      2911.8105     -4348.3001      0              443.60174      15008.587     -14381.118     -115.80905      47054.663      36.102246      36.102246      36.102246      1.765437       15.157365     -528.8881      -1092.7523    
    104000   104000         461.95905      199.46268      5682.8498      5543.5936      4157.1997      1386.3939      1753.8054      2881.7446     -4355.0242      0              481.15108      14998.615     -14373.898     -113.83298      47871.5        36.309952      36.309952      36.309952      1.7353131     -889.56045      1701.9788     -214.03027    
    105000   105000         449.89177     -643.24024      4920.2164      5358.0232      4048.6055      1309.4177      1783.7187      2815.9335     -4367.2771      0              441.37102      15022.971     -14387.299     -116.76475      46669.526      36.003479      36.003479      36.003479      1.7800061     -1155.2373      498.64618     -1273.1296    
    106000   106000         462.33349      445.6835       5891.6676      5586.552       4160.5694      1425.9826      1756.7268      2928.7598     -4348.3969      0              459.55288      15011.2       -14381.86      -116.08687      46942.05       36.073423      36.073423      36.073423      1.7696722      586.25678      876.87924     -126.08551    
    107000   107000         458.22666      2874.2654      7480.812       5512.2911      4123.6117      1388.6794      1637.4512      2992.0829     -4359.2531      0              487.41556      15001.065     -14370.082     -116.04004      46960.993      36.078274      36.078274      36.078274      1.7689584      4072.3948      3435.7755      1114.6258    
    108000   108000         466.31157      88.030358      5548.482       5489.0017      4196.3684      1292.6333      1712.3149      2913.7716     -4358.2318      0              374.83007      15043.291     -14393.343     -117.61989      46330.222      35.916014      35.916014      35.916014      1.7930422     -626.69348     -899.94972      1790.7343    
    109000   109000         457.34207     -1548.9985      4367.045       5420.4324      4115.6513      1304.7811      1726.8291      2884.6187     -4350.2774      0              413.84367      15014.744     -14384.977     -116.86485      46629.551      35.993196      35.993196      35.993196      1.7815321     -1783.414      -192.28147     -2671.3001    
    110000   110000         455.74956     -1356.2971      4455.0293      5383.6773      4101.3201      1282.3572      1724.6643      2892.2719     -4356.2998      0              396.07337      15007.576     -14381.929     -116.07127      46948.359      36.075039      36.075039      36.075039      1.7694344      413.02522     -2131.3093     -2350.6073    
    111000   111000         460.59334      1075.8333      6168.4497      5434.4211      4144.9096      1289.5114      1718.7566      2829.8822     -4364.0191      0              489.60231      14996.922     -14381.632     -116.48046      46783.432      36.032746      36.032746      36.032746      1.7756723      2833.4773      992.96024     -598.93751    
    112000   112000         454.35274     -25.488978      5474.9048      5492.5032      4088.7501      1403.7532      1824.3188      2817.3747     -4358.3364      0              504.15372      14999.313     -14383.07      -115.10652      47341.849      36.175544      36.175544      36.175544      1.7547275      365.42685      796.96722     -1238.861     
    113000   113000         459.8104       2017.3905      6812.2804      5458.0584      4137.8639      1320.1945      1733.0807      2865.6757     -4362.3246      0              451.9586       15041.436     -14409.632     -118.39167      46028.203      35.8378        35.8378        35.8378        1.8048074      1020.8472      1925.1218      3106.2025    
    114000   114000         462.93852      385.56285      5614.6368      5350.5154      4166.0141      1184.5013      1665.2349      2857.8165     -4347.9972      0              401.87946      14997.053     -14389.485     -116.01459      46971.294      36.080912      36.080912      36.080912      1.7685704      389.95528      1060.4413     -293.70804    
    115000   115000         463.18088      169.42321      5570.1805      5454.0011      4168.1951      1285.806       1762.8147      2840.4441     -4357.21        0              414.80636      15011.255     -14386.304     -115.89502      47019.757      36.093317      36.093317      36.093317      1.7667476      975.31249     -523.82384      56.78098     
    116000   116000         471.02353     -411.78259      5335.8989      5614.2193      4238.7716      1375.4477      1777.382       2924.9026     -4372.3538      0              436.11442      14997.088     -14387.685     -117.58285      46344.818      35.919785      35.919785      35.919785      1.7924775      1230.6817      295.96389     -2761.9934    
    117000   117000         471.51278     -105.75111      5440.1508      5512.1239      4243.1745      1268.9494      1743.9526      2849.0949     -4351.0353      0              403.74734      15015.388     -14392.198     -116.77132      46666.903      36.002804      36.002804      36.002804      1.7801062     -4.2165257      168.18956     -481.22637    
    118000   118000         458.03757      12.959463      5438.7684      5430.081       4121.9101      1308.1709      1744.7605      2875.8577     -4345.516       0              403.24821      15030.346     -14400.525     -118.55405      45965.156      35.82143       35.82143       35.82143       1.807283       430.22691      75.627415     -466.97594    
    119000   119000         477.44209      263.2115       5766.3059      5590.4486      4296.5326      1293.916       1718.4161      2943.5891     -4355.6203      0              358.61201      15041.37      -14412.451     -118.9503       45812.036      35.781609      35.781609      35.781609      1.8133235     -1029.7872      639.83119      1179.5905    
    120000   120000         459.39924     -972.58484      4737.1099      5405.3628      4134.1639      1271.1988      1782.2191      2814.7408     -4367.585       0              417.30012      15014.333     -14389.809     -115.66654      47112.636      36.117067      36.117067      36.117067      1.7632646     -2675.6513      861.8409      -1103.9442    
    121000   121000         459.62078     -232.3812       5239.3839      5397.8513      4136.1575      1261.6938      1727.5958      2811.6475     -4355.283       0              458.69448      15014.409     -14395.37      -116.54184      46758.793      36.026419      36.026419      36.026419      1.7766079     -1012.2555      1239.7838     -924.67186    
    122000   122000         459.74528      476.32308      5747.2098      5422.3285      4137.2779      1285.0506      1736.9821      2840.5066     -4363.4212      0              443.29746      15022.273     -14394.587     -116.51932      46767.829      36.02874       36.02874       36.02874       1.7762647     -1039.6561      2162.7206      305.90477    
    123000   123000         468.5426      -733.50184      5050.4277      5549.5958      4216.4456      1333.1502      1799.0277      2854.1598     -4374.9963      0              437.24577      15012.015     -14394.302     -116.78187      46662.685      36.001719      36.001719      36.001719      1.7802671     -1194.3463     -2311.2674      1305.1083    
    124000   124000         458.20791      627.146        5802.4193      5380.574       4123.443       1257.131       1769.4229      2809.31       -4360.6466      0              418.38733      15013.331     -14392.673     -118.15077      46122.051      35.86214       35.86214       35.86214       1.8011351     -108.2879       1134.384       855.34192    
    125000   125000         458.88515     -1182.6119      4592.7838      5408.2454      4129.5375      1278.7079      1723.9383      2909.3771     -4361.4318      0              374.02464      15013.282     -14380.483     -115.25499      47280.866      36.160004      36.160004      36.160004      1.7569907     -306.41493      242.20242     -3483.6232    
    126000   126000         459.04043      751.03742      5962.2451      5446.8546      4130.9349      1315.9197      1741.6614      2840.7403     -4357.4851      0              482.69992      14989.777     -14381.474     -115.81004      47054.26       36.102143      36.102143      36.102143      1.7654521      1499.1685      1099.5575     -345.61375    
    127000   127000         463.84961     -772.81118      4920.3679      5440.3699      4174.213       1266.1568      1750.5209      2910.8827     -4380.6673      0              362.34412      15025.901     -14402.824     -118.11076      46137.672      35.866189      35.866189      35.866189      1.8005252     -2336.0962     -318.38954      336.05221    
    128000   128000         470.71143      874.69293      6056.6638      5465.6636      4235.963       1229.7005      1658.6839      2859.5927     -4342.0517      0              432.52534      15013.007     -14392.056     -117.62212      46329.343      35.915787      35.915787      35.915787      1.7930762      76.313545      2028.5406      519.22469    
    129000   129000         467.37335      120.84113      5470.7114      5389.1695      4205.9234      1183.2461      1676.2796      2851.6364     -4377.1272      0              410.50448      15019.801     -14397.848     -117.77547      46269.019      35.900191      35.900191      35.900191      1.795414      -1126.5778      1206.2026      282.89859    
    130000   130000         449.29297      357.12932      5531.5513      5289.4375      4043.2169      1246.2206      1748.8619      2853.2857     -4365.5677      0              373.60672      15026.669     -14390.635     -117.22682      46485.572      35.956112      35.956112      35.956112      1.78705       -926.01991      667.23908      1330.1688    
    131000   131000         463.46855     -742.47889      4975.19        5478.0206      4170.7839      1307.2368      1770.5904      2926.6835     -4370.1807      0              355.36917      15013.289     -14388.515     -117.3501       46436.735      35.943516      35.943516      35.943516      1.7889295     -627.80024     -163.05166     -1436.5848    
    132000   132000         451.57217     -223.01578      5144.7953      5295.1959      4063.7276      1231.4683      1714.9029      2888.8635     -4376.343       0              385.86235      15002.611     -14384.428     -117.84389      46242.157      35.893243      35.893243      35.893243      1.7964569      468.22969     -502.41601     -634.86103    
    133000   133000         462.46763     -722.77885      4955.4376      5441.8232      4161.7765      1280.0467      1698.9703      2904.9238     -4354.5187      0              388.12919      15035.08      -14392.538     -118.09887      46142.317      35.867392      35.867392      35.867392      1.800344      -742.59341     -2268.9725      843.22939    
    134000   134000         461.19618     -111.41681      5463.2464      5539.0072      4150.3347      1388.6726      1759.0342      2957.6761     -4355.9577      0              409.08778      14999.239     -14380.407     -116.87641      46624.94       35.992009      35.992009      35.992009      1.7817083     -2948.0763      3949.6437     -1335.8179    
    135000   135000         458.35907     -805.85435      4832.1564      5378.1475      4124.8033      1253.3442      1799.071       2779.9847     -4368.2348      0              401.35527      15035.318     -14394.15      -117.29837      46457.217      35.9488        35.9488        35.9488        1.7881408     -44.596738      263.99418     -2636.9605    
    136000   136000         470.56205      226.31013      5650.3564      5498.3103      4234.6187      1263.6915      1712.0821      2817.5229     -4330.6807      0              433.70303      15033.28      -14402.216     -118.29045      46067.586      35.848018      35.848018      35.848018      1.8032645     -174.36973      328.52554      524.77457    
    137000   137000         460.31948      947.87414      5937.0265      5301.9095      4142.4451      1159.4643      1626.1541      2841.6068     -4351.4374      0              419.71194      15026.86      -14403.431     -118.60909      45943.828      35.815888      35.815888      35.815888      1.8081219     -255.39824      3170.3153     -71.294656    
    138000   138000         461.8036       180.7211       5565.9626      5445.3898      4155.8009      1289.5889      1729.0047      2906.3833     -4362.9013      0              402.16734      15017.094     -14402.159     -119.11886      45747.212      35.764724      35.764724      35.764724      1.815893       1493.6157     -304.59295     -646.8595     
    139000   139000         464.27155     -1255.5816      4595.4336      5453.9         4178.0101      1275.8899      1755.8757      2863.3823     -4357.2706      0              382.41803      15014.057     -14382.572     -116.23655      46881.602      36.057932      36.057932      36.057932      1.771954       1102.5149     -1220.3619     -3648.898     
    140000   140000         453.77056     -288.32913      5149.7687      5345.1315      4083.511       1261.6205      1702.9619      2831.9895     -4347.7449      0              437.27779      15024.406     -14387.27      -117.29177      46459.828      35.949473      35.949473      35.949473      1.7880403     -90.140426     -155.07449     -619.77249    
    141000   141000         469.83872     -1179.7499      4763.9513      5574.3234      4228.1094      1346.214       1760.1993      2883.1575     -4355.9209      0              438.83735      14994.983     -14375.043     -115.69818      47099.752      36.113774      36.113774      36.113774      1.7637469     -2053.3389     -351.82054     -1134.0903    
    142000   142000         459.06221      344.7859       5587.6478      5354.4607      4131.1309      1223.3298      1733.9696      2821.6846     -4368.6075      0              412.61922      15016.527     -14392.863     -117.50764      46374.478      35.927446      35.927446      35.927446      1.7913311     -940.11445      978.08538      996.38678    
    143000   143000         475.0306       91.919071      5819.1574      5756.1561      4274.8315      1481.3246      1774.9266      3010.8146     -4350.9262      0              421.46673      15004.613     -14379.571     -115.95168      46996.781      36.087437      36.087437      36.087437      1.7676113      574.87062      1212.9788     -1512.0922    
    144000   144000         454.96079     -512.68038      4997.5897      5348.8916      4094.222       1254.6697      1731.8841      2857.0217     -4366.9915      0              406.2744       15000.337     -14373.856     -115.9811       46984.86       36.084385      36.084385      36.084385      1.7680598      1395.8194     -1528.2368     -1405.6237    
    145000   145000         461.39182     -1032.6216      4649.3191      5343.3192      4152.0953      1191.2239      1738.4153      2823.9203     -4357.75        0              367.6427       15008.063     -14389.068     -118.25042      46083.182      35.852063      35.852063      35.852063      1.8026542     -1209.767      -406.53081     -1481.5669    
    146000   146000         451.76446      333.77852      5458.2013      5233.9592      4065.458       1168.5012      1662.7682      2813.2135     -4343.2425      0              413.55117      15025.451     -14403.241     -118.29388      46066.253      35.847672      35.847672      35.847672      1.8033167     -76.617213      530.9052       547.04757    
    147000   147000         452.086        1187.7992      6130.3795      5328.2914      4068.3516      1259.9399      1635.5655      2940.6723     -4361.0643      0              423.22858      15007.141     -14385.603     -117.69067      46302.36       35.908812      35.908812      35.908812      1.7941211      2067.1035      3.3539267      1492.9401    
    148000   148000         463.04759      1360.9516      6370.5803      5438.0595      4166.9956      1271.0639      1729.1277      2850.2686     -4354.9484      0              408.81658      15015.819     -14378.019     -115.98591      46982.912      36.083887      36.083887      36.083887      1.7681331      219.10076      3640.7842      222.97002    
    149000   149000         472.94736      965.18805      6182.4716      5534.9612      4256.0843      1278.8769      1711.745       2844.6955     -4353.7587      0              455.19373      15030.478     -14409.477     -118.46395      46000.118      35.830509      35.830509      35.830509      1.8059094      1250.1303      311.35752      1334.0763    
    150000   150000         469.83261     -352.2994       5187.2008      5428.2145      4228.0544      1200.1601      1714.673       2793.787      -4356.7528      0              429.61284      15006.088     -14387.248     -116.16924      46908.765      36.064895      36.064895      36.064895      1.7709279     -783.15629      883.38248     -1157.1244    
    151000   151000         455.0964       526.81067      5630.182       5270.9504      4095.4423      1175.5081      1697.7671      2786.5382     -4357.2777      0              431.86327      15001.969     -14385.351     -116.54699      46756.725      36.025888      36.025888      36.025888      1.7766865      998.61311      480.5797       101.23921    
    152000   152000         460.21149      2613.6917      7190.0837      5409.5384      4141.4733      1268.0651      1710.1488      2842.8573     -4369.5052      0              450.45442      15029.349     -14395.239     -116.66011      46711.389      36.01424       36.01424       36.01424       1.7784109      2638.357       4325.0523      877.66576    
    153000   153000         457.18241      1243.3845      6113.2926      5276.1764      4114.2145      1161.9619      1672.7889      2813.7952     -4354.6976      0              398.82005      15038.015     -14406.76      -118.04314      46164.101      35.873036      35.873036      35.873036      1.7994944     -883.92966      172.92212      4441.1612    
    154000   154000         465.3777      -956.92251      4774.9707      5425.1641      4187.9644      1237.1997      1723.8315      2848.0897     -4366.4239      0              408.89043      15014.597     -14391.785     -116.96483      46589.695      35.982938      35.982938      35.982938      1.7830562     -1888.4453     -1658.4663      676.14408    
    155000   155000         456.51377      300.18971      5498.5674      5295.0043      4108.1973      1186.807       1648.9234      2852.0906     -4375.6277      0              426.41333      15024.051     -14389.043     -117.19735      46497.258      35.959125      35.959125      35.959125      1.7866009      1150.971       695.23158     -945.63345    
    156000   156000         467.20111     -747.94899      4930.3483      5434.0771      4204.3734      1229.7037      1734.0933      2850.5281     -4364.2091      0              376.37184      15026.505     -14393.586     -118.00386      46179.469      35.877016      35.877016      35.877016      1.7988956     -401.04964      1539.3606     -3382.158     
    157000   157000         458.12791     -1317.16        4406.8056      5314.5295      4122.7231      1191.8065      1676.0338      2843.276      -4370.1855      0              408.94371      15005.729     -14371.991     -115.32031      47254.084      36.153175      36.153175      36.153175      1.7579865     -2101.4453     -543.11877     -1306.916     
    158000   158000         453.33886     -779.63031      4865.5543      5395.4484      4079.6261      1315.8223      1810.821       2819.9836     -4351.5397      0              411.93865      15016.31      -14391.691     -116.92856      46604.144      35.986658      35.986658      35.986658      1.7825033     -934.66835     -989.42686     -414.7957     
    159000   159000         464.07962      910.93484      6008.6615      5401.7493      4176.2829      1225.4665      1686.0528      2886.8475     -4349.575       0              372.48798      15028.556     -14398.903     -119.28409      45683.841      35.748202      35.748202      35.748202      1.818412      -1546.7989      2187.9072      2091.6963    
    160000   160000         446.71606      1078.0462      6059.184       5325.8575      4020.0271      1305.8303      1708.1364      2905.7584     -4355.8749      0              434.81555      14998.856     -14385.861     -116.83179      46642.748      35.996591      35.996591      35.996591      1.7810281      868.15805      1901.7026      464.27787    
    161000   161000         468.4846      -72.817816      5513.942       5562.8365      4215.9236      1346.913       1766.3795      2895.3564     -4366.4385      0              426.32419      15018.979     -14393.687     -118.35825      46041.199      35.841173      35.841173      35.841173      1.804298      -547.95687      719.18865     -389.68523    
    162000   162000         451.15906      506.04659      5669.3906      5332.4592      4060.01        1272.4492      1723.1578      2876.4222     -4367.8614      0              423.33523      15018.271     -14400.875     -119.36307      45653.616      35.740316      35.740316      35.740316      1.8196159     -890.92716      541.56725      1867.4997    
    163000   163000         461.87702     -353.43432      5128.2228      5368.1116      4156.4616      1211.65        1730.4647      2860.9893     -4360.0509      0              381.15344      14991.995     -14392.902     -117.09001      46539.884      35.97011       35.97011       35.97011       1.7849646     -751.72838      97.948394     -406.52297    
    164000   164000         460.67884     -1696.6645      4257.6238      5396.8313      4145.679       1251.1523      1763.6824      2871.7076     -4337.252       0              326.61325      15032.666     -14406.265     -118.36252      46039.539      35.840742      35.840742      35.840742      1.8043631     -1783.2287     -2158.5326     -1148.2322    
    165000   165000         455.21151     -1477.0799      4331.5854      5328.3681      4096.4782      1231.8899      1726.0248      2901.5198     -4363.8778      0              326.59437      15037.766     -14396.137     -117.76725      46272.252      35.901027      35.901027      35.901027      1.7952885     -3393.5725      856.87867     -1894.5459    
    166000   166000         453.74449      278.70679      5433.4314      5247.4985      4083.2764      1164.2221      1717.4106      2859.169      -4367.8229      0              321.64979      15049.015     -14415.2       -119.12763      45743.845      35.763846      35.763846      35.763846      1.8160267      86.289685      450.67648      299.15419    
    167000   167000         449.99534      132.98954      5299.4784      5211.4378      4049.5376      1161.9002      1713.9293      2853.0843     -4347.5788      0              309.79172      15053.493     -14420.819     -120.04822      45393.056      35.672193      35.672193      35.672193      1.8300606     -1987.2053      1040.7944      1345.3795    
    168000   168000         462.27676      2608.957       7152.4027      5409.0762      4160.0588      1249.0174      1677.9652      2926.2276     -4353.6801      0              369.19576      15038.972     -14409.663     -118.93488      45817.977      35.783156      35.783156      35.783156      1.8130884      1125.5349      3281.2832      3420.0529    
    169000   169000         455.99026     -710.89212      4814.7321      5288.8848      4103.4863      1185.3985      1714.0097      2835.5302     -4369.6886      0              384.79917      15033.98      -14413.232     -119.15344      45733.934      35.761263      35.761263      35.761263      1.8164202      82.805115     -1255.3751     -960.10637    
    170000   170000         458.49314     -1180.9372      4576.4065      5366.4662      4126.0098      1240.4564      1741.3768      2859.0454     -4360.5684      0              363.47889      15039.552     -14402.428     -118.7922       45873.007      35.797476      35.797476      35.797476      1.8109134     -1098.9715     -1972.2701     -471.57001    
    171000   171000         456.08097     -620.37171      4876.3115      5292.504       4104.3026      1188.2015      1686.1931      2825.0955     -4359.5188      0              417.47648      15010.892     -14391.937     -118.4619       46000.912      35.830715      35.830715      35.830715      1.8058782     -1385.347       160.34407     -636.11222    
    172000   172000         465.13879      111.93869      5381.3064      5306.7415      4185.8145      1120.927       1684.8397      2780.3983     -4370.8882      0              397.76666      15037.397     -14408.587     -119.30736      45674.933      35.745878      35.745878      35.745878      1.8187666     -311.41282      242.4627       404.7662     
    173000   173000         468.70525      962.44675      6069.9735      5427.0375      4217.9092      1209.1282      1725.8241      2786.886      -4361.9808      0              455.08526      14999.015     -14395.702     -118.96795      45805.24       35.779839      35.779839      35.779839      1.8135926      2864.2164      1739.3305     -1716.2067    
    174000   174000         462.64736      523.40761      5848.7862      5496.7323      4163.3939      1333.3383      1765.0821      2885.5235     -4351.2647      0              423.39209      15015.378     -14404.772     -118.15495      46120.419      35.861717      35.861717      35.861717      1.8011988     -1771.1792      1718.3457      1623.0564    
    175000   175000         457.01714     -765.24194      4860.189       5365.9057      4112.7272      1253.1785      1754.9131      2824.4094     -4341.1802      0              412.46295      15011.93      -14409.357     -120.2576       45314.023      35.651478      35.651478      35.651478      1.8332525     -1267.0517     -1340.5453      311.87115    
    176000   176000         449.89997      1429.1376      6163.6075      5211.3764      4048.6793      1162.6971      1664.9824      2811.7878     -4358.2694      0              412.88817      15036.42      -14405.112     -119.27592      45686.974      35.749019      35.749019      35.749019      1.8182873      3662.0818     -79.354295      704.68548    
    177000   177000         452.50533      493.40222      5708.2188      5380.193       4072.1251      1308.0678      1696.1745      2881.5672     -4343.1738      0              458.21487      15017.467     -14402.182     -119.54024      45585.95       35.72265       35.72265       35.72265       1.8223168      911.66398      846.56877     -278.02607    
    178000   178000         466.41818      45.663671      5499.0791      5468.4562      4197.3277      1271.1284      1681.8805      2909.6316     -4342.1438      0              403.03311      15013.537     -14394.81      -118.50719      45983.333      35.826151      35.826151      35.826151      1.8065685      1533.983      -690.38503     -706.60695    
    179000   179000         462.15168      1098.9177      6086.8473      5361.0263      4158.9333      1202.093       1712.4476      2880.3276     -4371.9578      0              366.62681      15030.822     -14416.173     -120.32521      45288.56       35.644799      35.644799      35.644799      1.8342832      2517.4534      287.27569      492.02395    
    180000   180000         454.03227     -706.25422      4959.3906      5431.5715      4085.8661      1345.7054      1727.4232      2922.0155     -4341.6808      0              421.30007      15017.761     -14401.113     -118.87037      45842.841      35.789627      35.789627      35.789627      1.812105      -23.10724       103.33264     -2198.9881    
    181000   181000         458.38439      90.141601      5473.7836      5413.1331      4125.0311      1288.102       1699.5235      2893.8352     -4352.098       0              429.23682      15009.784     -14392.179     -118.11698      46135.244      35.865559      35.865559      35.865559      1.80062       -1004.6453      502.6355       772.43461    
    182000   182000         449.3494      -175.19951      5107.2388      5225.7548      4043.7247      1182.0301      1631.2618      2881.6915     -4359.4754      0              402.41093      15013.147     -14387.006     -117.48351      46384.004      35.929906      35.929906      35.929906      1.7909632     -258.4503      -33.64375      -233.50449    
    183000   183000         457.10882      1860.1077      6685.0953      5420.6234      4113.5522      1307.0712      1685.8868      2924.6386     -4357.0801      0              422.41962      15016.888     -14385.682     -116.90954      46611.729      35.98861       35.98861       35.98861       1.7822133      3466.5905      1665.8771      447.85571    
    184000   184000         476.93818      650.2936       5948.5083      5505.5322      4291.9979      1213.5343      1705.2477      2868.0721     -4358.4578      0              357.29445      15034.38      -14393.002     -116.66759      46708.393      36.013471      36.013471      36.013471      1.778525      -1356.8872      2746.8984      560.86961    
    185000   185000         463.16427      1694.6732      6417.0228      5287.0374      4168.0456      1118.9918      1609.204       2832.8274     -4358.8418      0              424.86649      15016.794     -14405.858     -119.18844      45720.504      35.757763      35.757763      35.757763      1.8169538      3336.1808      1089.0666      658.77216    
    186000   186000         464.39182     -83.546425      5312.7472      5369.2022      4179.0924      1190.1098      1678.6225      2882.2473     -4357.2297      0              366.50928      15011.004     -14391.043     -117.61062      46333.875      35.916958      35.916958      35.916958      1.7929008     -1670.421       1488.2506     -68.468824    
    187000   187000         452.1207      -502.19936      4871.0627      5207.3821      4068.6638      1138.7183      1643.8333      2855.86       -4378.7501      0              398.30677      15009.243     -14389.775     -118.67119      45919.788      35.80964       35.80964       35.80964       1.8090685     -1071.684      -93.588445     -341.32559    
    188000   188000         479.3149       404.00221      5892.7026      5619.8727      4313.3862      1306.4866      1644.3672      2960.1237     -4357.2771      0              430.7254       15013.837     -14385.289     -117.68278      46305.464      35.909615      35.909615      35.909615      1.7940009      1266.2155      802.01723     -856.22611    
    189000   189000         457.09554      525.66932      5681.5673      5330.5008      4113.4327      1217.0681      1681.2231      2880.9258     -4360.9818      0              395.36237      15018.299     -14397.761     -118.99928      45793.182      35.7767        35.7767        35.7767        1.8140701     -246.16573      786.27859      1036.8951    
    190000   190000         456.34787      165.73448      5352.4658      5241.3673      4106.7044      1134.6629      1657.0326      2796.5946     -4375.2269      0              419.95466      15035.651     -14399.343     -118.55661      45964.167      35.821172      35.821172      35.821172      1.8073219     -357.74659      775.51448      79.435542    
    191000   191000         451.73847      1273.9927      6087.2283      5219.7346      4065.2241      1154.5105      1653.3047      2825.3639     -4359.0545      0              406.09466      15014.2       -14385.398     -116.71366      46689.957      36.008732      36.008732      36.008732      1.7792272      1222.4033      1190.1448      1409.43      
    192000   192000         456.77996      158.30164      5546.3762      5440.9513      4110.5928      1330.3585      1740.1728      2938.6423     -4356.566       0              382.35163      15026.571     -14400.813     -119.33375      45664.831      35.743243      35.743243      35.743243      1.8191689      511.26408      199.10209     -235.46124    
    193000   193000         447.60629      2216.0875      6780.0014      5287.6022      4028.0383      1259.5639      1681.2816      2902.9106     -4365.5216      0              431.60781      15003.225     -14393.939     -118.01112      46176.63       35.876281      35.876281      35.876281      1.7990062      1549.4386      3688.8298      1409.994     
    194000   194000         464.09715      179.60984      5433.7483      5314.4538      4176.4407      1138.0132      1633.3864      2844.1211     -4368.1734      0              402.03324      15038.033     -14411.388     -119.65504      45542.215      35.711222      35.711222      35.711222      1.8240668      926.2397      -742.03032      354.62015    
    195000   195000         457.36431      1072.8549      6107.5021      5382.9307      4115.8514      1267.0793      1720.1378      2845.9435     -4345.8397      0              430.07919      15005.407     -14388.649     -117.67409      46308.883      35.910499      35.910499      35.910499      1.7938684     -448.29866      4278.1177     -611.25427    
    196000   196000         451.70488     -845.09788      4577.2908      5143.762       4064.9218      1078.8402      1696.397       2807.2702     -4379.7095      0              337.21867      15013.284     -14395.621     -118.56327      45961.582      35.820501      35.820501      35.820501      1.8074235     -803.60856     -1810.8258      79.140675    
    197000   197000         458.66667     -1693.4943      4221.1671      5344.2655      4127.5715      1216.694       1722.3671      2847.6555     -4358.1446      0              392.04563      15010.266     -14397.496     -119.83591      45473.478      35.693247      35.693247      35.693247      1.826824      -493.33855     -1078.4933     -3508.6509    
    198000   198000         446.14221     -1157.0412      4414.765       5194.1633      4014.863       1179.3003      1705.7393      2839.7627     -4367.2923      0              394.00841      15006.034     -14398.951     -117.98054      46188.596      35.879379      35.879379      35.879379      1.7985401     -1472.4824     -907.76936     -1090.8719    
    199000   199000         466.34704     -210.26469      5285.3903      5426.8691      4196.6876      1230.1815      1682.8738      2911.888      -4354.4063      0              367.34474      15016.965     -14394.483     -118.11251      46136.99       35.866012      35.866012      35.866012      1.8005518     -1301.6754     -653.80793      1324.6893    
    200000   200000         452.09433      611.34742      5602.862       5195.4202      4068.4265      1126.9937      1616.2085      2846.3353     -4358.9131      0              411.57118      15011.954     -14400.162     -119.24592      45698.465      35.752016      35.752016      35.752016      1.8178301      2606.7286     -741.60462     -31.081739    
    201000   201000         463.70003      156.49738      5428.4291      5325.5068      4172.867       1152.6398      1728.5833      2818.0311     -4358.2693      0              348.8314       15030.891     -14415.428     -120.84218      45094.813      35.593896      35.593896      35.593896      1.842164       218.80251     -976.58382      1227.2735    
    202000   202000         443.15202      1761.7589      6346.5532      5177.7254      3987.9541      1189.7714      1607.2981      2903.2453     -4359.1137      0              428.19779      15022.666     -14412.522     -119.78902      45491.28       35.697904      35.697904      35.697904      1.8261092      1997.7653      2527.2969      760.21457    
    203000   203000         442.947       -543.19892      4812.2186      5176.2333      3986.1091      1190.1243      1636.1029      2930.0646     -4371.9512      0              390.25591      14998.843     -14393.191     -118.59354      45949.852      35.817453      35.817453      35.817453      1.8078849      1294.1853     -1369.2119     -1554.5701    
    204000   204000         458.06451     -115.32174      5158.278       5235.7538      4122.1526      1113.6012      1667.8534      2833.6438     -4387.3446      0              385.95827      15008.614     -14395.123     -118.29489      46065.859      35.84757       35.84757       35.84757       1.8033321      504.48276      436.57694     -1287.0249    
    205000   205000         454.44078      489.05364      5650.2623      5317.4743      4089.5424      1227.9319      1724.8139      2833.7423     -4369.4169      0              429.60011      14989.793     -14380.6       -116.79115      46658.977      36.000766      36.000766      36.000766      1.7804086      1153.7464     -955.93575      1269.3502    
    206000   206000         457.63963      137.55744      5218.1355      5125.5461      4118.329       1007.2171      1647.1216      2789.0149     -4374.1418      0              331.80711      15003.176     -14389.76      -118.0711       46153.172      35.870204      35.870204      35.870204      1.7999206     -83.213242      1563.4458     -1067.5603    
    207000   207000         447.39345     -27.199517      5285.3341      5303.9089      4026.123       1277.7859      1713.4591      2963.1484     -4369.3029      0              351.88747      14997.065     -14378.471     -116.3747       46825.946      36.043657      36.043657      36.043657      1.7740601      161.89964      86.087744     -329.58593    
    208000   208000         438.74389     -816.79075      4475.4788      5021.8407      3948.285       1073.5557      1696.2427      2804.7803     -4385.3145      0              343.98189      15020.088     -14406.222     -118.80958      45866.3        35.795731      35.795731      35.795731      1.8111782     -1996.3921     -379.52373     -74.456403    
    209000   209000         454.15806     -1083.3961      4594.1881      5325.9311      4086.9981      1238.933       1682.0345      2928.238      -4369.0228      0              373.07677      15019.856     -14395.25      -117.66566      46312.201      35.911356      35.911356      35.911356      1.7937399     -480.59772     -1825.2716     -944.31901    
    210000   210000         455.53856      405.63938      5440.6212      5167.7484      4099.4213      1068.327       1668.7126      2781.8805     -4383.2702      0              388.95396      15004.877     -14392.826     -118.14107      46125.837      35.863121      35.863121      35.863121      1.8009872      619.30951     -235.81221      833.42084    
    211000   211000         452.22136     -1155.2334      4473.9899      5246.7476      4069.5696      1177.178       1675.6646      2869.4217     -4367.6216      0              368.27298      15024.921     -14393.481     -118.80848      45866.722      35.795841      35.795841      35.795841      1.8111615     -1428.1652      232.22541     -2269.7604    
    212000   212000         459.14851     -234.72754      5190.6087      5348.873       4131.9075      1216.9655      1740.7137      2849.8397     -4381.4152      0              388.78253      15006.708     -14387.663     -117.86969      46232.036      35.890624      35.890624      35.890624      1.7968502     -835.57674      1656.0872     -1524.6931    
    213000   213000         454.23665     -1535.6665      4282.4596      5325.1314      4087.7053      1237.426       1779.0807      2769.8121     -4370.1879      0              465.08615      14971.205     -14377.57      -117.0497       46555.913      35.974239      35.974239      35.974239      1.78435       -2971.9857     -637.69349     -997.32035    
    214000   214000         461.48495     -2064.9856      4003.7925      5419.5409      4152.9333      1266.6076      1755.2681      2841.7256     -4366.2924      0              409.41517      15007.167     -14380.676     -115.91829      47010.315      36.090901      36.090901      36.090901      1.7671024     -4471.8695     -556.67803     -1166.4093    
    215000   215000         454.44221     -1428.1926      4248.0275      5203.7783      4089.5552      1114.2231      1717.2197      2791.5232     -4363.3494      0              367.93574      14999.82      -14398.926     -118.75808      45886.19       35.800905      35.800905      35.800905      1.8103931     -225.55689     -637.52343     -3421.4975    
    216000   216000         465.955       -352.09504      5163.3276      5401.2496      4193.1596      1208.09        1697.4537      2905.9723     -4352.7237      0              320.66836      15025.434     -14388.714     -117.61055      46333.9        35.916964      35.916964      35.916964      1.7928998     -1727.5395      1152.4992     -481.24482    
    217000   217000         446.05909     -224.24395      5095.2502      5245.8685      4014.115       1231.7535      1726.4018      2825.536      -4361.7485      0              419.96823      15013.954     -14392.358     -118.32158      46055.466      35.844874      35.844874      35.844874      1.8037391      324.68989      317.74097     -1315.1627    
    218000   218000         440.83477     -146.57972      5022.8551      5120.6125      3967.101       1153.5115      1728.0947      2802.0396     -4382.736       0              405.26863      14994.811     -14393.966     -119.16414      45729.828      35.760193      35.760193      35.760193      1.8165833     -1148.111       1941.9256     -1233.5538    
    219000   219000         449.58186     -410.97966      5037.4871      5316.5743      4045.8166      1270.7577      1735.3697      2847.3705     -4370.6695      0              446.45999      14996.003     -14383.776     -117.03112      46563.303      35.976142      35.976142      35.976142      1.7840668     -1153.5932     -467.56882      388.22302    
    220000   220000         443.27782     -665.01938      4763.0401      5212.2064      3989.0862      1223.1202      1754.1499      2852.1963     -4366.0074      0              356.1224       15014.512     -14387.853     -117.66525      46312.361      35.911398      35.911398      35.911398      1.7937337      496.97497     -2377.5296     -114.50348    
    221000   221000         451.64596      879.11621      5772.8189      5184.2585      4064.3916      1119.867       1595.1662      2890.7356     -4362.489       0              375.59437      15014.922     -14394.062     -118.70699      45905.936      35.806039      35.806039      35.806039      1.8096144      94.532758      2025.7832      517.03272    
    222000   222000         462.11012      953.45141      5944.6835      5310.6483      4158.5592      1152.0891      1681.7349      2806.921      -4359.9074      0              423.43848      15004.665     -14404.763     -119.51056      45597.274      35.725608      35.725608      35.725608      1.8218643      582.75973      1648.1631      629.43138    
    223000   223000         458.52397     -271.90219      5211.1109      5398.0282      4126.2872      1271.7409      1712.8383      2928.739      -4368.0127      0              397.57012      14973.569     -14372.963     -115.60707      47136.872      36.123259      36.123259      36.123259      1.762358      -127.36972     -1778.1973      1089.8605    
    224000   224000         463.73121      369.47582      5455.3399      5208.7691      4173.1475      1035.6216      1580.8766      2904.86       -4382.7628      0              315.38767      15013.229     -14395.969     -119.08728      45759.34       35.767884      35.767884      35.767884      1.8154117      1908.5956     -673.55207     -126.61605    
    225000   225000         457.94179      26.513558      5329.3426      5311.6775      4121.0482      1190.6293      1702.9645      2888.8531     -4379.7025      0              368.56002      15015.417     -14405.463     -119.28181      45684.717      35.748431      35.748431      35.748431      1.8183771     -922.05706      473.19455      528.40319    
    226000   226000         457.18511     -1897.7534      4019.2677      5296.2756      4114.2388      1182.0368      1720.7577      2883.6584     -4377.6302      0              353.51696      14993.394     -14391.66      -118.10471      46140.035      35.866801      35.866801      35.866801      1.800433       745.88573     -3251.2703     -3187.8755    
    227000   227000         443.08355      56.061583      5184.326       5146.4587      3987.3379      1159.1209      1715.2226      2815.3674     -4380.3112      0              403.39177      14991.578     -14386.128     -117.65823      46315.123      35.912112      35.912112      35.912112      1.7936267     -310.09276      477.61138      0.6661358    
    228000   228000         451.98129     -342.61683      4915.8169      5142.7713      4067.4092      1075.362       1681.2895      2761.2053     -4359.6632      0              388.85933      15005.37      -14401.699     -119.9751       45420.721      35.679438      35.679438      35.679438      1.8289459     -724.4709       934.64386     -1238.0234    
    229000   229000         459.12552      2158.6915      6740.8863      5287.4934      4131.7006      1155.7928      1649.6668      2815.4733     -4346.4839      0              446.77505      14988.821     -14398.46      -118.03984      46165.394      35.873371      35.873371      35.873371      1.799444       1640.5479      3892.6529      942.87371    
    230000   230000         463.43399     -80.778864      5283.9404      5338.5398      4170.4729      1168.067       1669.2641      2847.1597     -4361.7674      0              409.46337      14994.198     -14390.251     -117.57929      46346.218      35.920147      35.920147      35.920147      1.7924233      1781.0673     -395.20942     -1628.1945    
    231000   231000         438.72177     -508.9568       4741.3071      5082.5726      3948.0859      1134.4867      1697.457       2840.762      -4361.9599      0              355.43075      14995.235     -14392.438     -118.52489      45976.468      35.824368      35.824368      35.824368      1.8068383     -1400.6083     -1463.1335      1336.8714    
    232000   232000         456.82295      701.47666      5734.7812      5266.1254      4110.9796      1155.1457      1713.8476      2810.7917     -4359.2121      0              390.91142      14990.018     -14391.211     -118.95433      45810.484      35.781205      35.781205      35.781205      1.813385       1259.7376      367.97557      476.7168     
    233000   233000         450.5042       1553.5795      6179.8554      5151.0842      4054.1169      1096.9674      1672.9949      2854.5706     -4377.1615      0              326.60813      15027.535     -14407.58      -120.01506      45405.599      35.675478      35.675478      35.675478      1.829555       995.25098      1090.1072      2575.3802    
    234000   234000         444.5109       1249.5435      5977.2491      5145.8548      4000.1827      1145.672       1670.5517      2792.4271     -4365.2063      0              476.34257      14972.783     -14401.226     -119.44428      45622.575      35.732214      35.732214      35.732214      1.8208539      1602.6491     -221.16188      2367.1432    
    235000   235000         453.26117      839.79988      5824.0218      5272.1471      4078.927       1193.2202      1700.0387      2898.5994     -4368.9958      0              348.54871      15034.576     -14419.547     -120.93623      45059.745      35.584667      35.584667      35.584667      1.8435977      207.55494      2279.1441      32.700562    
    236000   236000         442.93471      848.77751      5687.4258      5116.2242      3985.9985      1130.2257      1674.4391      2843.6279     -4374.3699      0              381.52411      14988.408     -14383.403     -118.09337      46144.466      35.867949      35.867949      35.867949      1.8002601     -1227.0078      2125.0846      1648.2557    
    237000   237000         452.92521      4.5446748      5224.3923      5221.333       4075.9036      1145.4293      1667.6595      2833.8823     -4375.9239      0              416.9121       14988.448     -14385.549     -118.0574       46158.527      35.871592      35.871592      35.871592      1.7997117      239.84066      447.91042     -674.11705    
    238000   238000         455.35091     -509.7879       4942.6853      5283.7089      4097.7327      1185.9762      1705.5353      2802.9489     -4372.8178      0              467.31323      14973.929     -14390.933     -118.80267      45868.965      35.796424      35.796424      35.796424      1.811073      -418.26275     -590.12812     -520.97283    
    239000   239000         450.47429      578.86234      5516.3586      5132.4294      4053.8477      1078.5817      1649.6944      2822.5289     -4365.3105      0              371.84131      14999.148     -14399.32      -119.82438      45477.854      35.694392      35.694392      35.694392      1.8266483      1411.7189      399.33609     -74.467977    
    240000   240000         441.39077      776.14114      5543.7063      5024.9254      3972.1044      1052.821       1633.4802      2904.6105     -4384.8714      0              270.421        15029.072     -14399.891     -118.89889      45831.847      35.786766      35.786766      35.786766      1.8125397      862.96973      1755.4349     -289.98115    
    241000   241000         454.52416      1141.8638      5960.4569      5191.0689      4090.2927      1100.7762      1649.7933      2838.8427     -4372.5222      0              364.82064      15017.101     -14397.259     -117.94783      46201.405      35.882696      35.882696      35.882696      1.7980415      2393.9373      326.54584      705.10843    
    242000   242000         446.66325     -888.40614      4491.0666      5076.4114      4019.5519      1056.8595      1722.1225      2778.2333     -4375.3926      0              333.16273      15010.826     -14412.092     -120.62041      45177.725      35.615697      35.615697      35.615697      1.8387832     -437.17784     -2111.1903     -116.85027    
    243000   243000         455.0431      -99.318433      5162.1677      5229.1495      4094.9627      1134.1868      1677.6063      2860.5054     -4372.4118      0              359.87048      14997.859     -14389.243     -117.8404       46243.526      35.893597      35.893597      35.893597      1.7964037      128.04164     -344.78429     -81.21265     
    244000   244000         445.46395     -610.98146      4733.72        5137.8102      4008.7593      1129.0509      1653.562       2852.1899     -4359.5847      0              383.20712      15002.922     -14403.245     -120.16301      45349.693      35.66083       35.66083       35.66083       1.8318105     -881.20373      381.19485     -1332.9355    
    245000   245000         444.62608      402.65458      5460.0866      5194.1145      4001.2193      1192.8952      1653.8024      2897.6556     -4363.0547      0              394.48367      15014.305     -14404.296     -120.31437      45292.643      35.64587       35.64587       35.64587       1.8341178      786.78181      329.58799      91.593954    
    246000   246000         446.92667     -1049.1511      4347.4922      5050.6512      4021.9224      1028.7289      1612.0874      2810.1062     -4393.6846      0              387.67043      15008.526     -14395.977     -118.57838      45955.726      35.81898       35.81898       35.81898       1.8076538     -634.46946     -1694.4799     -818.50388    
    247000   247000         449.25281      694.19012      5664.0466      5208.6922      4042.8555      1165.8367      1625.929       2904.404      -4373.046       0              388.89428      15033.708     -14414.053     -121.15739      44977.493      35.563002      35.563002      35.563002      1.8469692      1212.3523      971.74445     -101.5264     
    248000   248000         455.1652      -1038.5746      4589.259       5285.6393      4096.0615      1189.5779      1730.4891      2881.9978     -4358.699       0              334.5755       14998.716     -14397.501     -118.52563      45976.179      35.824293      35.824293      35.824293      1.8068496     -805.12548      399.69813     -2710.2965    
    249000   249000         446.05691     -1139.5091      4277.54        5042.5089      4014.0954      1028.4136      1599.4499      2827.3838     -4370.7784      0              384.05237      14977.797     -14389.491     -118.38456      46030.965      35.838517      35.838517      35.838517      1.8046991     -2918.3472     -543.95878      43.778675    
    250000   250000         453.11242     -1.9445657      5244.3108      5245.6115      4077.5883      1168.0232      1704.2725      2841.4429     -4369.4457      0              400.11479      14984.635     -14392.997     -118.80706      45867.269      35.795983      35.795983      35.795983      1.8111399      1518.5395     -1424.0118     -100.36142    
Loop time of 520.764 on 1 procs for 250000 steps with 3020 atoms

Performance: 41.477 ns/day, 0.579 hours/ns, 480.064 timesteps/s, 1.450 Matom-step/s
100.0% CPU use with 1 MPI tasks x 1 OpenMP threads

MPI task timing breakdown:
Section |  min time  |  avg time  |  max time  |%varavg| %total
---------------------------------------------------------------
Pair    | 137.37     | 137.37     | 137.37     |   0.0 | 26.38
Bond    | 34.899     | 34.899     | 34.899     |   0.0 |  6.70
Kspace  | 231.36     | 231.36     | 231.36     |   0.0 | 44.43
Neigh   | 13.961     | 13.961     | 13.961     |   0.0 |  2.68
Comm    | 3.1919     | 3.1919     | 3.1919     |   0.0 |  0.61
Output  | 1.4899     | 1.4899     | 1.4899     |   0.0 |  0.29
Modify  | 66.861     | 66.861     | 66.861     |   0.0 | 12.84
Other   |            | 31.63      |            |       |  6.07

Nlocal:           3020 ave        3020 max        3020 min
Histogram: 1 0 0 0 0 0 0 0 0 0
Nghost:          10316 ave       10316 max       10316 min
Histogram: 1 0 0 0 0 0 0 0 0 0
Neighs:              0 ave           0 max           0 min
Histogram: 1 0 0 0 0 0 0 0 0 0
FullNghs:  1.25925e+06 ave 1.25925e+06 max 1.25925e+06 min
Histogram: 1 0 0 0 0 0 0 0 0 0

Total # of neighbors = 1259254
Ave neighs/atom = 416.97152
Ave special neighs/atom = 11.86755
Neighbor list builds = 3041
Dangerous builds = 0
System init for write_data ...
PPPM Kokkos initialization ...
  using 12-bit tables for long-range coulomb
  G vector (1/distance) = 0.32807674
  grid = 36 36 36
  stencil order = 5
  estimated absolute RMS force accuracy = 0.00039023455
  estimated relative force accuracy = 1.1751797e-06
  using double precision cuFFT
  3d grid and FFT values/proc = 79507 46656
Generated 3 of 3 mixed pair_coeff terms from geometric mixing rule
System init for write_restart ...
PPPM Kokkos initialization ...
  using 12-bit tables for long-range coulomb
  G vector (1/distance) = 0.32807674
  grid = 36 36 36
  stencil order = 5
  estimated absolute RMS force accuracy = 0.00039023455
  estimated relative force accuracy = 1.1751797e-06
  using double precision cuFFT
  3d grid and FFT values/proc = 79507 46656
Generated 3 of 3 mixed pair_coeff terms from geometric mixing rule
STAGE COMPLETE: NPT T=475.0->450.0K P=1.0->1.0atm steps=250000
