Authorization required, but no authorization protocol specified

Authorization required, but no authorization protocol specified

Authorization required, but no authorization protocol specified

Authorization required, but no authorization protocol specified

LAMMPS (22 Jul 2025 - Update 3)
KOKKOS mode with Kokkos version 4.6.2 is enabled
  will use up to 1 GPU(s) per node
  using 1 OpenMP thread(s) per MPI task
Reading data file ...
  orthogonal box = (4.5616328 4.5616328 4.5616328) to (49.722237 49.722237 49.722237)
  1 by 1 by 1 MPI processor grid
  reading atoms ...
  7860 atoms
  reading velocities ...
  7860 velocities
  scanning bonds ...
  4 = max bonds/atom
  scanning angles ...
  14 = max angles/atom
  scanning dihedrals ...
  34 = max dihedrals/atom
  scanning impropers ...
  11 = max impropers/atom
  orthogonal box = (4.5616328 4.5616328 4.5616328) to (49.722237 49.722237 49.722237)
  1 by 1 by 1 MPI processor grid
  reading bonds ...
  8340 bonds
  reading angles ...
  14700 angles
  reading dihedrals ...
  23430 dihedrals
  reading impropers ...
  6860 impropers
Finding 1-2 1-3 1-4 neighbors ...
  special bond factors lj:    0        0        1       
  special bond factors coul:  0        0        1       
     4 = max # of 1-2 neighbors
     8 = max # of 1-3 neighbors
    12 = max # of special neighbors
  special bonds CPU = 0.004 seconds
  read_data CPU = 0.284 seconds
PPPM Kokkos initialization ...
  using 12-bit tables for long-range coulomb
  G vector (1/distance) = 0.29491684
  grid = 30 30 30
  stencil order = 5
  estimated absolute RMS force accuracy = 0.00039539915
  estimated relative force accuracy = 1.1907328e-06
  using double precision cuFFT
  3d grid and FFT values/proc = 50653 27000
Generated 6 of 6 mixed pair_coeff terms from sixthpower/sixthpower mixing rule
Neighbor list info ...
  update: every = 1 steps, delay = 0 steps, check = yes
  max neighbors/atom: 4000, page size: 100000
  master list distance cutoff = 11.5
  ghost atom cutoff = 11.5
  binsize = 11.5, bins = 4 4 4
  1 neighbor lists, perpetual/occasional/extra = 1 0 0
  (1) pair lj/class2/coul/long/kk, perpetual
      attributes: full, newton off, kokkos_device
      pair build: full/bin/kk/device
      stencil: full/bin/3d
      bin: kk/device
Setting up Verlet run ...
  Unit style    : real
  Current step  : 0
  Time step     : 1
Per MPI rank memory allocation (min/avg/max) = 46.03 | 46.03 | 46.03 Mbytes
   Step          Time           Temp          Press         Enthalpy        TotEng         KinEng         PotEng         E_bond        E_angle        E_dihed        E_impro         E_vdwl         E_coul         E_long         E_tail         Volume           Lx             Ly             Lz          Density          Pxx            Pyy            Pzz      
         0   0              475.99286      156.83498      20508.36       20297.692      11150.697      9146.995       5087.0679      4661.4053     -1608.4615      394.49277      722.93635      4612.7598     -4723.2056     -468.40785      92104.16       45.160605      45.160605      45.160605      0.92046871    -638.4667       151.73879      957.23283    
      1000   1000           467.12249     -1573.9558      17910.686      19995.375      10942.898      9052.4767      5055.0017      4562.8262     -1548.8812      402.12442      696.69315      4613.9472     -4729.2348     -475.04037      90818.2        44.949441      44.949441      44.949441      0.93350229    -95.852731     -1856.4978     -2769.5169    
      2000   2000           483.30759      70.50257       20359.993      20266.472      11322.054      8944.4182      5038.7777      4525.6154     -1659.626       396.19051      761.06923      4608.0404     -4725.6491     -474.32287      90955.578      44.972094      44.972094      44.972094      0.93209233     3.1752553     -1012.6226      1220.9551    
      3000   3000           471.90958      1612.6556      22045.894      19917.459      11055.042      8862.4168      4995.0809      4586.3894     -1736.1609      382.81407      751.11832      4614.5717     -4731.3967     -476.71682      90498.823      44.896689      44.896689      44.896689      0.93679668     2750.3656      1950.6882      136.91313    
      4000   4000           478.36361     -141.31233      19867.449      20056.197      11206.235      8849.9618      4895.1216      4515.2906     -1569.7554      385.66325      731.49821      4615.9757     -4723.8323     -471.06065      91585.47       45.07567       45.07567       45.07567       0.92568173    -275.06011      157.42432     -306.30119    
      5000   5000           478.39624     -45.453818      19984.596      20044.626      11206.999      8837.6268      5063.8988      4529.0158     -1714.1015      391.92021      678.49397      4615.2115     -4726.812      -476.40709      90557.659      44.906416      44.906416      44.906416      0.93618804     194.69334     -1136.7405      805.68575    
      6000   6000           476.2019      -781.23094      19163.949      20221.193      11155.594      9065.5988      5005.1331      4657.6698     -1637.6345      393.90041      773.60221      4597.4676     -4724.5398     -464.92539      92794.052      45.273081      45.273081      45.273081      0.91362534    -607.77397      527.04395     -2262.9628    
      7000   7000           465.97874     -774.31533      18871.184      19896.273      10916.105      8980.1683      4967.7016      4580.5504     -1593.5801      395.73496      746.14689      4612.2195     -4728.6049     -475.26497      90775.281      44.942359      44.942359      44.942359      0.93394365    -818.01766     -224.30852     -1280.6198    
      8000   8000           480.55402      838.23765      21331.376      20210.029      11257.548      8952.4814      4980.7515      4500.1767     -1571.9761      401.98799      753.02035      4616.4005     -4727.8796     -470.33428      91726.911      45.098863      45.098863      45.098863      0.92425435    -313.50907      1816.1256      1012.0964    
      9000   9000           475.43438      983.58365      21420.214      20116.238      11137.614      8978.6234      5071.4796      4576.7784     -1702.3836      387.7062       783.93881      4593.2466     -4732.1426     -474.59256      90903.893      44.963574      44.963574      44.963574      0.93262229    -69.326854      224.57827      2795.4995    
     10000   10000          469.20446      1217.0118      21574.991      19946.232      10991.671      8954.5612      5099.5919      4467.1121     -1682.2373      406.25265      787.31684      4604.8519     -4728.3268     -470.12941      91766.883      45.105413      45.105413      45.105413      0.92385177     374.28288      2305.1782      971.57444    
     11000   11000          474.87556      1382.5412      21885.58       20051.8        11124.523      8927.277       5084.2707      4498.734      -1717.1382      389.04194      802.11996      4598.7179     -4728.4693     -474.36238      90948.003      44.970846      44.970846      44.970846      0.93216996     321.56799      1842.7128      1983.3428    
     12000   12000          465.62707     -749.03124      18855.448      19851.343      10907.866      8943.4766      5070.4782      4500.5241     -1617.7841      399.21911      719.07542      4603.6653     -4731.7015     -473.22274      91167.028      45.006917      45.006917      45.006917      0.92993047    -1300.3924     -102.51178     -844.18955    
     13000   13000          471.7646      -1082.0338      18524.018      19968.131      11051.645      8916.4856      5104.3052      4487.5869     -1673.1253      387.5911       740.2448       4596.6994     -4726.8165     -471.43208      91513.313      45.063829      45.063829      45.063829      0.92641163    -1806.2104     -1942.1169      502.2258     
     14000   14000          473.58126     -223.78884      19914.11       20210.237      11094.203      9116.0344      5074.005       4636.9242     -1585.2671      401.505        717.32672      4603.3201     -4731.7794     -475.48854      90732.599      44.935314      44.935314      44.935314      0.93438299    -1436.2437      1282.6118     -517.73462    
     15000   15000          472.01814      579.88509      20788.87       20023.135      11057.585      8965.5498      4986.1561      4741.358      -1702.7894      400.72475      669.8039       4611.0997     -4740.8033     -476.47769      90544.241      44.904198      44.904198      44.904198      0.93632677     314.47212      1579.1446     -153.9614     
     16000   16000          475.59835     -1081.2394      18602.735      20039.761      11141.456      8898.306       5039.5753      4494.2622     -1622.3783      397.23748      712.64759      4606.0383     -4729.0767     -473.40892      91131.175      45.001016      45.001016      45.001016      0.93029632     682.96184     -2294.2437     -1632.4365    
     17000   17000          482.08364      269.33096      20586.43       20228.789      11293.381      8935.4083      5029.1786      4516.1885     -1588.67        391.54168      706.03138      4610.5792     -4729.441      -473.82571      91051.013      44.987818      44.987818      44.987818      0.93111537    -523.63723      1212.0918      119.53828    
     18000   18000          470.5242       620.01475      20801.616      19973.837      11022.587      8951.2497      5044.7948      4559.3077     -1659.0262      386.95957      753.67721      4594.6355     -4729.0989     -471.26689      91545.39       45.069094      45.069094      45.069094      0.92608702    -1212.0327      3006.0642      66.012687    
     19000   19000          470.06675      361.65116      20247.409      19768.47       11011.871      8756.5987      4883.2231      4576.0727     -1657.886       388.41661      681.13881      4611.2298     -4725.5964     -475.10436      90805.967      44.947423      44.947423      44.947423      0.93362804     1068.3296     -17.973931      34.597829    
     20000   20000          468.86687     -1411.5316      18182.063      20045.378      10983.762      9061.6159      5059.6038      4573.6802     -1562.3724      397.27309      718.07751      4606.9636     -4731.6099     -476.63237      90514.857      44.89934       44.89934       44.89934       0.93663074     49.657303     -918.7917      -3365.4603    
     21000   21000          463.35351     -496.77689      19153.276      19817.484      10854.606      8962.8783      5049.568       4591.5048     -1686.7033      396.16595      735.15578      4602.1985     -4725.0114     -470.58319      91678.393      45.09091       45.09091       45.09091       0.92474349     152.9928       541.16202     -2184.4855    
     22000   22000          473.1314       136.47357      20175.919      19995.689      11083.664      8912.0249      5123.3695      4448.4298     -1650.2815      396.38939      732.30047      4595.8326     -4734.0153     -476.43246      90552.838      44.905619      44.905619      44.905619      0.93623788     754.27417     -115.19707     -229.6564     
     23000   23000          473.68277      509.30363      20864.878      20185.482      11096.581      9088.9016      5118.0767      4538.2972     -1645.0453      396.66408      791.82073      4612.0746     -4722.9864     -471.66445      91468.227      45.056427      45.056427      45.056427      0.92686827    -290.71369      741.88075      1076.7438    
     24000   24000          466.05395      533.01177      20486.968      19777.735      10917.867      8859.8678      5065.4511      4442.3995     -1693.3575      380.61502      783.57335      4610.849      -4729.6626     -472.85397      91238.128      45.018614      45.018614      45.018614      0.9292058     -176.67087      1053.5337      722.17251    
     25000   25000          471.57593     -65.21136       20046.14       20132.864      11047.226      9085.6382      5058.3242      4605.5643     -1585.4916      402.13011      722.51283      4613.0125     -4730.4142     -473.11456      91187.874      45.010347      45.010347      45.010347      0.92971788     1071.173       767.06628     -2033.8734    
     26000   26000          466.17412     -249.95841      19395.626      19729.001      10920.682      8808.3194      4904.6191      4514.9313     -1602.5726      403.39448      706.39194      4606.2899     -4724.7347     -471.75185      91451.281      45.053645      45.053645      45.053645      0.92704001     1562.1297     -1648.8658     -663.13917    
     27000   27000          481.67134     -1092.819       18740.581      20210.09       11283.722      8926.3678      5093.9002      4529.8047     -1663.8903      387.48067      698.68146      4601.4454     -4721.0544     -467.90246      92203.643      45.176858      45.176858      45.176858      0.91947557    -111.77603     -2940.2879     -226.39311    
     28000   28000          471.38071     -529.89533      19329.276      20029.386      11042.652      8986.7332      5077.0433      4604.0928     -1625.9625      396.26908      653.36763      4610.3522     -4728.4292     -476.21563      90594.068      44.912434      44.912434      44.912434      0.93581179    -426.90562     -500.02921     -662.75115    
     29000   29000          468.197       -105.9441       19680.313      19821.861      10968.07       8853.7911      5003.7289      4551.5809     -1721.6243      387.64432      744.57707      4615.0872     -4727.203      -470.92591      91611.675      45.079969      45.079969      45.079969      0.92541695    -429.53718      842.26611     -730.56125    
     30000   30000          466.76954     -558.15092      19030.732      19771.232      10934.63       8836.6013      5067.2717      4593.8096     -1724.0841      366.91494      656.30754      4607.3861     -4731.0045     -474.24881      90969.783      44.974435      44.974435      44.974435      0.93194679    -661.71727     -708.52687     -304.20861    
     31000   31000          469.4782       961.86843      21177.102      19885.896      10998.084      8887.812       5018.1832      4517.0889     -1696.9901      403.57935      749.40914      4622.0647     -4725.5232     -468.70478      92045.809      45.151066      45.151066      45.151066      0.92105222     2250.9443      766.76894     -132.10798    
     32000   32000          470.58938      49.033729      20054.855      19990.473      11024.114      8966.3584      5110.3808      4548.8156     -1644.4013      397.68102      683.3843       4607.0215     -4736.5235     -479.19053      90031.643      44.819299      44.819299      44.819299      0.94165777    -712.721       -233.70365      1093.5258    
     33000   33000          468.96903      2414.3556      23195.003      19956.885      10986.156      8970.7294      5054.9367      4517.6602     -1707.4303      398.88171      828.96099      4609.1824     -4731.4623     -469.12428      91963.501      45.137604      45.137604      45.137604      0.92187657     3262.8013      1574.3043      2405.9614    
     34000   34000          464.31375     -295.37987      19298.753      19688.748      10877.1        8811.6481      5111.6446      4409.5575     -1674.3747      390.24976      692.19622      4613.4269     -4731.0522     -476.54097      90532.218      44.90221       44.90221       44.90221       0.93645112    -447.56408      159.48089     -598.05643    
     35000   35000          473.74553      886.46444      21060.185      19883.355      11098.051      8785.3039      5002.296       4529.7398     -1720.4914      381.83562      703.07027      4619.1688     -4730.3152     -473.94386      91028.315      44.984079      44.984079      44.984079      0.93134754    -13.537348      1604.2686      1068.662     
     36000   36000          477.08722      1012.7127      21485.299      20118.712      11176.334      8942.3775      5210.3074      4461.2247     -1768.4181      387.01888      760.85337      4618.503      -4727.1117     -466.25983      92528.475      45.229849      45.229849      45.229849      0.91624764     2816.4406     -441.71368      663.41115    
     37000   37000          464.35552     -1185.4032      18171.527      19756.779      10878.079      8878.6999      5025.911       4439.153      -1567.0637      381.30477      712.84863      4617.0084     -4730.4622     -470.48659      91697.218      45.093996      45.093996      45.093996      0.92455365    -1781.8973     -1281.5348     -492.77761    
     38000   38000          481.66921      663.81247      20989.605      20102.613      11283.672      8818.9408      5045.0691      4548.2243     -1817.3219      370.44923      782.31795      4616.1832     -4725.9811     -470.87471      91621.635      45.081603      45.081603      45.081603      0.92531635     2161.307       782.1727      -952.04231    
     39000   39000          465.5837       615.18407      20695.286      19861.185      10906.85       8954.3347      5079.0746      4546.455      -1728.1518      392.04367      768.72461      4616.6783     -4720.4898     -464.05112      92968.875      45.301494      45.301494      45.301494      0.91190731    -702.02942      172.3678       2375.2138    
     40000   40000          468.21856     -369.42504      19401.592      19891.194      10968.575      8922.6192      4943.8495      4618.9381     -1591.9064      391.0247       664.3992       4628.8162     -4732.5022     -474.74724      90874.274      44.95869       44.95869       44.95869       0.93292626     1271.2298     -497.73863     -1881.7663    
     41000   41000          462.9832       1154.2198      21277.051      19733.999      10845.931      8888.0686      5048.4798      4493.5888     -1712.399       392.0041       778.59617      4613.7685     -4725.9697     -470.63826      91667.667      45.089151      45.089151      45.089151      0.92485169     1917.9003      1871.5651     -326.80591    
     42000   42000          469.11301      520.89294      20674.696      19979.476      10989.529      8989.9467      5066.1977      4570.9769     -1712.383       393.49123      784.71435      4617.8834     -4730.9339     -471.41729      91516.183      45.0643        45.0643        45.0643        0.92638258     562.1864       1697.9617     -697.46928    
     43000   43000          470.4398      -1465.6819      17706.671      19650.587      11020.61       8629.9769      4869.4484      4439.7453     -1652.7248      379.28222      709.41665      4615.9055     -4731.0963     -474.39648      90941.466      44.969768      44.969768      44.969768      0.93223697    -2121.6836     -935.95518     -1339.4068    
     44000   44000          465.71806     -59.795666      19612.891      19692.06       10909.998      8782.0618      5103.3978      4499.1703     -1788.4346      376.04907      719.93611      4606.7309     -4734.7877     -475.22203      90783.484      44.943713      44.943713      44.943713      0.93385926    -1326.1753     -552.17166      1698.9599    
     45000   45000          466.72529      517.15585      20526.381      19838.148      10933.593      8904.5543      5011.3211      4590.5741     -1693.4438      378.95974      736.68965      4609.27       -4728.8164     -472.7867       91251.11       45.020749      45.020749      45.020749      0.92907359     2061.8958     -51.055057     -459.37314    
     46000   46000          472.98249     -472.42689      19342.597      19972.263      11080.176      8892.0872      5024.5383      4533.4458     -1625.2238      403.47329      655.28764      4629.9594     -4729.3935     -472.06672      91390.284      45.043626      45.043626      45.043626      0.92765876     20.728302     -1459.6459      21.636922    
     47000   47000          472.14869     -312.03547      19542.18       19957.607      11060.643      8896.9639      5001.2546      4569.563      -1701.4996      378.20007      758.18443      4617.6192     -4726.3579     -472.59457      91288.206      45.026849      45.026849      45.026849      0.92869605    -2242.958       1251.6873      55.164257    
     48000   48000          462.03182      840.77957      20644.589      19527.453      10823.644      8703.8096      4879.739       4515.7264     -1695.1058      398.84354      708.74994      4626.8989     -4731.0424     -473.53853      91106.231      44.99691       44.99691       44.99691       0.93055103     338.32862      688.71415      1495.296     
     49000   49000          472.43314     -2026.8144      17144.426      19855.169      11067.307      8787.8628      4867.2017      4522.1434     -1602.7132      385.68057      720.93999      4619.2266     -4724.6162     -470.44069      91706.164      45.095462      45.095462      45.095462      0.92446345    -1937.2768     -1925.1133     -2218.0531    
     50000   50000          466.56999      450.94285      20373.249      19776.503      10929.955      8846.5476      4982.8374      4592.1917     -1709.0684      389.92028      710.71639      4613.5949     -4733.6446     -475.45686      90738.644      44.936312      44.936312      44.936312      0.93432074     723.20571      36.222909      593.39992    
     51000   51000          465.45378      633.82067      20597.037      19755.021      10903.807      8851.2139      4976.6421      4463.504      -1645.1975      405.26029      747.38632      4627.3507     -4723.7321     -473.61504      91091.514      44.994487      44.994487      44.994487      0.93070138     168.74799      554.85359      1177.8604    
     52000   52000          470.72163     -18.066664      20109.829      20134.165      11027.212      9106.9526      5057.4488      4598.6645     -1631.6456      408.72519      788.87446      4610.8212     -4725.9359     -467.09186      92363.653      45.202977      45.202977      45.202977      0.91788267     1332.7489     -742.89232     -644.05661    
     53000   53000          471.78659      179.03913      20062.901      19825.802      11052.16       8773.6418      4975.1364      4539.2875     -1744.1597      384.70903      743.29521      4603.2036     -4727.8302     -475.11424      90804.079      44.947111      44.947111      44.947111      0.93364745    -416.1569      -161.55022      1114.8245    
     54000   54000          474.73081      488.00685      20510.255      19858.735      11121.132      8737.6026      4931.0743      4500.8478     -1713.4352      373.2547       738.64215      4632.4107     -4725.1919     -471.27861      91543.113      45.06872       45.06872       45.06872       0.92611005     1314.3866     -1432.1412      1581.7751    
     55000   55000          469.74993     -413.75732      19408.531      19961.892      11004.449      8957.4424      5045.397       4597.5609     -1687.7592      390.81509      718.83257      4622.3124     -4729.7162     -470.45308      91703.749      45.095066      45.095066      45.095066      0.9244878      218.65856     -746.00636     -713.92416    
     56000   56000          464.96804      536.01191      20478.647      19758.324      10892.428      8865.8963      5036.6976      4548.7851     -1794.9889      374.02429      802.752        4625.5293     -4726.9031     -468.19459      92146.111      45.16746       45.16746       45.16746       0.92004965     1106.2624      97.498569      404.27476    
     57000   57000          468.28246      1428.1192      21914.452      19997.479      10970.072      9027.4074      5001.5091      4615.7211     -1695.9915      394.12802      814.58845      4620.2432     -4722.791      -468.73558      92039.762      45.150077      45.150077      45.150077      0.92111274     291.01118      3028.809       964.53752    
     58000   58000          462.55396     -1453.4892      17499.218      19428.164      10835.875      8592.2888      5036.7019      4353.9721     -1728.0644      374.34767      661.91996      4621.8745     -4728.4629     -474.10116      90998.114      44.979104      44.979104      44.979104      0.93165664    -1567.5039     -943.27561     -1849.688     
     59000   59000          466.8581       387.50349      20428.36       19910.656      10936.705      8973.9515      5075.3025      4532.93       -1692.6897      372.75753      798.02203      4616.4501     -4728.8209     -470.94882      91607.218      45.079238      45.079238      45.079238      0.92546198     956.30476      90.132325      116.07338    
     60000   60000          469.9845       148.81887      19996.444      19797.126      11009.944      8787.1815      5064.1791      4568.1851     -1804.89        376.09787      685.18671      4622.995      -4724.5722     -469.77604      91835.913      45.11672       45.11672       45.11672       0.92315734    -90.326546     -374.24293      911.02608    
     61000   61000          466.40134     -646.92962      18787.295      19647.293      10926.005      8721.2886      5028.2724      4480.6739     -1754.8918      377.43433      705.17763      4615.0293     -4730.4072     -473.30232      91151.699      45.004395      45.004395      45.004395      0.93008685    -267.3681      -2790.3556      1116.9349    
     62000   62000          455.54245      695.6628       20364.913      19430.045      10671.622      8758.4225      4976.7304      4541.611      -1756.2318      382.66107      725.32196      4618.4055     -4730.0757     -468.19608      92145.819      45.167412      45.167412      45.167412      0.92005256     2188.7403     -872.97628      771.22442    
     63000   63000          468.15938     -385.30425      19300.581      19813.982      10967.189      8846.7932      5157.1836      4396.23       -1669.6893      387.81724      692.67968      4615.1684     -4732.5964     -472.20036      91364.418      45.039376      45.039376      45.039376      0.92792138    -715.04465      1358.8367     -1799.7048    
     64000   64000          457.2478      -1133.8994      18055.786      19573.995      10711.572      8862.423       5058.7581      4520.7474     -1672.5383      386.56368      691.68267      4608.516      -4731.3066     -469.9181       91808.15       45.112173      45.112173      45.112173      0.9234365     -805.95458     -1769.6274     -826.11631    
     65000   65000          469.25078      39.672504      19822.112      19770.023      10992.756      8777.2674      4938.58        4457.8407     -1609.5231      389.91264      717.37091      4622.2043     -4739.1181     -479.2115       90027.704      44.818645      44.818645      44.818645      0.94169898    -523.18847      562.65278      79.553204    
     66000   66000          468.25337     -448.77432      19115.146      19717.643      10969.391      8748.2521      4870.155       4509.1237     -1675.2514      392.88166      754.88315      4622.718      -4726.258      -468.65467      92055.652      45.152675      45.152675      45.152675      0.92095374    -185.12288     -1057.3065     -103.89361    
     67000   67000          473.93134      220.02245      20368.164      20079.093      11102.404      8976.6893      5098.6232      4471.0233     -1636.1393      406.68285      740.46588      4629.2272     -4733.1938     -478.89711      90086.806      44.828451      44.828451      44.828451      0.94108117     2042.6087      34.060628     -1416.602     
     68000   68000          461.85633     -401.20836      19095.199      19631.426      10819.532      8811.8933      4963.2671      4536.555      -1664.3874      417.88309      672.29966      4614.2383     -4727.9625     -470.76171      91643.627      45.085209      45.085209      45.085209      0.9250943      977.24617     -513.70072     -1667.1705    
     69000   69000          462.60649      957.22132      20919.637      19649.963      10837.106      8812.8572      4970.7739      4578.0937     -1698.2503      386.64794      693.31426      4612.3982     -4730.1206     -474.35057      90950.267      44.971219      44.971219      44.971219      0.93214676     864.5192       1208.2089      798.93589    
     70000   70000          471.41502     -857.14876      18681.101      19816.213      11043.456      8772.757       5082.6683      4490.3383     -1722.3373      390.81142      647.68621      4615.2894     -4731.6993     -475.11287      90804.34       44.947154      44.947154      44.947154      0.93364476    -1680.7711     -297.76246     -592.91275    
     71000   71000          466.37601      393.59118      20174.66       19655.613      10925.411      8730.2016      4985.0442      4469.4237     -1733.0736      387.0713       735.69122      4617.2564     -4731.2117     -477.10897      90424.439      44.884384      44.884384      44.884384      0.9375673      409.83216      580.40438      190.537      
     72000   72000          464.33896      829.03735      20867.485      19758.726      10877.691      8881.0355      5028.5768      4521.9189     -1683.5255      394.87602      709.76564      4631.1919     -4721.7682     -470.45313      91703.739      45.095065      45.095065      45.095065      0.9244879     -627.97158      3142.3331     -27.249501    
     73000   73000          462.10516      1624.4549      21776.907      19621.021      10825.362      8795.6596      5106.8274      4405.7549     -1721.4857      386.79752      736.34575      4606.1077     -4724.6879     -474.09044      91000.17       44.979443      44.979443      44.979443      0.93163559     2724.8304      325.29174      1823.2424    
     74000   74000          471.21674     -734.76211      18897.025      19878.355      11038.811      8839.5435      5068.7707      4476.2876     -1705.8203      386.49059      717.50205      4624.9692     -4728.6563     -471.09763      91578.281      45.074491      45.074491      45.074491      0.9257544     -2462.878       391.28278     -132.6911     
     75000   75000          461.53251     -468.1547       19055.679      19675.255      10811.946      8863.3083      5062.9213      4479.2317     -1708.9293      394.78789      744.39366      4622.288      -4731.3849     -475.41672      90746.306      44.937577      44.937577      44.937577      0.93424185     651.02321     -2280.3859      224.89862    
     76000   76000          453.87071      687.03606      20355.847      19446.795      10632.46       8814.3349      4999.4844      4585.1307     -1764.2612      382.34195      735.88682      4611.6613     -4735.909      -475.521        90726.405      44.934292      44.934292      44.934292      0.93444677     817.72922      1356.5057     -113.12671    
     77000   77000          468.14192     -1161.8144      18004.07       19559.031      10966.78       8592.2512      4912.1298      4355.0352     -1640.2132      391.52302      701.23153      4596.4762     -4723.9314     -470.1069       91771.279      45.106133      45.106133      45.106133      0.92380751    -922.68097     -726.13108     -1836.6313    
     78000   78000          463.76605     -1008.3022      18357.327      19697.147      10864.27       8832.8776      5085.8031      4502.8003     -1686.7596      390.51271      664.88609      4604.773      -4729.1381     -473.50379      91112.917      44.998011      44.998011      44.998011      0.93048275    -1020.7772      125.53688     -2129.6663    
     79000   79000          464.51502      125.55559      19581.682      19413.662      10881.815      8531.847       4867.1204      4453.4336     -1775.0106      367.56836      730.2199       4616.5771     -4728.0618     -470.16902      91759.153      45.104146      45.104146      45.104146      0.92392959     363.75407      396.69718     -383.78448    
     80000   80000          462.91476     -114.39446      19446.828      19598.283      10844.327      8753.9551      4943.3198      4503.0512     -1686.3714      379.45084      735.07914      4612.3569     -4732.9315     -475.22831      90782.283      44.943515      44.943515      44.943515      0.93387161    -855.38428     -1040.7091      1552.91      
     81000   81000          471.06438     -392.2483       19322.675      19847.207      11035.242      8811.9651      5041.4945      4540.1384     -1741.8252      378.76101      711.33541      4610.2286     -4728.1676     -470.50912      91692.827      45.093276      45.093276      45.093276      0.92459792    -1371.5489      981.69845     -786.8944     
     82000   82000          467.63111     -587.26014      18860.783      19642.243      10954.814      8687.4296      4947.7374      4493.3293     -1709.1166      377.54529      695.43412      4611.7044     -4729.2043     -472.82771      91243.196      45.019448      45.019448      45.019448      0.92915418    -362.89239     -883.85394     -515.0341     
     83000   83000          465.14996      200.47135      19894.416      19628.073      10896.69       8731.3832      4995.3217      4451.681      -1713.0084      385.83589      717.45929      4622.2323     -4728.1385     -473.57564      91099.093      44.995735      44.995735      44.995735      0.93062394    -736.16008      1654.9185     -317.34436    
     84000   84000          467.00266     -827.57571      18694.999      19792.45       10940.091      8852.359       4898.6705      4462.4822     -1536.3724      407.37005      744.58394      4607.4834     -4731.8587     -474.46225      90928.858      44.96769       44.96769       44.96769       0.93236623    -884.22538     -1575.1995     -23.302264    
     85000   85000          464.68439      1530.4414      21633.118      19600.679      10885.783      8714.8965      4898.7335      4485.6951     -1704.4209      394.51672      753.63661      4621.6894     -4734.954      -473.78197      91059.419      44.989202      44.989202      44.989202      0.93102941     1020.7742      1526.2716      2044.2784    
     86000   86000          471.19887      1078.6187      21188.579      19768.514      11038.392      8730.1217      4925.6289      4552.7782     -1712.2673      390.83598      689.3819       4619.9168     -4736.1527     -477.9022       90274.351      44.859537      44.859537      44.859537      0.93912608     900.59674      1427.3019      907.95731    
     87000   87000          459.75643      204.71809      19829.868      19556.33       10770.34       8785.9902      5119.0234      4493.3085     -1796.4038      381.80663      695.88732      4620.74       -4728.3719     -470.88869      91618.916      45.081157      45.081157      45.081157      0.92534382    -192.3497       322.77616      483.72782    
     88000   88000          465.22514      10.307037      19508.803      19494.929      10898.451      8596.4786      4911.5714      4454.1155     -1782.3086      368.81783      775.82072      4599.5919     -4731.1302     -467.45416      92292.068      45.191296      45.191296      45.191296      0.91859462     1793.1582     -1077.4533     -684.78377    
     89000   89000          460.42238      219.83569      19892.344      19599.908      10785.94       8813.9673      5112.069       4451.974      -1780.0164      385.20755      750.67654      4628.5619     -4734.5054     -472.98344      91213.153      45.014506      45.014506      45.014506      0.92946022     498.43854     -452.18948      613.25802    
     90000   90000          468.97114      833.37653      20767.713      19666.528      10986.205      8680.3227      5066.1411      4407.6088     -1763.4287      369.56195      712.62747      4622.0555     -4734.2433     -476.16788      90603.152      44.913935      44.913935      44.913935      0.93571797    -1005.5476      2020.5965      1485.0807    
     91000   91000          460.39024      1247.5714      21113.331      19459.537      10785.187      8674.3498      4931.8717      4572.3064     -1823.7751      383.11722      722.88505      4620.9399     -4732.9954     -474.639        90894.998      44.962108      44.962108      44.962108      0.93271355     1237.9138      2468.6299      36.170421    
     92000   92000          462.6819      -1170.2858      17886.812      19427.488      10838.872      8588.616       4974.0694      4443.4264     -1727.8219      380.21616      615.40911      4634.3348     -4731.0181     -477.92501      90270.042      44.858824      44.858824      44.858824      0.9391709     -81.621189     -1324.8185     -2104.4177    
     93000   93000          461.16548      1188.4523      21287.702      19687.568      10803.348      8884.2196      4893.075       4587.9765     -1704.5982      385.19368      827.43258      4620.5365     -4725.3964     -467.30964      92320.61       45.195954      45.195954      45.195954      0.91831062     1081.9941      330.90743      2152.4555    
     94000   94000          464.963        783.01865      20469.823      19429.63       10892.31       8537.3204      4876.3712      4476.7282     -1815.9542      372.16174      741.21815      4618.8035     -4732.0081     -473.62821      91088.98       44.99407       44.99407       44.99407       0.93072726     650.39499      228.70962      1469.9513    
     95000   95000          460.42726     -699.28944      18449.057      19383.049      10786.055      8596.9942      4952.553       4435.9755     -1740.048       392.18814      667.32648      4614.9269     -4725.9278     -471.07824      91582.05       45.075109      45.075109      45.075109      0.92571631     285.45338     -1135.3777     -1247.944     
     96000   96000          466.71311     -332.34189      19014.593      19452.427      10933.308      8519.1187      4934.7799      4421.9839     -1740.5962      371.85648      640.98512      4624.4497     -4734.3402     -477.58961      90333.436      44.869322      44.869322      44.869322      0.93851181    -101.09755     -2099.9865      1204.0584    
     97000   97000          465.79206     -1209.8369      17946.721      19564.979      10911.732      8653.2471      4907.001       4545.0579     -1718.1777      394.35128      649.22869      4607.6249     -4731.8389     -470.39039      91715.971      45.09707       45.09707       45.09707       0.9243646     -684.73084     -92.722682     -2852.0571    
     98000   98000          463.78704      1329.5668      21394.588      19649.876      10864.762      8785.1145      5022.3041      4566.5714     -1771.9162      388.04863      705.01717      4609.3891     -4734.2997     -479.47471      89978.283      44.810443      44.810443      44.810443      0.94221621     3043.2526      806.24692      139.20098    
     99000   99000          462.88056      58.849155      19611.687      19533.723      10843.526      8690.1973      4959.9641      4539.8208     -1746.6167      381.53056      660.88494      4624.2343     -4729.6208     -474.92594      90840.08       44.953051      44.953051      44.953051      0.93327743    -588.17599      1502.4718     -737.74836    
    100000   100000         457.57008     -465.35829      18915.349      19531.662      10719.122      8812.5395      5081.578       4532.7892     -1722.5614      380.43349      660.57524      4610.6936     -4730.9685     -475.07927      90810.763      44.948214      44.948214      44.948214      0.93357873     131.96384     -419.85205     -1108.1866    
    101000   101000         465.5683      -309.13338      19294.55       19705.106      10906.49       8798.6159      4972.746       4541.0568     -1743.5568      392.17664      748.1536       4616.4106     -4728.371      -473.75404      91064.788      44.990086      44.990086      44.990086      0.93097452    -548.41816      143.82345     -522.80543    
    102000   102000         466.30838     -622.79579      18871.087      19696.645      10923.827      8772.8184      4988.655       4514.3095     -1685.0521      382.09674      687.06131      4611.832      -4726.0841     -474.65395      90892.136      44.961636      44.961636      44.961636      0.93274292    -375.55704     -1207.3994     -285.43093    
    103000   103000         462.74124      502.62386      20107.128      19438.402      10840.263      8598.1398      4928.9745      4416.4486     -1739.3416      382.65083      729.21119      4607.9859     -4727.7897     -472.90538      91228.209      45.016983      45.016983      45.016983      0.92930682    -99.89218       548.58261      1059.1812    
    104000   104000         456.33892      1310.0818      21261.595      19523.689      10690.281      8833.4083      5020.8601      4556.2971     -1748.3989      380.43387      734.75994      4615.0734     -4725.6173     -474.2982       90960.31       44.972874      44.972874      44.972874      0.93204384     1246.9829      2744.4247     -61.162203    
    105000   105000         468.06396      167.08293      19739.297      19517.334      10964.953      8552.3801      4952.6213      4442.3497     -1788.4226      362.75342      709.40775      4606.6067     -4732.9362     -473.61966      91090.625      44.994341      44.994341      44.994341      0.93071045    -2504.0276      841.34029      2163.9361    
    106000   106000         466.02579     -104.35831      19538.703      19677.347      10917.207      8760.14        5007.6374      4486.9611     -1751.7105      385.70178      741.43692      4619.5975     -4729.4842     -473.59448      91095.468      44.995138      44.995138      44.995138      0.93066097     499.9764      -775.3073      -37.744011    
    107000   107000         464.08882      1904.5889      21971.765      19445.043      10871.831      8573.2116      5010.0192      4415.3101     -1839.6392      384.00186      737.50627      4601.5738     -4735.5604     -474.26704      90966.286      44.973859      44.973859      44.973859      0.93198261     1693.975       413.4171       3606.3747    
    108000   108000         459.02541      819.05281      20719.014      19638.426      10753.215      8885.2118      4961.0887      4627.3394     -1704.5599      376.07671      733.45544      4623.3911     -4731.5796     -476.90419      90463.266      44.890808      44.890808      44.890808      0.93716489     657.06934     -911.82304      2711.9121    
    109000   109000         460.16817     -453.81247      18758.303      19359.816      10779.985      8579.8303      5028.0685      4442.8592     -1769.7261      376.96342      625.38517      4605.099      -4728.8188     -474.69127      90884.989      44.960457      44.960457      44.960457      0.93281627    -451.7074      -2604.9881      1695.2581    
    110000   110000         462.98866     -878.8806       18233.368      19392.113      10846.059      8546.0547      4874.7243      4494.1        -1723.0141      382.19243      634.98767      4613.1623     -4730.0979     -477.22266      90402.898      44.88082       44.88082       44.88082       0.9377907     -1428.4461     -584.61885     -623.57689    
    111000   111000         465.15397      1105.994       21207.831      19735.703      10896.783      8838.9195      4957.4518      4629.6734     -1724.9682      388.28424      723.53786      4599.2259     -4734.2856     -472.70109      91267.635      45.023467      45.023467      45.023467      0.92890537    -931.37363      1603.2468      2646.1089    
    112000   112000         460.59305      1242.0273      20994.978      19357.482      10789.938      8567.5436      5011.2965      4479.3694     -1837.4061      374.29286      673.61032      4601.3355     -4734.9549     -477.23276      90400.984      44.880503      44.880503      44.880503      0.93781055     1738.0607      76.530779      1911.4906    
    113000   113000         462.91016     -55.724794      19447.349      19520.847      10844.22       8676.627       4889.8189      4514.1615     -1699.0948      391.90623      702.56995      4614.3695     -4737.1043     -477.03937      90437.632      44.886567      44.886567      44.886567      0.93743053     523.3455      -589.59541     -100.92448    
    114000   114000         466.55934     -1716.3005      17233.568      19539.8        10929.706      8610.0937      4906.1599      4388.2983     -1605.0722      386.69191      652.99388      4608.0317     -4727.0098     -468.24133      92136.913      45.165957      45.165957      45.165957      0.9201415     -1684.5509     -1996.4449     -1467.9057    
    115000   115000         458.38102      518.19825      20193.31       19505.236      10738.119      8767.1165      4982.7373      4537.4155     -1729.7942      401.9559       702.54345      4604.9585     -4732.7        -473.84855      91046.624      44.987095      44.987095      44.987095      0.93116025     462.08505      156.80167      935.70805    
    116000   116000         461.0626      -731.88765      18487.107      19459.318      10800.938      8658.3797      4899.7756      4494.1613     -1684.2204      384.02158      659.67628      4629.3788     -4724.4135     -473.65634      91083.572      44.993179      44.993179      44.993179      0.93078253    -618.24984     -1652.7545      75.341421    
    117000   117000         469.24467      777.73452      20563.999      19533.993      10992.613      8541.3799      4838.3553      4441.4887     -1725.268       395.02853      699.30792      4624.8344     -4732.367      -475.08468      90809.729      44.948044      44.948044      44.948044      0.93358937     368.50138      2127.3932     -162.69106    
    118000   118000         461.62677     -1299.473       17582.216      19315.502      10814.155      8501.3476      4714.277       4480.0183     -1640.6539      388.71686      674.70372      4614.3804     -4730.0947     -471.71126      91459.15       45.054937      45.054937      45.054937      0.92696025    -1044.38       -1184.4215     -1669.6176    
    119000   119000         463.93322     -312.29679      19024.918      19441.31       10868.186      8573.1239      4995.7203      4368.3036     -1730.5738      381.40689      690.6335       4597.7753     -4730.1419     -471.89369      91423.792      45.04913       45.04913       45.04913       0.92731875     41.952121     -1399.8093      420.96683    
    120000   120000         460.00603     -1085.2636      18197.434      19648.137      10776.187      8871.9497      5097.0679      4499.1304     -1770.2981      388.30971      768.54743      4611.3258     -4722.1334     -470.6914       91657.318      45.087454      45.087454      45.087454      0.92495612    -1571.4932     -1682.0013     -2.2964694    
    121000   121000         457.20671      171.4949       19617.739      19390.767      10710.61       8680.1572      4892.0623      4630.506      -1783.9266      379.19862      670.62887      4624.5567     -4732.8687     -475.39907      90749.675      44.938133      44.938133      44.938133      0.93420717     1010.7597     -587.48132      91.206258    
    122000   122000         464.50808      466.72559      20368.409      19745.453      10881.653      8863.8005      5022.6891      4651.0978     -1773.4317      375.00556      704.42693      4614.8544     -4730.8415     -471.39332      91520.837      45.065064      45.065064      45.065064      0.92633547     2301.9696     -852.74033     -49.052485    
    123000   123000         461.81107      1344.5603      21351.515      19582.564      10818.472      8764.0916      4983.4449      4549.8978     -1747.9732      383.79685      701.42375      4622.772      -4729.2705     -478.23763      90211.034      44.849047      44.849047      44.849047      0.93978523     2107.7558     -721.19386      2647.1189    
    124000   124000         455.59178     -696.21307      18428.267      19357.805      10672.778      8685.0266      4948.3113      4457.8284     -1740.48        402.15114      741.80272      4608.6096     -4733.1966     -471.25345      91548.001      45.069522      45.069522      45.069522      0.9260606      356.73118     -2653.5771      208.20676    
    125000   125000         463.48499     -380.98215      18814.58       19316.394      10857.686      8458.7083      4924.8792      4424.9898     -1794.6642      367.72442      663.51961      4607.5478     -4735.2883     -477.68463      90315.467      44.866347      44.866347      44.866347      0.93869854    -11.634003     -1372.1067      240.7943     
    126000   126000         457.99782      28.381767      19427.113      19389.56       10729.142      8660.4181      5000.9014      4424.0161     -1750.3851      382.012        717.89963      4619.9161     -4733.9422     -475.53454      90723.823      44.933865      44.933865      44.933865      0.93447338     1118.4888      176.1816      -1209.5251    
    127000   127000         458.84052      607.01731      20008.234      19205.198      10748.883      8456.3148      5096.8007      4315.7394     -1844.4189      354.73215      648.42055      4620.6286     -4735.5876     -475.60372      90710.626      44.931687      44.931687      44.931687      0.93460932     1855.4538     -103.68634      69.284515    
    128000   128000         461.14748      274.20396      19734.486      19374.103      10802.927      8571.1761      4974.8442      4360.2316     -1671.6057      380.74713      638.50763      4622.1202     -4733.6689     -478.72781      90118.664      44.833734      44.833734      44.833734      0.94074849    -716.20979      1146.5424      392.27932    
    129000   129000         460.00695     -705.57182      18598.763      19539.001      10776.208      8762.7923      4999.3798      4528.6816     -1705.1911      390.86483      668.84098      4617.3131     -4737.097      -472.15299      91373.584      45.040882      45.040882      45.040882      0.9278283     -1179.4752     -637.08475     -300.15551    
    130000   130000         466.15014     -143.08889      19095.085      19281.908      10920.12       8361.7875      4796.5844      4488.1302     -1772.3957      355.03863      602.3164       4630.1577     -4738.0442     -481.89789      89525.836      44.735208      44.735208      44.735208      0.946978      -1350.0609     -87.912014      1008.7062    
    131000   131000         464.70531     -129.83203      19186.975      19359.787      10886.273      8473.5143      4857.783       4462.523      -1802.3828      380.49761      685.64966      4620.1062     -4730.6623     -472.70178      91267.502      45.023445      45.023445      45.023445      0.92890673    -2104.7815      2755.2714     -1039.9859    
    132000   132000         451.45101      1607.9036      21265.426      19151.502      10575.776      8575.7264      4883.926       4482.2184     -1733.0868      391.85423      661.13713      4625.4315     -4735.7541     -478.57487      90147.464      44.83851       44.83851       44.83851       0.94044794     1103.9952      400.5606       3319.1549    
    133000   133000         461.66324     -905.87362      18309.9        19513.338      10815.009      8698.3287      4947.5375      4461.0415     -1683.3713      377.56224      694.23772      4630.322      -4729.001      -473.61274      91091.957      44.99456       44.99456       44.99456       0.93069684    -1055.399      -116.23857     -1545.9833    
    134000   134000         454.93006     -1738.972       16913.295      19220.296      10657.276      8563.0201      4924.0065      4487.7974     -1744.3085      380.27665      623.52288      4622.0467     -4730.3216     -474.2682       90966.062      44.973822      44.973822      44.973822      0.93198491    -1515.4541     -2628.579      -1072.883     
    135000   135000         458.84099     -320.24598      19023.501      19443.691      10748.894      8694.797       5008.5163      4430.0004     -1715.0405      378.73614      695.82203      4627.963      -4731.2004     -479.53104      89967.714      44.808688      44.808688      44.808688      0.9423269      623.15785     -1391.4045     -192.49132    
    136000   136000         467.33453      230.38306      19901.966      19596.689      10947.866      8648.8233      4864.6048      4554.9094     -1752.6066      384.59927      707.15235      4623.1351     -4732.971      -474.82792      90858.833      44.956144      44.956144      44.956144      0.93308481     196.78193     -273.49652      767.86376    
    137000   137000         462.45181     -593.47745      18661.528      19446.032      10833.482      8612.5497      4908.4798      4427.4118     -1682.4904      373.58399      717.46667      4602.31       -4734.2122     -475.97993      90638.928      44.919845      44.919845      44.919845      0.93534863    -456.23753     -1877.4366      553.2418     
    138000   138000         459.34184      0.18673953     19222.026      19221.778      10760.627      8461.1507      4947.189       4392.9064     -1792.964       371.3278       665.21971      4612.0979     -4734.6261     -473.71287      91072.702      44.99139       44.99139       44.99139       0.93089361     1434.0163     -776.92953     -656.52657    
    139000   139000         458.16936     -1451.4057      17167.447      19089.305      10733.161      8356.1445      4961.2556      4333.5763     -1803.8866      374.36864      597.31007      4624.5956     -4731.0751     -475.16759      90793.885      44.945429      44.945429      44.945429      0.93375228    -359.29231     -2973.8192     -1021.1056    
    140000   140000         457.81149      1334.73        21117.735      19341.553      10724.777      8616.776       4972.0287      4400.996      -1783.0759      374.66206      769.38693      4612.9622     -4730.1839     -472.80849      91246.905      45.020058      45.020058      45.020058      0.92911642     361.90574      2640.2744      1002.0099    
    141000   141000         462.5992       94.566229      19661.895      19535.706      10836.935      8698.7712      4945.3068      4482.2448     -1753.2806      363.78876      771.84518      4615.342      -4726.4757     -471.51292      91497.622      45.061254      45.061254      45.061254      0.92657049    -1216.9882     -16.754348      1517.4413    
    142000   142000         456.09831      304.08443      19712.312      19309.436      10684.644      8624.792       5035.4011      4457.7751     -1816.1074      378.10168      669.60622      4630.1993     -4730.1841     -474.89959      90845.122      44.953882      44.953882      44.953882      0.93322564     385.07844     -178.66345      705.8383     
    143000   143000         462.7389      -897.50953      18261.353      19449.484      10840.208      8609.2767      4825.9906      4560.9696     -1743.5422      378.44663      708.33723      4612.8226     -4733.7478     -475.28481      90771.491      44.941734      44.941734      44.941734      0.93398264    -538.92582     -77.861619     -2075.7412    
    144000   144000         458.56069     -68.359105      19378.902      19469.081      10742.328      8726.7527      4847.4738      4508.5661     -1667.0237      379.4821       794.08901      4601.5164     -4737.3511     -476.94914      90454.742      44.889398      44.889398      44.889398      0.93725321     380.44699     -790.78467      205.26037    
    145000   145000         456.20712      737.28087      20261.771      19278.314      10687.193      8591.1208      4951.8938      4495.4426     -1818.1892      375.11159      693.94944      4624.7685     -4731.8559     -471.68997      91463.278      45.055615      45.055615      45.055615      0.92691842     1316.0392     -819.47743      1715.2809    
    146000   146000         451.95278     -464.24941      18645.938      19256.127      10587.53       8668.597       4903.5875      4458.3461     -1678.4698      386.30193      695.83261      4629.6089     -4726.6103     -478.70302      90123.332      44.834508      44.834508      44.834508      0.94069976    -1501.5245      1612.499      -1503.7228    
    147000   147000         463.70622      1197.9635      21012.926      19419.636      10862.868      8556.7682      4925.8226      4393.3281     -1691.669       383.492        674.57184      4607.9439     -4736.7212     -473.07306      91195.873      45.011663      45.011663      45.011663      0.92963633     1642.6266      1024.2087      927.05534    
    148000   148000         459.82519      113.81105      19361.023      19209.885      10771.95       8437.9349      4886.3124      4383.9481     -1768.8785      368.71596      689.41965      4612.0666     -4733.6494     -473.79525      91056.867      44.988782      44.988782      44.988782      0.9310555     -549.90514      1647.6376     -756.29936    
    149000   149000         459.12645      246.52532      19691.461      19366.379      10755.582      8610.7979      4977.3777      4421.3344     -1771.956       376.42169      716.14976      4623.4602     -4731.9899     -477.14249      90418.088      44.883334      44.883334      44.883334      0.93763316     696.23538     -236.48921      279.8298     
    150000   150000         453.48544     -418.4348       18498.633      19052.415      10623.434      8428.9802      4913.2132      4386.8812     -1761.5696      364.83235      657.62795      4602.6169     -4734.6218     -475.4101       90747.57       44.937786      44.937786      44.937786      0.93422884     444.16088     -1363.7423     -335.72299    
    151000   151000         457.42523     -707.76351      18278.995      19214.996      10715.729      8499.2674      4965.7736      4303.7735     -1719.4474      366.03525      705.66765      4614.9457     -4737.4809     -475.76368      90680.127      44.92665       44.92665       44.92665       0.93492366    -1040.793      -593.82945     -488.66806    
    152000   152000         447.49371      1201.6808      20717.384      19130.989      10483.071      8647.9179      4944.5457      4447.4583     -1720.3034      372.48328      716.95207      4620.0709     -4733.289      -476.60346      90520.349      44.900248      44.900248      44.900248      0.93657391     968.36004      1165.831       1470.8513    
    153000   153000         459.29967      266.05529      19604.83       19254.606      10759.64       8494.9662      4948.2532      4423.5647     -1767.5032      372.43573      646.9749       4606.7033     -4735.4624     -477.97501      90260.6        44.85726       44.85726       44.85726       0.93926915    -125.7405       334.35238      589.55399    
    154000   154000         464.11664     -1119.7181      18043.385      19527.962      10872.483      8655.4789      4977.6516      4484.7698     -1687.8931      372.57313      643.53231      4603.6669     -4738.8218     -474.55354      90911.367      44.964807      44.964807      44.964807      0.93254562    -1472.3563     -1734.8069     -151.99102    
    155000   155000         452.31094      388.14128      19811.319      19300.473      10595.92       8704.5527      5039.3734      4447.9669     -1709.5216      393.60888      663.05979      4606.3754     -4736.3102     -478.05647      90245.219      44.854712      44.854712      44.854712      0.93942923     37.340817      1161.0346     -33.951609    
    156000   156000         459.68914      350.85704      19753.834      19288.683      10768.763      8519.9196      4894.513       4404.4801     -1702.2128      393.43413      637.07859      4627.8627     -4735.2361     -474.58697      90904.963      44.963751      44.963751      44.963751      0.93261131     154.6958       79.904066      817.97126    
    157000   157000         457.90295      109.37646      19347.711      19202.995      10726.92       8476.075       4810.6441      4429.965      -1686.0124      393.61952      652.51197      4608.2307     -4732.8838     -475.53856      90723.055      44.933739      44.933739      44.933739      0.93448129     312.53829     -1083.0821      1098.6732    
    158000   158000         457.80645     -1163.292       17793.945      19330.913      10724.659      8606.2538      4958.8217      4429.451      -1679.6172      377.94155      657.07984      4594.7416     -4732.1649     -476.21508      90594.173      44.912451      44.912451      44.912451      0.93581071    -1366.2318     -575.52341     -1548.1208    
    159000   159000         461.25492      295.04673      19790.027      19399.205      10805.444      8593.7617      4908.7938      4493.0127     -1770.4092      370.16786      722.42828      4607.4948     -4737.7265     -474.997        90826.492      44.950809      44.950809      44.950809      0.93341705    -646.35167      1540.7118     -9.2200011    
    160000   160000         459.72149     -1124.7817      17707.28       19197.029      10769.521      8427.5076      4950.9609      4372.3302     -1746.5407      363.91626      612.28074      4604.9929     -4730.4326     -475.04457      90817.396      44.949309      44.949309      44.949309      0.93351054    -1123.3047     -1426.495      -824.54532    
    161000   161000         462.0766      -379.14983      18962.111      19461.714      10824.692      8637.0212      4892.8715      4535.2707     -1706.5369      383.10875      654.45905      4617.0679     -4739.2199     -477.49182      90351.938      44.872385      44.872385      44.872385      0.93831963    -1403.9683     -156.83027      423.34906    
    162000   162000         461.72824     -363.08532      18807.57       19287.907      10816.532      8471.3755      4917.4932      4480.0629     -1782.6114      376.26631      599.09527      4615.6226     -4734.5534     -475.60002      90711.331      44.931803      44.931803      44.931803      0.93460206     981.68271     -1311.0989     -759.83977    
    163000   163000         453.01546     -738.97958      18054.394      19043.228      10612.424      8430.8038      4816.2422      4448.1274     -1781.7256      365.06756      698.87084      4611.6341     -4727.4127     -470.20596      91751.945      45.102965      45.102965      45.102965      0.92400218    -1994.5875      47.344762     -269.69601    
    164000   164000         460.15965      1486.8734      21261.384      19306.487      10779.786      8526.7014      4849.8603      4509.6767     -1748.5208      367.80412      671.02415      4613.2808     -4736.424      -478.55227      90151.722      44.839216      44.839216      44.839216      0.94040352     1458.5243      213.44564      2788.6503    
    165000   165000         459.20112     -344.71727      18806.207      19266.464      10757.331      8509.1328      4937.0372      4333.6353     -1737.2072      372.81657      723.15451      4610.6379     -4730.9414     -471.24005      91550.603      45.069949      45.069949      45.069949      0.92603428     235.0642      -892.73771     -376.4783     
    166000   166000         453.11721     -861.20014      18205.073      19350.265      10614.808      8735.4564      5056.912       4511.6297     -1752.0768      377.90905      637.04795      4633.0137     -4728.9792     -473.15695      91179.704      45.009003      45.009003      45.009003      0.92980119     479.34683     -1835.3276     -1227.6196    
    167000   167000         455.23528      195.6887       19329.436      19074.389      10664.426      8409.9622      4937.6542      4371.075      -1769.1742      372.06076      609.35634      4624.7945     -4735.8045     -482.75204      89367.434      44.708808      44.708808      44.708808      0.9486565      399.89639     -589.21381      776.38353    
    168000   168000         463.82226      244.48048      19811.479      19487.496      10865.587      8621.9091      4888.7514      4453.9775     -1711.1264      382.87593      720.53547      4617.2865     -4730.3912     -474.7887       90866.338      44.957382      44.957382      44.957382      0.93300774     202.8681       246.70134      283.87199    
    169000   169000         459.98571     -1297.9107      17520.187      19250.29       10775.711      8474.5796      4935.8017      4380.4842     -1758.2449      392.55438      628.7613       4620.2467     -4725.0238     -472.01096      91401.079      45.045399      45.045399      45.045399      0.92754919    -1967.0332     -665.07963     -1261.6192    
    170000   170000         457.69439      603.79829      20099.779      19307.843      10722.034      8585.8089      5021.5867      4457.6424     -1782.5266      377.14146      618.28775      4622.6652     -4728.9881     -479.71246      89933.688      44.803038      44.803038      44.803038      0.94268342     1476.1898     -47.958217      383.16332    
    171000   171000         455.13694     -1213.7149      17439.75       19049.551      10662.123      8387.4288      4770.85        4448.2854     -1768.4567      372.74658      663.06166      4629.5241     -4728.5822     -474.37702      90945.195      44.970383      44.970383      44.970383      0.93219875    -1078.2166     -511.06877     -2051.8593    
    172000   172000         454.77546      425.2395       19786.6        19228.927      10653.655      8575.2727      5037.1141      4399.5091     -1773.6706      376.66575      656.69351      4613.4265     -4734.4656     -479.77091      89922.733      44.801219      44.801219      44.801219      0.94279827     864.4874       1176.1053     -764.87423    
    173000   173000         462.17558      110.35495      19350.092      19204.592      10827.011      8377.5806      4863.7434      4384.85       -1787.077       369.88748      660.29719      4614.8391     -4728.9596     -477.2095       90405.39       44.881233      44.881233      44.881233      0.93776485     612.36878      245.04039     -526.34433    
    174000   174000         460.7018       429.88859      19760.529      19188.911      10792.486      8396.4247      4973.12        4456.733      -1913.0306      366.97938      630.4597       4612.7919     -4730.6286     -473.18312      91174.662      45.008173      45.008173      45.008173      0.9298526      909.48965     -254.66806      634.8442     
    175000   175000         457.25345     -254.92659      18897.45       19237.518      10711.704      8525.8134      4874.4934      4431.4347     -1785.4417      353.38133      755.41283      4620.3818     -4723.849      -471.65923      91469.239      45.056594      45.056594      45.056594      0.92685801    -2098.7879      900.26406      433.74413    
    176000   176000         450.54553      651.85589      19795.967      18940.237      10554.564      8385.6733      4926.5256      4356.626      -1833.4044      372.16136      690.55154      4604.4061     -4731.193      -479.28526      90013.848      44.816346      44.816346      44.816346      0.94184393     1094.6802      1146.576      -285.68855    
    177000   177000         451.40291     -1417.1645      17204.604      19085.56       10574.649      8510.9117      4906.6971      4392.1775     -1734.9998      381.10548      681.03044      4616.5289     -4731.6279     -474.0464       91008.626      44.980836      44.980836      44.980836      0.93154903    -1160.9886     -1274.2303     -1816.2745    
    178000   178000         455.09343      867.92376      20435.986      19288.763      10661.103      8627.6597      4944.4714      4477.0915     -1777.2326      375.92306      726.32985      4613.0007     -4731.9242     -476.0067       90633.831      44.919003      44.919003      44.919003      0.93540123     1283.8062      290.13791      1029.8271    
    179000   179000         454.43999      234.53496      19501.522      19190.025      10645.796      8544.2289      4886.6095      4395.6103     -1736.939       366.99614      744.73366      4615.639      -4728.4207     -473.73193      91069.038      44.990786      44.990786      44.990786      0.93093107    -1486.1089      34.675026      2155.0388    
    180000   180000         450.08324     -540.9523       18267.365      18980.095      10543.734      8436.3611      4748.5068      4438.84       -1730.6156      361.24148      733.18367      4620.1591     -4734.9543     -477.5439       90342.084      44.870754      44.870754      44.870754      0.93842197    -1021.4631     -267.62409     -333.76969    
    181000   181000         460.4325      -1641.2271      17286.911      19465.855      10786.178      8679.6773      4895.6706      4471.376      -1607.3814      392.48399      647.96125      4612.9015     -4733.3346     -473.91655      91033.561      44.984943      44.984943      44.984943      0.93129387    -264.60307     -1945.3987     -2713.6797    
    182000   182000         449.12622      1653.6022      21177.621      18980.939      10521.314      8459.6251      4836.9198      4450.6784     -1843.9799      374.59549      764.9019       4611.0823     -4734.573      -473.63436      91087.799      44.993876      44.993876      44.993876      0.93073933     2055.5072      1710.6949      1194.6047    
    183000   183000         458.73502     -218.34935      18895.608      19183.476      10746.412      8437.0645      4869.6159      4397.8836     -1739.4346      379.06505      660.30098      4608.5129     -4738.8793     -477.24101      90399.42       44.880245      44.880245      44.880245      0.93782678     476.68856      822.68297     -1954.4196    
    184000   184000         461.56717     -1109.9573      17966.196      19440.207      10812.758      8627.4481      4891.3273      4460.6078     -1681.4254      399.05298      661.18814      4620.661      -4723.9637     -473.78908      91058.052      44.988977      44.988977      44.988977      0.93104338    -1424.2476     -1422.4352     -483.18893    
    185000   185000         449.80462     -487.68657      18331.795      18967.417      10537.207      8430.2107      4939.8001      4456.9845     -1801.2872      363.06577      598.93541      4610.7376     -4738.0255     -482.74866      89368.06       44.708913      44.708913      44.708913      0.94864986    -1287.3353     -544.58003      368.85562    
    186000   186000         449.86175      928.30579      20088.862      18857.926      10538.545      8319.3805      4741.8218      4464.1445     -1840.0306      377.11775      692.13785      4616.5959     -4732.4068     -474.49855      90921.902      44.966543      44.966543      44.966543      0.93243756     1826.3644      550.01677      408.53621    
    187000   187000         453.45831     -512.29521      18495.666      19176.127      10622.799      8553.3285      4921.3653      4491.4303     -1757.4016      379.37807      637.8855       4609.0488     -4728.378      -473.69201      91076.712      44.99205       44.99205       44.99205       0.93085263    -160.05717     -192.41455     -1184.4139    
    188000   188000         452.53829     -684.86126      18172.427      19082.269      10601.246      8481.0231      4896.3348      4431.4283     -1812.9589      388.73088      687.45141      4620.2481     -4730.2115     -473.60433      91093.574      44.994826      44.994826      44.994826      0.93068032    -551.95228     -356.9367      -1145.6948    
    189000   189000         448.4179      -457.29095      18285.621      18893.284      10504.721      8388.5623      4822.036       4472.5478     -1819.5673      374.02852      621.30619      4642.0772     -4723.8661     -473.4888       91115.8        44.998486      44.998486      44.998486      0.9304533     -1177.1401      1454.9215     -1649.6543    
    190000   190000         453.81133      1477.3146      21060.039      19125.798      10631.069      8494.729       4848.9146      4457.7609     -1751.1302      384.9538       643.45604      4640.9943     -4730.2203     -480.55338      89776.314      44.77689       44.77689       44.77689       0.9443359      3013.5996      1731.2439     -312.8998     
    191000   191000         457.19643      2010.1218      21584.403      18944.687      10710.369      8234.3185      4802.0826      4379.9937     -1929.1428      368.67793      718.43044      4623.2955     -4729.0188     -479.12024      90044.851      44.821491      44.821491      44.821491      0.94151965     1733.1144      3111.404       1185.8469    
    192000   192000         450.18608      399.57543      19535.688      19008.171      10546.143      8462.0282      4990.586       4341.1539     -1820.7631      374.6233       687.11292      4621.5384     -4732.2232     -476.58662      90523.546      44.900777      44.900777      44.900777      0.93654083     294.69976     -840.6681       1744.6946    
    193000   193000         460.76925     -520.07832      18623.38       19310.579      10794.066      8516.5132      4781.0093      4423.4017     -1636.9662      385.49109      687.61448      4607.4612     -4731.4983     -476.17361      90602.062      44.913755      44.913755      44.913755      0.93572922     158.4324      -547.57414     -1171.0932    
    194000   194000         454.50551      595.02339      19787.306      19005.75       10647.331      8358.4197      4884.5379      4367.8791     -1775.1732      375.3809       624.78813      4619.0311     -4738.0243     -479.01955      90063.779      44.824631      44.824631      44.824631      0.94132178    -222.33938     -84.816541      2092.2261    
    195000   195000         452.5669       547.35014      19987.345      19268.39       10601.917      8666.4734      4833.9329      4541.7179     -1698.055       401.28242      703.17309      4619.0025     -4734.5804     -479.00818      90065.917      44.824986      44.824986      44.824986      0.94129944     432.4005       595.46585      614.18406    
    196000   196000         455.06446      446.2944       19718.818      19130.721      10660.425      8470.2963      4795.9701      4417.284      -1680.8881      376.14927      652.16855      4635.6713     -4726.0588     -477.47594      90354.942      44.872883      44.872883      44.872883      0.93828843    -390.07438      1173.4935      555.46405    
    197000   197000         466.03343      802.05496      20440.197      19387.248      10917.386      8469.8619      4943.9623      4378.7954     -1780.1336      384.03591      666.71656      4613.6867     -4737.2014     -479.26526      90017.605      44.816969      44.816969      44.816969      0.94180463     1735.4807     -853.37469      1524.0589    
    198000   198000         449.58095     -320.05516      18515.608      18932.22       10531.967      8400.2525      4990.4871      4326.0835     -1790.0392      364.71551      622.60225      4620.5836     -4734.1802     -483.36188      89254.683      44.689998      44.689998      44.689998      0.94985489    -1151.6444      410.9029      -219.42396    
    199000   199000         449.58499     -17.42601       18967.707      18990.888      10532.062      8458.8265      4849.1927      4407.7587     -1762.405       373.93105      699.08464      4617.6234     -4726.359      -472.97997      91213.823      45.014616      45.014616      45.014616      0.92945339     75.540512     -64.491318     -63.327225    
    200000   200000         451.79181      652.11819      19751.037      18891.909      10583.759      8308.1501      4812.4976      4371.9173     -1815.2271      371.33469      690.46449      4609.8597     -4732.6966     -477.58171      90334.931      44.86957       44.86957       44.86957       0.93849628     1510.5152      1003.7843     -557.94488    
    201000   201000         454.57761     -1563.682       17062.585      19133.643      10649.02       8484.6232      4917.3403      4422.1135     -1782.9451      378.47993      658.70677      4615.3154     -4724.3876     -475.04577      90817.168      44.949271      44.949271      44.949271      0.93351289    -2537.0442     -2908.9346      754.93295    
    202000   202000         453.44591     -938.73666      17657.293      18903.694      10622.508      8281.1857      4740.9019      4395.1498     -1726.5144      370.47658      613.97758      4614.9235     -4727.7292     -473.87667      91041.222      44.986205      44.986205      44.986205      0.93121549    -1426.0502      180.40525     -1570.565     
    203000   203000         449.65825      1084.6662      20328.123      18892.968      10533.778      8359.1897      4907.3388      4458.7984     -1921.83        363.1086       668.58261      4612.0001     -4728.8088     -475.5285       90724.974      44.934055      44.934055      44.934055      0.93446152     1255.4532      1895.4502      103.09527    
    204000   204000         451.69996     -1133.7227      17349.553      18852.286      10581.607      8270.6784      4819.7267      4306.4021     -1816.0602      363.47217      709.68936      4620.6521     -4733.2038     -474.68359      90886.46       44.9607        44.9607        44.9607        0.93280117     333.81907     -2888.1764     -846.81074    
    205000   205000         454.66102     -217.98696      18527.508      18813.349      10650.974      8162.3748      4798.5444      4262.7494     -1784.7909      375.69296      635.46838      4607.9319     -4733.2212     -479.82906      89911.834      44.799409      44.799409      44.799409      0.94291255    -580.22437      346.45472     -420.19125    
    206000   206000         456.34649      862.9411       20112.415      18984.611      10690.458      8294.1531      4918.7914      4348.3679     -1834.5015      359.36996      625.59713      4610.9104     -4734.3822     -481.4228       89614.183      44.749919      44.749919      44.749919      0.94604442    -164.79041      298.84961      2454.7641    
    207000   207000         453.45314     -1571.4771      17106.057      19177.604      10622.678      8554.9263      4865.243       4412.7149     -1656.3899      388.9117       665.6433       4609.7516     -4730.9484     -477.30121      90388.019      44.878358      44.878358      44.878358      0.93794507    -2406.0705     -2280.7        -27.660786    
    208000   208000         448.74529      527.86561      19486.544      18798.255      10512.391      8285.8639      4844.1675      4466.4038     -1877.9958      370.49353      602.88194      4613.7952     -4733.8823     -482.53823      89407.031      44.715411      44.715411      44.715411      0.94823635     1341.0437     -613.17941      855.73249    
    209000   209000         458.97578     -293.6733       18804.598      19192.413      10752.052      8440.3608      4816.4572      4487.5512     -1794.7277      375.22534      675.02768      4612.0977     -4731.2706     -476.45213      90549.098      44.905001      44.905001      44.905001      0.93627654    -1555.6435      184.98494      489.63866    
    210000   210000         452.42533     -2018.7912      16417.59       19084.623      10598.6        8486.0231      4835.2492      4442.6413     -1684.9174      367.08943      637.94326      4620.601      -4732.5837     -476.25798      90586.012      44.911102      44.911102      44.911102      0.93589501    -4178.4483     -169.22767     -1708.6975    
    211000   211000         455.77346      605.43008      19508.12       18725.549      10677.034      8048.5154      4741.1666      4332.3035     -1834.2521      365.71446      557.4219       4624.8822     -4738.7211     -486.76528      88630.625      44.585599      44.585599      44.585599      0.95654292     525.67664      1235.7846      54.829009    
    212000   212000         448.94847      341.44647      19413.884      18966.952      10517.151      8449.8014      4894.5228      4525.5906     -1799.3666      368.16531      570.55476      4620.7143     -4730.3797     -480.68451      89751.823      44.772818      44.772818      44.772818      0.94459359     1513.444       1397.4628     -1886.5674    
    213000   213000         450.3182      -135.01907      18684.218      18861.385      10549.238      8312.1468      4807.7179      4383.0672     -1755.1375      375.31845      628.05163      4615.5331     -4742.4039     -479.50544      89972.517      44.809485      44.809485      44.809485      0.9422766      520.7154       113.86798     -1039.6406    
    214000   214000         451.17927     -661.42584      18182.374      19049.87       10569.41       8480.4599      4845.6425      4501.9311     -1740.7606      376.57124      615.59928      4624.4257     -4742.9494     -479.72568      89931.21       44.802627      44.802627      44.802627      0.9427094     -2239.326      -1648.9283      1903.9768    
    215000   215000         441.59758      1289.1756      20371.624      18673.796      10344.947      8328.8492      4851.3257      4368.3079     -1797.1312      369.21667      665.78407      4606.659      -4735.3129     -477.74692      90303.692      44.864397      44.864397      44.864397      0.93882094    -95.14358       1884.711       2077.9594    
    216000   216000         450.78766     -95.390549      18832.83       18958.346      10560.236      8398.1103      4924.5298      4352.0213     -1782.4704      379.0495       652.85376      4610.9928     -4738.8664     -478.17225      90223.369      44.851091      44.851091      44.851091      0.93965674    -701.80688      762.85044     -347.21521    
    217000   217000         443.2234      -125.00356      18918          19082.251      10383.034      8699.2168      4963.9312      4557.2217     -1747.763       386.1757       658.48778      4621.3273     -4740.1638     -478.84304      90096.978      44.830138      44.830138      44.830138      0.94097492     405.19099      323.64396     -1103.8456    
    218000   218000         447.62669      424.238        19277.017      18723.472      10486.186      8237.2858      4843.3776      4454.9038     -1901.2498      365.45711      601.35442      4609.3427     -4735.9        -482.20934      89468.012      44.725575      44.725575      44.725575      0.94759004    -406.51459      244.56511      1434.6635    
    219000   219000         451.96629      92.717706      19124.082      19001.841      10587.846      8413.9951      4856.526       4476.7417     -1805.5671      367.36876      616.98881      4633.8003     -4731.8633     -477.22856      90401.78       44.880635      44.880635      44.880635      0.9378023      1210.7066      154.40323     -1086.9567    
    220000   220000         444.32558      325.58578      19022.423      18593.479      10408.854      8184.625       4817.7245      4312.5637     -1832.0489      366.76156      635.44205      4617.6172     -4733.4351     -477.5776       90335.709      44.869699      44.869699      44.869699      0.9384882      1420.409      -372.6184      -71.033289    
    221000   221000         454.1194       2155.1819      21823.205      18998.491      10638.286      8360.2053      4793.8047      4474.3196     -1822.2866      373.49196      666.89408      4610.6993     -4736.7178     -480.05245      89869.995      44.792459      44.792459      44.792459      0.94335153     3770.4137      688.22918      2006.9029    
    222000   222000         449.47589     -613.99714      18229.039      19038.362      10529.506      8508.8558      4916.4422      4394.0451     -1683.8158      387.91464      619.61667      4606.4724     -4731.8194     -477.33556      90381.515      44.877281      44.877281      44.877281      0.93801257    -582.08909     -1350.8301      90.927797    
    223000   223000         449.66691      220.38979      19065.414      18774.608      10533.981      8240.6276      4834.667       4397.0126     -1853.3087      375.97848      600.70627      4621.8189     -4736.247      -476.83485      90476.421      44.892984      44.892984      44.892984      0.93702863    -489.09804      1859.0135     -708.7461     
    224000   224000         447.05264     -788.62793      17732.395      18767.916      10472.738      8295.1774      4787.2879      4411.0446     -1796.3544      377.70661      641.93206      4612.304      -4738.7433     -479.17334      90034.873      44.819835      44.819835      44.819835      0.941624      -235.33226     -1593.1091     -537.44241    
    225000   225000         455.115       -346.33397      18623.293      19079.085      10661.609      8417.476       4768.7928      4426.2126     -1707.2233      397.94254      640.99918      4620.3291     -4729.577      -478.08849      90239.175      44.85371       44.85371       44.85371       0.93949215    -747.82059     -356.33354      65.152221    
    226000   226000         444.44742     -393.342        18159.071      18674.437      10411.708      8262.729       4851.7281      4330.8492     -1794.1263      366.96363      625.0255       4621.149      -4738.86       -480.21325      89839.901      44.787459      44.787459      44.787459      0.94366752     985.6015      -527.93193     -1637.6956    
    227000   227000         449.56814      107.10656      19256.28       19115.848      10531.667      8584.181       4912.0758      4464.5548     -1733.7165      378.66747      679.87592      4617.5415     -4734.818      -479.87715      89902.823      44.797912      44.797912      44.797912      0.94300706    -1317.4945     -824.21303      2463.0272    
    228000   228000         453.32975      1153.2625      20483.97       18984.055      10619.787      8364.2678      4970.0819      4388.4814     -1850.9233      370.59445      608.02335      4612.6898     -4734.6798     -483.7719       89179.035      44.677369      44.677369      44.677369      0.95066063     1633.034      -99.453219      1926.2068    
    229000   229000         443.21063      502.37798      19405.862      18743.558      10382.735      8360.8229      4882.2563      4466.1426     -1828.1364      374.07241      591.89997      4612.9883     -4738.4003     -477.25702      90396.388      44.879743      44.879743      44.879743      0.93785824    -14.811742      1900.8425     -378.89679    
    230000   230000         452.89133      1419.1945      20668.357      18818.257      10609.517      8208.7403      4727.082       4345.0768     -1744.6753      367.9075       640.10298      4616.0902     -4742.8438     -482.64294      89387.636      44.712177      44.712177      44.712177      0.9484421      422.14925      1887.3464      1948.0879    
    231000   231000         442.68068     -321.79506      18222.61       18642.657      10370.32       8272.3368      4840.6932      4330.5941     -1754.1163      381.46761      600.71694      4610.8924     -4737.9111     -482.0157       89503.953      44.731563      44.731563      44.731563      0.94720952    -701.67155     -374.54166      110.82803    
    232000   232000         455.48711      732.32251      19813.989      18849.879      10670.326      8179.5529      4917.0236      4209.6314     -1828.2703      365.26102      645.92093      4609.3862     -4739.3999     -477.91951      90271.082      44.858996      44.858996      44.858996      0.93916008     531.24844      1442.6129      223.10617    
    233000   233000         448.01733     -1887.516       16433.891      18921.269      10495.337      8425.9311      4990.313       4321.989      -1735.4133      376.14792      602.17677      4610.3166     -4739.5988     -477.45037      90359.781      44.873684      44.873684      44.873684      0.93823819    -3641.2641      354.36707     -2375.651     
    234000   234000         451.36527      741.46948      19599.663      18636.875      10573.767      8063.1086      4891.8395      4270.888      -1883.0016      371.27601      547.27377      4604.2812     -4739.4483     -484.55393      89035.107      44.653321      44.653321      44.653321      0.95219739     1821.4554      618.80649     -215.8535     
    235000   235000         450.35867     -648.55896      18030.851      18882.17       10550.186      8331.9842      4899.0399      4318.5097     -1716.7651      379.07345      587.91062      4604.9682     -4740.7526     -479.33179      90005.112      44.814896      44.814896      44.814896      0.94193535    -1221.4048      506.0345      -1230.3065    
    236000   236000         459.96053     -174.30776      18902.339      19130.236      10775.121      8355.1147      4898.0607      4369.0753     -1781.6772      377.24597      631.57871      4602.7165     -4741.8853     -481.23547      89649.067      44.755724      44.755724      44.755724      0.94567629    -219.75202     -715.81696      412.64571    
    237000   237000         445.35605      1224.7486      20365.036      18764.722      10432.994      8331.7284      5014.2566      4335.6552     -1905.666       372.38624      622.18204      4624.8389     -4731.9245     -481.52747      89594.705      44.746676      44.746676      44.746676      0.94625009     2333.3803      460.06691      880.79853    
    238000   238000         448.59281     -156.32666      18443.381      18648.462      10508.819      8139.6432      4724.886       4268.2455     -1730.8993      378.76656      625.00123      4611.2925     -4737.6493     -479.60915      89953.061      44.806255      44.806255      44.806255      0.9424804      713.85232     -1172.1577     -10.674619    
    239000   239000         448.49797      186.91472      19044.518      18801.197      10506.597      8294.5997      4855.5044      4388.1311     -1769.054       376.0318       596.32734      4593.0729     -4745.4138     -483.32882      89260.788      44.691017      44.691017      44.691017      0.94978993    -572.25115      371.18298      761.81232    
    240000   240000         440.82288     -895.83822      17344.138      18509.421      10326.799      8182.6218      4783.8485      4374.8782     -1780.3959      385.41225      560.48316      4600.4031     -4742.0075     -483.7018       89191.959      44.679527      44.679527      44.679527      0.95052287    -867.65714     -703.75778     -1116.0997    
    241000   241000         444.48825      1335.4551      20587.265      18842.071      10412.665      8429.4063      4959.2275      4435.5567     -1809.7293      377.06873      605.99146      4603.6468     -4742.3556     -481.46504      89606.32       44.74861       44.74861       44.74861       0.94612742     1101.938       476.07094      2428.3564    
    242000   242000         452.41016      1042.714       20324.321      18964.51       10598.245      8366.2654      4913.588       4467.9159     -1860.75        378.87155      606.16131      4602.0727     -4741.5942     -482.46513      89420.579      44.717669      44.717669      44.717669      0.94809269     794.71761      1449.3883      884.03613    
    243000   243000         448.92548     -518.34055      18184.51       18860.562      10516.612      8343.9498      4834.3609      4407.213      -1725.1419      368.28934      582.84522      4614.5122     -4738.1289     -482.40788      89431.19       44.719438      44.719438      44.719438      0.9479802      1121.1084     -1701.6075     -974.5225     
    244000   244000         448.5827       580.41735      19562.434      18800.889      10508.582      8292.3067      4908.4545      4372.5538     -1884.9843      370.88398      654.03891      4612.008      -4740.6483     -479.5391       89966.2        44.808437      44.808437      44.808437      0.94234276     1800.1494     -233.12589      174.22858    
    245000   245000         451.14445     -1868.9419      16652.623      19099.621      10568.594      8531.0272      5026.4552      4442.9145     -1750.0923      368.47274      564.83693      4618.4238     -4739.9837     -480.5532       89776.347      44.776895      44.776895      44.776895      0.94433556    -1760.0066     -1031.8612     -2814.9578    
    246000   246000         448.3896      -82.070453      18657.38       18764.732      10504.058      8260.6736      4765.7621      4399.5985     -1803.0525      370.40141      646.41563      4613.748      -4732.1995     -481.01418      89690.31       44.762587      44.762587      44.762587      0.94524143    -146.02902      877.33285     -977.51519    
    247000   247000         445.51498      318.83772      18965.014      18549.621      10436.717      8112.9037      4850.6435      4337.261      -1888.6611      356.01649      581.30089      4612.7678     -4736.4248     -482.9354       89333.503      44.703149      44.703149      44.703149      0.94901682    -113.15442     -234.99757      1304.6651    
    248000   248000         448.29829      869.67002      19949.314      18818.94       10501.919      8317.021       4811.71        4367.1225     -1754.8853      373.46038      636.91704      4620.837      -4738.1406     -484.07386      89123.406      44.668077      44.668077      44.668077      0.95125401     1718.2583      732.34385      158.40794    
    249000   249000         453.26204     -689.56485      18002.086      18908.364      10618.201      8290.1634      4751.2032      4306.5243     -1641.0809      382.70429      630.60012      4600.4482     -4740.2358     -478.73255      90117.772      44.833586      44.833586      44.833586      0.9407578     -262.31947     -1101.4237     -704.95138    
    250000   250000         445.08036     -776.68305      17649.823      18671.442      10426.535      8244.9061      4786.7152      4371.4035     -1777.455       357.50451      628.04113      4613.4747     -4734.7779     -478.33761      90192.178      44.845922      44.845922      44.845922      0.9399817     -1902.354      -1565.9446      1138.2495    
Loop time of 1125.07 on 1 procs for 250000 steps with 7860 atoms

Performance: 19.199 ns/day, 1.250 hours/ns, 222.209 timesteps/s, 1.747 Matom-step/s
100.0% CPU use with 1 MPI tasks x 1 OpenMP threads

MPI task timing breakdown:
Section |  min time  |  avg time  |  max time  |%varavg| %total
---------------------------------------------------------------
Pair    | 491.06     | 491.06     | 491.06     |   0.0 | 43.65
Bond    | 175.23     | 175.23     | 175.23     |   0.0 | 15.57
Kspace  | 200.2      | 200.2      | 200.2      |   0.0 | 17.79
Neigh   | 159.44     | 159.44     | 159.44     |   0.0 | 14.17
Comm    | 10.053     | 10.053     | 10.053     |   0.0 |  0.89
Output  | 3.6506     | 3.6506     | 3.6506     |   0.0 |  0.32
Modify  | 64.761     | 64.761     | 64.761     |   0.0 |  5.76
Other   |            | 20.67      |            |       |  1.84

Nlocal:           7860 ave        7860 max        7860 min
Histogram: 1 0 0 0 0 0 0 0 0 0
Nghost:          19308 ave       19308 max       19308 min
Histogram: 1 0 0 0 0 0 0 0 0 0
Neighs:              0 ave           0 max           0 min
Histogram: 1 0 0 0 0 0 0 0 0 0
FullNghs:  4.36052e+06 ave 4.36052e+06 max 4.36052e+06 min
Histogram: 1 0 0 0 0 0 0 0 0 0

Total # of neighbors = 4360520
Ave neighs/atom = 554.77354
Ave special neighs/atom = 5.8625954
Neighbor list builds = 12574
Dangerous builds = 0
System init for write_data ...
PPPM Kokkos initialization ...
  using 12-bit tables for long-range coulomb
  G vector (1/distance) = 0.29546782
  grid = 30 30 30
  stencil order = 5
  estimated absolute RMS force accuracy = 0.00038739812
  estimated relative force accuracy = 1.1666379e-06
  using double precision cuFFT
  3d grid and FFT values/proc = 50653 27000
Generated 6 of 6 mixed pair_coeff terms from sixthpower/sixthpower mixing rule
System init for write_restart ...
PPPM Kokkos initialization ...
  using 12-bit tables for long-range coulomb
  G vector (1/distance) = 0.29546782
  grid = 30 30 30
  stencil order = 5
  estimated absolute RMS force accuracy = 0.00038739812
  estimated relative force accuracy = 1.1666379e-06
  using double precision cuFFT
  3d grid and FFT values/proc = 50653 27000
Generated 6 of 6 mixed pair_coeff terms from sixthpower/sixthpower mixing rule
STAGE COMPLETE: NPT T=473.0->448.0K P=1.0->1.0atm steps=250000
