LAMMPS (22 Jul 2025 - Update 3)
KOKKOS mode with Kokkos version 4.6.2 is enabled
  will use up to 1 GPU(s) per node
  using 1 OpenMP thread(s) per MPI task
Reading data file ...
  orthogonal box = (4.7205536 4.7205536 4.7205536) to (47.485156 47.485156 47.485156)
  1 by 1 by 1 MPI processor grid
  reading atoms ...
  6500 atoms
  reading velocities ...
  6500 velocities
  scanning bonds ...
  4 = max bonds/atom
  scanning angles ...
  16 = max angles/atom
  scanning dihedrals ...
  38 = max dihedrals/atom
  scanning impropers ...
  12 = max impropers/atom
  orthogonal box = (4.7205536 4.7205536 4.7205536) to (47.485156 47.485156 47.485156)
  1 by 1 by 1 MPI processor grid
  reading bonds ...
  6970 bonds
  reading angles ...
  11760 angles
  reading dihedrals ...
  17500 dihedrals
  reading impropers ...
  4800 impropers
Finding 1-2 1-3 1-4 neighbors ...
  special bond factors lj:    0        0        1       
  special bond factors coul:  0        0        1       
     4 = max # of 1-2 neighbors
    10 = max # of 1-3 neighbors
    14 = max # of special neighbors
  special bonds CPU = 0.003 seconds
  read_data CPU = 0.259 seconds
PPPM Kokkos initialization ...
  using 12-bit tables for long-range coulomb
  G vector (1/distance) = 0.29965289
  grid = 30 30 30
  stencil order = 5
  estimated absolute RMS force accuracy = 0.00032765807
  estimated relative force accuracy = 9.8673256e-07
  using double precision cuFFT
  3d grid and FFT values/proc = 50653 27000
Generated 28 of 28 mixed pair_coeff terms from sixthpower/sixthpower mixing rule
Neighbor list info ...
  update: every = 1 steps, delay = 0 steps, check = yes
  max neighbors/atom: 4000, page size: 100000
  master list distance cutoff = 11.5
  ghost atom cutoff = 11.5
  binsize = 11.5, bins = 4 4 4
  1 neighbor lists, perpetual/occasional/extra = 1 0 0
  (1) pair lj/class2/coul/long/kk, perpetual
      attributes: full, newton off, kokkos_device
      pair build: full/bin/kk/device
      stencil: full/bin/3d
      bin: kk/device
Setting up Verlet run ...
  Unit style    : real
  Current step  : 0
  Time step     : 1
Per MPI rank memory allocation (min/avg/max) = 44.27 | 44.27 | 44.27 Mbytes
   Step          Time           Temp          Press         Enthalpy        TotEng         KinEng         PotEng         E_bond        E_angle        E_dihed        E_impro         E_vdwl         E_coul         E_long         E_tail         Volume           Lx             Ly             Lz          Density          Pxx            Pyy            Pzz      
         0   0              521.57778     -465.40957      22913.513      23444.354      10104.153      13340.201      4617.0377      4439.2623      3222.4164      375.77953      139.60111      4916.5458     -4370.4416     -503.58234      78208.387      42.764603      42.764603      42.764603      1.1279566     -1585.3597      3248.2968     -3059.1659    
      1000   1000           523.62926     -229.61479      23019.244      23282.119      10143.895      13138.224      4513.8113      4328.0288      3218.9119      388.37966      156.52669      4901.3289     -4368.7629     -501.70567      78500.931      42.817858      42.817858      42.817858      1.1237531      217.71484      761.01496     -1667.5742    
      2000   2000           522.04163      994.97717      24477.903      23351.215      10113.139      13238.076      4658.0841      4369.6963      3122.4814      393.48723      142.98106      4919.1273     -4367.7818     -507.23497      77645.204      42.661705      42.661705      42.661705      1.1361379      2561.5846      730.989       -307.64212    
      3000   3000           529.26156      1478.5862      25396.665      23708.224      10253.005      13455.219      4700.7492      4320.8781      3255.1252      394.91161      222.9151       4927.5186     -4366.8792     -502.99145      78300.262      42.781342      42.781342      42.781342      1.126633       2001.9933      273.71383      2160.0515    
      4000   4000           524.04711     -199.3537       23127.318      23352.902      10151.99       13200.913      4520.5864      4261.0095      3267.7977      404.08561      218.38105      4899.4004     -4370.348      -507.59112      77590.725      42.651725      42.651725      42.651725      1.1369357     -965.02074     -441.67505      808.6347     
      5000   5000           518.92295     -1181.856       21929.928      23288.625      10052.723      13235.902      4515.4968      4394.6591      3252.9963      386.31263      141.23872      4906.9724     -4361.7737     -499.62194      78828.328      42.877301      42.877301      42.877301      1.1190858     -1147.7253     -2252.9904     -144.85236    
      6000   6000           528.0946       772.63223      24552.859      23665.239      10230.399      13434.84       4600.5607      4321.0307      3334.9036      422.40153      220.40523      4905.3103     -4369.7724     -499.9716       78773.199      42.867303      42.867303      42.867303      1.119869       5.6974104      316.10538      1996.0939    
      7000   7000           522.2801      -1473.1143      21676.993      23371.532      10117.759      13253.774      4531.5082      4246.6763      3392.1504      407.87104      135.07286      4911.8751     -4371.3801     -499.32639      78874.987      42.885759      42.885759      42.885759      1.1184238     -2322.6594     -262.72634     -1833.9571    
      8000   8000           526.63941     -1098.346       22411.414      23671.707      10202.208      13469.498      4632.1432      4367.2982      3346.222       402.09335      172.77635      4914.8878     -4365.9225     -500.57314      78678.537      42.850125      42.850125      42.850125      1.1212164      727.68524     -1708.1969     -2314.5264    
      9000   9000           525.01021     -590.0223       22926.029      23607.328      10170.647      13436.681      4630.4302      4404.5624      3231.761       391.08128      236.96147      4909.9923     -4368.108      -497.42845      79175.935      42.940233      42.940233      42.940233      1.1141727     -1076.4154     -955.44157      261.79003    
     10000   10000          527.17839      47.637715      23535.409      23481.206      10212.65       13268.556      4432.9985      4342.8408      3378.7796      392.95114      161.37618      4927.0815     -4367.4714     -504.81551      78017.338      42.729752      42.729752      42.729752      1.1307187      1602.317      -833.71035     -625.69355    
     11000   11000          524.98824      189.61002      23855.965      23639.484      10170.222      13469.263      4554.872       4281.6918      3488.1508      420.79153      190.68687      4903.1334     -4370.0638     -503.08445      78285.788      42.778706      42.778706      42.778706      1.1268413      312.49887      123.32551      133.00568    
     12000   12000          521.72013      189.25898      23649.127      23431.287      10106.911      13324.376      4585.0438      4379.8048      3175.7006      394.50071      233.48244      4923.199      -4367.3553     -499.01993      78923.427      42.894536      42.894536      42.894536      1.1177374      795.18707     -101.21921     -126.19092    
     13000   13000          515.81525     -220.29765      22854.779      23106.373      9992.5198      13113.853      4499.4401      4143.1651      3319.8267      402.30016      202.43633      4913.6925     -4367.008      -502.93245      78309.447      42.783015      42.783015      42.783015      1.1265009     -1110.8546     -1095.8651      1545.8268    
     14000   14000          529.22571      144.77706      23737.79       23572.26       10252.311      13319.949      4462.2988      4421.8373      3281.7829      395.3254       212.6382       4915.4188     -4369.3524     -502.36971      78397.168      42.798984      42.798984      42.798984      1.1252404      807.93145      262.95485     -636.55513    
     15000   15000          521.98081      1173.5545      24542.674      23195.463      10111.961      13083.502      4383.8803      4386.0096      3152.6958      392.20246      208.71027      4929.0879     -4369.0843     -500.34245      78714.813      42.856709      42.856709      42.856709      1.1206996      1889.9124      1314.8152      315.93603    
     16000   16000          522.99465      1945.9792      25704.932      23460.932      10131.601      13329.331      4588.9219      4301.9193      3242.2518      399.45733      254.15689      4911.742      -4369.1188     -498.09821      79069.472      42.920978      42.920978      42.920978      1.1156728      1879.0425      1853.2401      2105.6549    
     17000   17000          522.75385      80.781913      23163.624      23071.894      10126.936      12944.958      4514.779       4072.618       3315.6474      386.89722      104.58761      4921.5876     -4371.1589     -505.83213      77860.539      42.701107      42.701107      42.701107      1.1329958      480.30149      624.89797     -862.85372    
     18000   18000          527.6863       1289.1554      24977.348      23500.547      10222.489      13278.057      4613.1451      4265.5008      3215.9021      398.4318       244.58052      4913.2648     -4372.7679     -501.39836      78549.046      42.826604      42.826604      42.826604      1.1230647      2660.9544      1385.556      -179.04401    
     19000   19000          526.37768      1192.243       24915.401      23547.788      10197.138      13350.65       4488.1942      4366.9995      3283.3156      411.83117      249.41119      4920.3744     -4369.4762     -500.72733      78654.31       42.845726      42.845726      42.845726      1.1215617      232.16616      2595.4895      749.07324    
     20000   20000          517.50764      1618.7103      25222.116      23362.497      10025.305      13337.192      4642.1635      4225.0224      3306.286       396.56005      222.19853      4914.091      -4369.1293     -499.97117      78773.268      42.867315      42.867315      42.867315      1.119868       2033.2414      703.47487      2119.4147    
     21000   21000          524.89024      52.446627      23643.527      23583.022      10168.323      13414.699      4456.009       4302.7748      3411.3721      400.53425      307.66493      4905.0914     -4368.7474     -497.88546      79103.259      42.927091      42.927091      42.927091      1.1151963     -642.23851      275.71475      523.86364    
     22000   22000          528.5081       1432.0163      25232.091      23597.392      10238.409      13358.983      4596.4228      4276.3269      3286.7417      398.25862      251.53189      4919.1212     -4369.4207     -503.16424      78273.374      42.776445      42.776445      42.776445      1.1270201      1192.5885      1604.3399      1499.1204    
     23000   23000          526.87891      991.08525      24470.967      23335.462      10206.848      13128.614      4401.3639      4301.6075      3259.6846      393.44166      218.19162      4921.1964     -4366.8715     -501.32767      78560.122      42.828617      42.828617      42.828617      1.1229064      2034.4881      818.34468      120.42295    
     24000   24000          519.09503     -1128.9809      22367.069      23660.206      10056.057      13604.15       4593.0112      4476.8456      3394.9322      405.98942      185.60783      4914.3624     -4366.5987     -501.4663       78538.403      42.82467       42.82467       42.82467       1.1232169     -291.61263     -1067.9394     -2027.3906    
     25000   25000          524.28753     -99.794502      23220.667      23335.983      10156.647      13179.335      4515.7766      4240.8637      3225.286       399.89069      265.75557      4904.1466     -4372.3836     -497.07082      79232.9        42.950529      42.950529      42.950529      1.1133716      9.1870478     -803.25069      494.68013    
     26000   26000          528.32651      171.21235      23811.146      23617.149      10234.892      13382.257      4657.3949      4318.8854      3309.8062      402.07997      148.29046      4916.3023     -4370.5021     -506.92022      77693.414      42.670533      42.670533      42.670533      1.135433       765.09815     -381.62469      130.16358    
     27000   27000          521.58684      545.18242      24075.718      23452.203      10104.329      13347.874      4512.0828      4404.0016      3257.9519      401.26162      216.61937      4921.6245     -4365.6679     -502.22055      78420.452      42.803221      42.803221      42.803221      1.1249063     -22.280351     -151.9326       1809.7602    
     28000   28000          525.92842      1708.5028      25278.89       23321.234      10188.435      13132.799      4438.9109      4299.4824      3245.5118      410.75486      190.73415      4919.593      -4372.1882     -501.27835      78567.851      42.830021      42.830021      42.830021      1.1227959      101.67308      2147.2116      2876.6236    
     29000   29000          524.85735     -565.03007      22894.104      23539.366      10167.686      13371.68       4529.4991      4346.9522      3374.199       405.3765       158.21926      4925.4654     -4368.0312     -502.96206      78304.838      42.782176      42.782176      42.782176      1.1265672     -1028.688      -291.09813     -375.30411    
     30000   30000          518.54573     -389.91725      22930.463      23376.913      10045.415      13331.498      4535.7335      4257.7006      3337.8795      414.0184       244.74459      4913.8842     -4372.463      -501.64828      78509.913      42.819491      42.819491      42.819491      1.1236245      75.489672     -24.646225     -1220.5952    
     31000   31000          526.3525       228.63123      23914.142      23652.428      10196.65       13455.778      4579.1724      4524.9097      3229.8274      379.52606      187.08262      4925.0873     -4369.8276     -501.77461      78490.146      42.815897      42.815897      42.815897      1.1239075      584.80482      56.25384       44.835023    
     32000   32000          523.72261     -2387.9372      20746.456      23495.525      10145.703      13349.822      4500.8121      4412.498       3338.9117      386.16365      170.14339      4913.7297     -4372.4363     -498.92696      78938.133      42.897201      42.897201      42.897201      1.1175291     -1796.5985     -3108.5606     -2258.6524    
     33000   33000          515.05167     -62.324833      23113.501      23185.122      9977.7274      13207.395      4517.2557      4364.7982      3256.489       362.7156       167.37054      4909.3698     -4370.6043     -499.82548      78796.229      42.87148       42.87148       42.87148       1.1195417     -443.4216      -921.75445      1178.2016    
     34000   34000          522.50848     -32.011425      23415.154      23451.855      10122.183      13329.672      4492.7901      4391.6529      3294.6565      392.99854      214.44846      4908.3507     -4365.2257     -500.99668      78612.023      42.838046      42.838046      42.838046      1.122165      -194.48818     -1142.7568      1241.2107    
     35000   35000          524.0789       579.53907      24072.783      23411.765      10152.606      13259.159      4559.0034      4309.0627      3295.7616      409.23441      142.64801      4915.1549     -4371.7056     -503.58089      78208.613      42.764644      42.764644      42.764644      1.1279533      2078.9666     -1138.8025      798.45306    
     36000   36000          526.73992     -863.89567      22459.464      23447.711      10204.156      13243.555      4566.086       4237.4698      3330.5043      401.91831      156.85393      4920.0908     -4369.3682     -502.10641      78438.279      42.806464      42.806464      42.806464      1.1246507     -266.88494     -333.64141     -1991.1607    
     37000   37000          514.69671      256.47728      23488.73       23196.438      9970.851       13225.587      4605.0044      4293.5093      3263.9831      394.15187      124.52261      4915.9102     -4371.4948     -504.00023      78143.54       42.75278       42.75278       42.75278       1.1288926     -1615.034       505.90066      1878.5652    
     38000   38000          525.31835     -770.64235      22435.88       23308.472      10176.617      13131.856      4532.7278      4283.3075      3265.4674      388.71166      128.01921      4905.1822     -4371.5601     -507.27244      77639.469      42.660655      42.660655      42.660655      1.1362219      299.47046     -2044.1018     -567.29572    
     39000   39000          516.2842      -157.49905      22778.787      22957.976      10001.604      12956.372      4621.3329      4194.3553      3139.7884      355.50898      119.67759      4898.1973     -4372.4885     -504.85348      78011.471      42.728681      42.728681      42.728681      1.1308037     -161.40621     -1013.2337      702.14273    
     40000   40000          524.51617      86.586435      23564.428      23465.466      10161.077      13304.389      4675.5738      4307.19        3215.2855      375.71732      195.63028      4907.6514     -4372.6592     -502.54831      78369.306      42.793913      42.793913      42.793913      1.1256405     -1822.2134      1553.9031      528.06958    
     41000   41000          522.10873     -1447.489       21655.537      23302.982      10114.439      13188.543      4571.1138      4208.8019      3336.8512      383.56721      163.50265      4898.0955     -4373.3889     -504.66594      78040.461      42.733973      42.733973      42.733973      1.1303837     -925.65678     -1185.8023     -2231.0078    
     42000   42000          517.72341      872.66599      24170.286      23166.071      10029.485      13136.586      4542.9406      4261.0942      3197.5579      396.27621      206.38245      4905.4912     -4373.1567     -499.13868      78904.65       42.891134      42.891134      42.891134      1.1180033      2623.1359     -536.13961      531.00165    
     43000   43000          514.33895      1007.5344      24450.71       23298.708      9963.9204      13334.788      4791.5166      4295.62        3138.7032      384.17433      185.81114      4907.6724     -4368.7096     -502.35029      78400.199      42.799535      42.799535      42.799535      1.1251969      477.17697      773.90894      1771.5174    
     44000   44000          525.40649      696.74235      24239.909      23446.975      10178.324      13268.651      4573.6075      4398.8839      3246.8178      391.45023      112.11304      4910.8716     -4365.0929     -504.70205      78034.877      42.732954      42.732954      42.732954      1.1304646      1518.6565      1949.9366     -1378.3661    
     45000   45000          516.16056     -1002.5297      21941.609      23075.562      9999.2093      13076.352      4535.3961      4260.3436      3291.798       394.15444      56.957016      4912.2022     -4374.499      -507.8111       77557.113      42.645565      42.645565      42.645565      1.1374284     -1569.001       142.15296     -1580.7411    
     46000   46000          514.91818      410.22101      23727.926      23259.735      9975.1414      13284.594      4648.7026      4346.7443      3200.6368      387.90288      137.50687      4929.6621     -4366.5616     -503.26338      78257.955      42.773636      42.773636      42.773636      1.1272421     -1271.9476      840.43981      1662.1708    
     47000   47000          528.4601      -1098.9081      22142.247      23385.019      10237.479      13147.539      4614.844       4231.1888      3328.2688      374.89258      45.277562      4920.2363     -4367.1686     -507.89004      77545.058      42.643356      42.643356      42.643356      1.1376052     -1403.6369     -1401.9881     -491.0993     
     48000   48000          518.87574     -778.05836      22358.373      23241.681      10051.809      13189.873      4599.0925      4286.4244      3281.5353      374.37589      111.63943      4907.3683     -4370.5633     -505.94064      77843.841      42.698054      42.698054      42.698054      1.1332388     -523.91537     -284.91694     -1525.3428    
     49000   49000          523.63988      698.31522      24341.615      23542.34       10144.101      13398.239      4596.9746      4403.988       3274.8168      379.56127      171.10275      4939.201      -4367.4052     -501.82826      78481.755      42.814371      42.814371      42.814371      1.1240277     -981.37936      1727.7406      1348.5844    
     50000   50000          518.98528      69.314584      23385.237      23304.993      10053.931      13251.063      4508.7613      4283.2315      3227.8047      383.38923      302.70225      4914.9368     -4369.7629     -496.14906      79380.101      42.977111      42.977111      42.977111      1.111307       797.89653      793.20071     -1383.1535    
     51000   51000          522.55572      207.88586      23630.502      23394.854      10123.098      13271.756      4598.1639      4374.9343      3174.4302      381.80063      182.60979      4926.6237     -4366.8067     -506.71082      77725.521      42.67641       42.67641       42.67641       1.1349639     -571.87253      233.60659      961.92353    
     52000   52000          521.63799      587.18072      24007.849      23330.666      10105.32       13225.347      4539.5959      4198.6151      3284.7045      385.38697      268.15612      4916.6542     -4367.7657     -498.04201      79078.394      42.922593      42.922593      42.922593      1.115547       1504.2421      1896.6821     -1639.382     
     53000   53000          527.48909     -1278.6812      22151.759      23605.925      10218.669      13387.257      4526.4197      4368.9242      3396.5732      392.93495      156.38968      4918.243      -4372.2281     -505.06557      77978.712      42.722699      42.722699      42.722699      1.1312788     -1258.1037     -2239.1814     -338.75852    
     54000   54000          514.75882     -595.03593      22558.938      23244.456      9972.0542      13272.402      4645.0516      4324.3512      3136.9064      378.11183      220.37771      4930.1233     -4362.5201     -498.56733      78995.072      42.907512      42.907512      42.907512      1.1167236      379.57005     -3452.4001      1287.7223    
     55000   55000          523.79301     -496.09499      22818.725      23389.086      10147.067      13242.018      4568.4425      4315.2215      3269.8801      379.10842      170.64938      4910.9747     -4372.2582     -499.59113      78833.19       42.878182      42.878182      42.878182      1.1190168     -898.08658     -781.1334       190.93503    
     56000   56000          525.33844      455.09331      23987.804      23468.143      10177.006      13291.137      4601.8947      4302.4448      3298.5909      397.01875      139.23601      4923.5153     -4371.5634     -503.01361      78296.814      42.780714      42.780714      42.780714      1.1266827      2190.6554      252.2664      -1077.6419    
     57000   57000          526.93985     -1620.9829      21378.115      23240.661      10208.029      13032.632      4570.92        4129.0965      3261.9985      380.57762      141.04797      4918.5887     -4369.5969     -499.88614      78786.667      42.869746      42.869746      42.869746      1.1196775     -1120.726      -1467.6227     -2274.6001    
     58000   58000          524.50558      71.812291      23401.409      23319.8        10160.871      13158.929      4589.8812      4310.1508      3200.3595      371.88527      135.63068      4924.205      -4373.1838     -505.42688      77922.968      42.712517      42.712517      42.712517      1.1320881     -12.788293      551.89928     -323.67411    
     59000   59000          510.50358     -792.12357      22241.956      23148.992      9889.6206      13259.372      4575.1318      4239.9935      3284.4262      388.83501      233.71709      4904.6406     -4367.3724     -501.61199      78515.593      42.820523      42.820523      42.820523      1.1235432     -1622.676       162.68711     -916.3818     
     60000   60000          512.38882     -114.07962      22903.387      23034.593      9926.142       13108.451      4662.6627      4233.3345      3118.0598      365.93107      174.47604      4918.4447     -4364.4576     -499.40469      78862.621      42.883518      42.883518      42.883518      1.1185992     -651.28495     -798.55929      1107.6054    
     61000   61000          529.76553      1562.5712      25183.4        23414.718      10262.769      13151.949      4583.2519      4285.3823      3241.2645      385.03497      118.61402      4909.7506     -4371.3495     -507.44565      77612.968      42.6558        42.6558        42.6558        1.1366098      1696.8263      2001.4951      989.3921     
     62000   62000          514.45329     -563.97287      22418.141      23063.756      9966.1356      13097.62       4419.0336      4300.6007      3267.8854      374.17388      186.35873      4921.65       -4372.0824     -501.74714      78494.443      42.816678      42.816678      42.816678      1.1238459     -138.26566     -84.974329     -1468.6786    
     63000   63000          522.72962     -783.61775      22369.288      23265.687      10126.467      13139.221      4565.8368      4285.6339      3231.917       386.70355      119.22757      4921.3415     -4371.4398     -502.1141       78437.078      42.806245      42.806245      42.806245      1.1246679     -944.43686     -2619.6508      1213.2344    
     64000   64000          526.34548      301.76115      23594.243      23253.659      10196.514      13057.145      4412.9592      4242.7312      3286.058       379.15366      204.68942      4907.7136     -4376.1599     -508.90735      77390.044      42.614922      42.614922      42.614922      1.1398839      773.15443      137.57491     -5.4458931    
     65000   65000          517.87219     -652.0158       22624.574      23375.071      10032.367      13342.703      4535.357       4327.5802      3313.7149      384.36764      245.19614      4905.906      -4369.4187     -499.00975      78925.036      42.894828      42.894828      42.894828      1.1177146      255.58202     -472.06205     -1739.5674    
     66000   66000          511.64304     -513.04492      22422.418      23008.457      9911.6946      13096.762      4429.356       4255.3418      3247.1647      385.71132      245.06702      4907.7752     -4373.6539     -502.83848      78324.082      42.78568       42.78568       42.78568       1.1262904      791.8272      -1708.3966     -622.5654     
     67000   67000          511.22401      1317.6345      24714.753      23191.738      9903.577       13288.161      4559.8508      4295.3921      3226.8567      401.17706      267.18091      4903.9039     -4366.2005     -496.92455      79256.222      42.954743      42.954743      42.954743      1.113044       755.37293      1058.0602      2139.4704    
     68000   68000          517.45744     -276.33232      22849.448      23163.843      10024.333      13139.51       4452.1526      4245.528       3313.2087      380.24933      215.61995      4903.9336     -4371.1824     -504.8423       78013.199      42.728997      42.728997      42.728997      1.1307787      2166.5787     -1474.9769     -1520.5987    
     69000   69000          521.04111      382.50642      23740.404      23304.074      10093.757      13210.318      4460.739       4259.3212      3355.8707      397.0104       207.8112       4905.775      -4376.21       -503.52835      78216.773      42.766131      42.766131      42.766131      1.1278356     -548.0518      -315.31554      2010.8866    
     70000   70000          510.95368      346.15763      23494.347      23098.377      9898.34        13200.037      4475.5815      4195.5886      3368.0224      391.80626      248.12611      4896.4537     -4375.5412     -502.12437      78435.473      42.805953      42.805953      42.805953      1.1246909     -182.26096      943.78188      276.95198    
     71000   71000          522.46366      1938.4056      25739.377      23502.681      10121.315      13381.366      4565.5769      4285.8644      3286.9515      398.52505      286.37642      4924.4124     -4366.3402     -497.77992      79120.03       42.930125      42.930125      42.930125      1.1149599      1014.447       1319.5008      3481.2691    
     72000   72000          515.1473       356.26566      23560.797      23149.583      9979.5801      13170.003      4476.8157      4246.9327      3280.1725      385.2633       236.03906      4916.7016     -4371.9222     -497.6293       79143.979      42.934456      42.934456      42.934456      1.1146225     -64.17145       1074.4618      58.506675    
     73000   73000          520.34196      438.80384      23869.991      23359.401      10080.213      13279.188      4573.575       4303.3798      3200.6395      388.89831      285.53279      4898.0171     -4370.8542     -493.62529      79785.949      43.05023       43.05023       43.05023       1.1056541     -534.55953      368.61858      1482.3525    
     74000   74000          507.03393     -794.13551      22065.273      22989          9822.4056      13166.594      4604.1362      4206.4392      3232.7053      375.20697      199.72383      4918.6998     -4370.3171     -493.79983      79757.748      43.045157      43.045157      43.045157      1.1060451     -1201.1884     -537.07198     -644.14616    
     75000   75000          512.61678     -11.513945      23373.286      23386.652      9930.5581      13456.094      4603.0113      4300.8789      3328.1745      390.81085      281.59505      4921.448      -4369.8251     -494.79894      79596.7        43.016165      43.016165      43.016165      1.1082829      1961.3665     -2181.5461      185.63775    
     76000   76000          520.89339      1255.417       24597.44       23153.42       10090.895      13062.525      4560.9852      4174.8368      3184.1848      389.0293       229.7503       4893.9908     -4370.2526     -499.36084      78869.546      42.884773      42.884773      42.884773      1.118501      -328.16285      847.9435       3246.4704    
     77000   77000          515.46565      757.80174      24108.796      23228.782      9985.7472      13243.035      4548.751       4243.4946      3260.867       402.35837      249.33953      4911.0904     -4372.8656     -494.61326      79626.58       43.021547      43.021547      43.021547      1.107867       2549.473       184.27331     -460.34111    
     78000   78000          523.35088     -230.17811      23059.495      23328.182      10138.502      13189.68       4483.664       4267.244       3272.4425      379.42183      233.51553      4919.8193     -4366.4276     -492.05979      80039.791      43.095837      43.095837      43.095837      1.1021476     -236.25539     -307.59375     -146.6852     
     79000   79000          521.86977     -810.68806      22547.733      23490.639      10109.81       13380.829      4580.5862      4325.9482      3300.4686      403.03515      217.43023      4921.1353     -4367.7743     -493.83841      79751.518      43.044036      43.044036      43.044036      1.1061315     -404.34393     -155.81626     -1871.904     
     80000   80000          512.50515     -1340.6928      21602.969      23154.443      9928.3955      13226.048      4479.8436      4353.1571      3303.0286      386.3765       126.06886      4943.212      -4365.639      -496.34604      79348.598      42.971425      42.971425      42.971425      1.1117482     -1918.2889     -1181.337      -922.45236    
     81000   81000          516.39173      586.43758      23937.15       23264.298      10003.687      13260.611      4567.3137      4306.3098      3267.9315      384.86861      190.08891      4912.9732     -4368.8747     -500.61295      78672.28       42.848989      42.848989      42.848989      1.1213055      2368.825      -549.55056     -59.961693    
     82000   82000          513.4122       447.19224      23751.291      23234.538      9945.9672      13288.571      4472.5364      4314.1657      3326.5375      398.00081      248.69351      4900.7866     -4372.15       -497.06265      79234.203      42.950764      42.950764      42.950764      1.1133533     -1119.4042      1311.602       1149.379     
     83000   83000          509.39171     -841.61693      22025.956      22999.045      9868.0811      13130.964      4373.3386      4362.6529      3238.9578      375.05975      241.50341      4910.3558     -4370.9042     -496.77703      79279.757      42.958994      42.958994      42.958994      1.1127136     -286.63309     -1807.7531     -430.46461    
     84000   84000          515.03837      831.90613      24283.73       23319.32       9977.4698      13341.85       4656.4495      4227.2962      3239.0752      375.19363      292.00538      4920.8044     -4368.9745     -495.46387      79489.877      42.996913      42.996913      42.996913      1.1097723      464.85738      1254.9826      775.87837    
     85000   85000          518.4356      -2651.7481      20141.377      23178.499      10043.282      13135.217      4357.0295      4289.3498      3402.1848      391.13078      139.69042      4927.0107     -4371.1795     -501.49875      78533.322      42.823746      42.823746      42.823746      1.1232896     -4284.8965     -2272.2964     -1398.0516    
     86000   86000          514.61832      23.637659      23334.335      23307.023      9969.3325      13337.69       4513.2257      4204.3338      3391.2843      406.49452      283.96315      4909.3724     -4370.9836     -497.09684      79228.752      42.949779      42.949779      42.949779      1.1134299     -966.32569      101.76539      935.47329    
     87000   87000          504.40547      507.86935      23566.868      22984.757      9771.4862      13213.27       4540.1451      4162.6746      3350.0153      391.62914      224.38003      4916.5088     -4372.0824     -501.12464      78591.95       42.8344        42.8344        42.8344        1.1224516     -1072.208       1703.2815      892.53454    
     88000   88000          511.29406      642.11594      24037.586      23299.524      9904.9339      13394.591      4651.1811      4314.8266      3349.2655      411.31152      128.36864      4912.8646     -4373.2274     -499.7132       78813.933      42.874691      42.874691      42.874691      1.1192902     -161.1636       1610.4548      477.05662    
     89000   89000          508.49009     -1873.1803      20981.536      23139.447      9850.6147      13288.833      4600.6488      4185.7626      3396.3984      405.16982      161.4676       4910.7342     -4371.3486     -498.5924       78991.102      42.906793      42.906793      42.906793      1.1167797     -1206.0953     -1600.434      -2813.0117    
     90000   90000          518.45047      2913.8187      26684.266      23327.085      10043.57       13283.515      4509.6739      4301.4126      3199.7787      399.80418      313.56146      4924.0446     -4364.7606     -498.52567      79001.674      42.908707      42.908707      42.908707      1.1166303      2188.9212      3568.968       2983.5669    
     91000   91000          513.48397      444.34483      23727.346      23216.747      9947.3576      13269.389      4450.1803      4198.6119      3469.509       395.50937      222.11475      4904.7093     -4371.2456     -499.84995      78792.371      42.870781      42.870781      42.870781      1.1195965      1576.0029      1284.6856     -1527.654     
     92000   92000          518.4416       381.41923      23750.053      23311.595      10043.398      13268.197      4518.8548      4258.7934      3304.7955      396.12796      234.07147      4923.6364     -4368.0823     -499.66067      78822.218      42.876193      42.876193      42.876193      1.1191725      687.06906      426.72247      30.466162    
     93000   93000          519.17766      1346.6968      24807.13       23269.5        10057.657      13211.843      4463.9425      4251.1722      3327.7979      392.32068      228.64846      4918.8308     -4370.8699     -503.0576       78289.966      42.779467      42.779467      42.779467      1.1267812      2482.9739      612.50199      944.61444    
     94000   94000          523.41302     -305.44761      22904.982      23253.159      10139.706      13113.453      4522.2107      4245.0801      3250.6974      373.54157      180.91188      4909.1529     -4368.1413     -503.89032      78160.585      42.755888      42.755888      42.755888      1.1286464      743.70939     -330.07251     -1329.9797    
     95000   95000          522.81656     -81.467905      23210.809      23305.024      10128.151      13176.873      4579.8349      4134.8718      3223.3372      385.88098      315.99572      4906.0098     -4369.0572     -496.66746      79297.247      42.962153      42.962153      42.962153      1.1124682      468.10671     -51.989213     -660.52121    
     96000   96000          510.31966     -992.7054       22109.019      23251.624      9886.0576      13365.566      4662.1083      4202.7273      3355.4828      382.19507      224.36179      4908.8878     -4370.1966     -499.02674      78922.349      42.894341      42.894341      42.894341      1.1177526     -554.02653     -2246.5787     -177.51101    
     97000   97000          523.168       -1122.8317      21847.701      23142.803      10134.959      13007.843      4421.0435      4179.5555      3308.5207      363.01646      186.80694      4918.1019     -4369.2017     -497.97847      79088.485      42.924418      42.924418      42.924418      1.1154046     -2389.6978      691.30804     -1670.1053    
     98000   98000          520.83441     -664.19861      22710.399      23480.686      10089.752      13390.933      4497.9524      4416.9571      3227.4884      382.45906      311.60019      4919.7045     -4365.2284     -495.2736       79520.415      43.002418      43.002418      43.002418      1.1093461     -110.35665      1205.3011     -3087.5403    
     99000   99000          508.60535     -1125.6597      21691.785      22994.298      9852.8476      13141.451      4369.0168      4397.2775      3252.5134      390.20999      183.35286      4919.3622     -4370.282      -496.392        79341.252      42.970099      42.970099      42.970099      1.1118511     -3030.7524     -1669.9592      1323.7325    
    100000   100000         509.43354      895.71622      24012.678      22976.298      9868.8915      13107.407      4339.6692      4321.7076      3237.4733      382.50129      288.72375      4909.0263     -4371.695      -496.42222      79336.421      42.969226      42.969226      42.969226      1.1119189     -170.95969      1425.8681      1432.2403    
    101000   101000         521.62676     -570.61105      22646.826      23301.1        10105.102      13195.998      4389.9431      4305.55        3364.0465      386.19097      196.58525      4921.5304     -4367.8482     -500.93356      78621.929      42.839846      42.839846      42.839846      1.1220236      256.68915     -1570.252      -398.27032    
    102000   102000         507.88193      370.83831      23536.659      23109.047      9838.8333      13270.214      4436.6404      4250.0327      3324.9615      384.29088      328.97017      4916.0601     -4370.7421     -498.12007      79066.003      42.920351      42.920351      42.920351      1.1157218     -547.18557      1190.7146      468.9859     
    103000   103000         525.91444      367.7891       23791.969      23369.309      10188.164      13181.145      4524.9867      4265.7173      3230.1635      384.86757      245.21335      4901.8439     -4371.6474     -499.81315      78798.172      42.871832      42.871832      42.871832      1.1195141     -351.54245      2141.2651     -686.35532    
    104000   104000         515.88989      414.08388      23566.916      23088.489      9993.9658      13094.523      4481.5576      4239.2887      3228.3452      384.86375      237.02429      4894.6396     -4371.1962     -497.13237      79223.091      42.948756      42.948756      42.948756      1.1135095      1138.3104      333.15856     -229.21737    
    105000   105000         516.05588     -431.29072      22599.679      23093.774      9997.1813      13096.593      4505.3407      4276.1037      3236.6204      385.25336      155.25816      4909.2194     -4371.2029     -501.37114      78553.311      42.827379      42.827379      42.827379      1.1230037      927.73209     -306.07359     -1915.5306    
    106000   106000         510.04206     -267.05988      22912.831      23220.753      9880.68        13340.073      4571.8352      4269.2003      3310.7078      396.75125      242.9604       4917.2506     -4368.6326     -498.15815      79059.959      42.919257      42.919257      42.919257      1.1158071     -1253.854      -289.11994      741.79429    
    107000   107000         511.29601      1051.2241      24115.917      22917.272      9904.9717      13012.301      4464.11        4126.2276      3256.4726      369.58612      258.28098      4911.3952     -4373.7718     -503.73777      78184.255      42.760204      42.760204      42.760204      1.1283047      404.60241      2301.956       447.11386    
    108000   108000         518.63331      763.35415      24084.517      23214.767      10047.112      13167.655      4416.7272      4326.0639      3265.9112      366.62357      255.84155      4909.3414     -4372.8541     -504.11662      78125.498      42.74949       42.74949       42.74949       1.1291533      2638.4294      34.988538     -383.35548    
    109000   109000         504.38981     -1444.1477      21391.239      23049.152      9771.183       13277.969      4489.5404      4364.7976      3293.2573      401.80029      180.79197      4918.8998     -4371.1189     -500.3221       78718.015      42.857291      42.857291      42.857291      1.1206541     -1469.5037     -1792.0774     -1070.8619    
    110000   110000         517.96767     -859.25984      22247.382      23236.358      10034.217      13202.141      4421.2118      4293.6362      3368.4585      401.21757      178.74784      4911.2478     -4372.3787     -499.04373      78919.662      42.893854      42.893854      42.893854      1.1177907      606.27613     -1134.0416     -2050.0141    
    111000   111000         511.21753     -23.859003      23173.086      23200.507      9903.4515      13297.056      4585.8639      4277.4448      3310.982       402.04509      172.73091      4915.1698     -4367.1809     -499.76411      78805.905      42.873235      42.873235      42.873235      1.1194042     -88.413944      648.09383     -631.25689    
    112000   112000         516.18955     -690.92476      22411.785      23205.946      9999.7708      13206.175      4462.9912      4273.4204      3328.1705      388.11986      210.84704      4912.8551     -4370.2293     -499.71454      78813.721      42.874652      42.874652      42.874652      1.1192932     -1031.5696      598.32594     -1639.5306    
    113000   113000         515.51689     -233.1253       22902.619      23171.406      9986.7398      13184.666      4462.1996      4306.8011      3273.6675      378.45213      203.9542       4927.6896     -4368.098      -498.17348      79057.525      42.918816      42.918816      42.918816      1.1158414     -926.03339     -389.83056      616.48805    
    114000   114000         512.24261      411.53479      23498.499      23028.133      9923.3095      13104.823      4364.8891      4278.4915      3316.8254      375.85585      228.52076      4909.0245     -4368.7837     -502.5393       78370.712      42.794169      42.794169      42.794169      1.1256203      977.6652       696.88453     -439.94536    
    115000   115000         517.54694     -127.0904       22941.084      23088.107      10026.067      13062.041      4480.0965      4172.3365      3298.0733      378.17358      174.9258       4925.9509     -4367.5161     -496.50751      79322.793      42.966766      42.966766      42.966766      1.1121099     -1006.5946      398.94377      226.37957    
    116000   116000         507.7701       1485.0211      24528.303      22828.306      9836.6668      12991.64       4468.3517      4290.7143      3151.1028      368.05675      178.65923      4907.6301     -4372.8753     -501.74653      78494.539      42.816696      42.816696      42.816696      1.1238446      448.60006      1856.9262      2149.537     
    117000   117000         514.64595      1103.4093      24400.231      23142.033      9969.8677      13172.166      4544.5159      4259.8581      3222.3504      391.45886      198.72052      4927.8957     -4372.6338     -503.71798      78187.327      42.760764      42.760764      42.760764      1.1282604     -1033.6812      1344.3817      2999.5275    
    118000   118000         511.08752     -1902.9544      20879.907      23068.141      9900.9328      13167.208      4583.547       4222.5996      3266.0343      391.04105      150.68022      4921.4044     -4368.0982     -499.4987       78847.777      42.880827      42.880827      42.880827      1.1188098     -5600.1392      1362.9435     -1471.6674    
    119000   119000         513.92167     -173.93814      22691.383      22890.725      9955.8367      12934.888      4462.9087      4072.9928      3312.669       382.63225      158.65392      4915.3586     -4370.3268     -501.18186      78582.977      42.83277       42.83277       42.83277       1.1225798      1244.6251     -2176.5228      410.08324    
    120000   120000         521.70098      831.23713      24195.338      23242.313      10106.54       13135.773      4548.5841      4253.9316      3195.5027      387.27547      207.34973      4913.9678     -4370.8386     -500.9799       78614.657      42.838525      42.838525      42.838525      1.1221274      691.45013      1563.7151      238.5462     
    121000   121000         512.95896      193.44323      23285.508      23064.139      9937.187       13126.952      4468.0848      4289.3322      3292.6315      397.29378      116.60149      4930.0448     -4367.0366     -501.92237      78467.04       42.811695      42.811695      42.811695      1.1242384     -579.49689      1857.83       -698.00346    
    122000   122000         506.5038      -628.00354      22120.789      22842.662      9812.1357      13030.526      4431.7629      4258.5469      3247.4533      378.95223      163.09942      4919.9058     -4369.1944     -499.69042      78817.526      42.875342      42.875342      42.875342      1.1192392     -496.52823     -508.13774     -879.34465    
    123000   123000         510.93357      295.8554       23414.033      23074.818      9897.9504      13176.868      4507.362       4257.8555      3320.314       385.91668      138.04334      4933.7641     -4366.3878     -500.96139      78617.561      42.839052      42.839052      42.839052      1.122086       344.01846     -688.37372      1231.9215    
    124000   124000         502.66465     -1740.0924      20886.683      22875.218      9737.7627      13137.455      4509.4624      4278.6596      3293.0464      389.1211       125.72794      4911.5994     -4370.1617     -502.61896      78358.29       42.791908      42.791908      42.791908      1.1257987     -2022.7738     -1859.0226     -1338.4808    
    125000   125000         507.1517      -337.50934      22558.139      22944.643      9824.687       13119.956      4460.8278      4155.4627      3304.6664      399.74078      231.4738       4933.5354     -4365.7506     -501.56915      78522.298      42.821742      42.821742      42.821742      1.1234473      344.53856     -2741.7636      1384.697     
    126000   126000         505.88783      674.89852      23550.346      22782.848      9800.203       12982.645      4374.9351      4310.9826      3205.1304      387.89381      143.70177      4925.8476     -4365.846      -505.08104      77976.323      42.722263      42.722263      42.722263      1.1313134      1296.694      -2162.4039      2890.4054    
    127000   127000         513.96009     -182.84331      22904.19       23113.498      9956.5811      13156.917      4525.512       4277.4516      3269.8601      376.72073      168.57797      4915.0175     -4376.2229     -501.7563       78493.01       42.816418      42.816418      42.816418      1.1238665     -326.63188     -182.51198     -39.38607     
    128000   128000         509.79323     -391.98498      22727.442      23177.042      9875.8594      13301.182      4485.3327      4318.3243      3343.5471      395.60502      201.81676      4923.2293     -4366.6728     -500.77506      78646.814      42.844365      42.844365      42.844365      1.1216686     -440.43062      1102.966      -1838.4903    
    129000   129000         503.62798     -1629.2255      20879.109      22749.385      9756.4245      12992.961      4491.3989      4188.8924      3235.8376      386.13049      145.68991      4917.1205     -4372.1089     -500.35137      78713.411      42.856455      42.856455      42.856455      1.1207196     -2012.3307     -1177.7873     -1697.5585    
    130000   130000         518.17032     -67.153731      22983.13       23059.793      10038.143      13021.65       4487.7722      4280.0633      3229.6706      356.05849      110.17158      4927.3352     -4369.4217     -503.13683      78277.638      42.777221      42.777221      42.777221      1.1269587     -7.8136611      1674.7597     -1868.4072    
    131000   131000         502.02356      797.46775      23624.532      22717.096      9725.3433      12991.752      4454.4478      4298.7685      3135.2157      371.84546      167.14924      4934.4769     -4370.1514     -504.77341      78023.846      42.730941      42.730941      42.730941      1.1306244      1298.9137      852.65399      240.83559    
    132000   132000         513.39224     -457.23998      22573.025      23097.999      9945.5805      13152.418      4502.1992      4174.5243      3283.5712      382.74388      256.3291       4920.0101     -4366.9594     -500.27161      78725.96       42.858732      42.858732      42.858732      1.120541      -1185.5071      768.76172     -954.97458    
    133000   133000         514.9897      -1032.399       21803.093      22980.781      9976.5271      13004.254      4420.8277      4177.3477      3300.4543      378.58276      175.28764      4920.3891     -4368.6349     -503.52009      78218.057      42.766365      42.766365      42.766365      1.1278171     -395.09592     -1836.5969     -865.50414    
    134000   134000         512.0345      -1352.0321      21500.6        23050.516      9919.278       13131.238      4523.9502      4234.5173      3291.1431      375.76347      162.11831      4915.4403     -4371.6947     -501.04717      78604.102      42.836608      42.836608      42.836608      1.1222781     -1421.7854     -1377.4606     -1256.8504    
    135000   135000         505.8868       762.88622      23836.715      22964.691      9800.1831      13164.508      4492.0238      4375.3204      3155.4811      374.70114      222.91299      4917.4059     -4373.3374     -502.4942       78377.745      42.795449      42.795449      42.795449      1.1255193     -996.15437      1624.659       1660.1541    
    136000   136000         502.79508     -478.67583      22074.921      22619.729      9740.2894      12879.44       4395.899       4173.8059      3214.1975      378.33724      160.06015      4925.897      -4368.7571     -504.65886      78041.556      42.734173      42.734173      42.734173      1.1303678     -169.69154     -526.69564     -739.64032    
    137000   137000         511.53762      915.25774      24097.388      23057.925      9909.6524      13148.273      4430.2339      4254.2401      3241.7349      398.81424      278.94431      4917.6667     -4373.3611     -505.74818      77873.464      42.70347       42.70347       42.70347       1.1328077      2223.068       1265.4873     -742.78209    
    138000   138000         510.56746     -1010.0019      21713.119      22864.684      9890.8581      12973.825      4237.6503      4228.1938      3409.0231      380.55341      167.68963      4922.3951     -4371.6798     -503.77169      78178.992      42.759244      42.759244      42.759244      1.1283807     -1796.6815     -1675.1676      441.84337    
    139000   139000         513.02547     -1818.5739      20830.378      22928.656      9938.4754      12990.18       4444.833       4212.467       3215.802       370.49556      191.24379      4925.2426     -4369.9036     -497.81474      79114.496      42.929124      42.929124      42.929124      1.1150379     -1900.8246     -3381.625      -173.27208    
    140000   140000         516.0645      -2098.8261      20682.688      23081.859      9997.3484      13084.51       4408.2871      4282.8869      3268.9963      381.13426      190.95907      4924.674      -4372.4272     -502.47562      78380.644      42.795977      42.795977      42.795977      1.1254776     -2102.9921     -3022.2346     -1171.2517    
    141000   141000         511.49552     -124.46371      22599.749      22742.423      9908.8368      12833.586      4396.775       4194.4561      3158.3524      383.52778      154.70451      4919.4343     -4373.6636     -501.06983      78600.547      42.835962      42.835962      42.835962      1.1223289      81.847365     -447.00621     -8.2322688    
    142000   142000         515.78441     -43.849663      23073.511      23124.099      9991.9224      13132.177      4468.2428      4376.1084      3173.1988      368.45973      204.4792       4914.4036     -4372.7156     -497.87035      79105.661      42.927525      42.927525      42.927525      1.1151625     -1324.0828      784.43155      408.10229    
    143000   143000         510.925       -422.93521      22484.852      22974.202      9897.7845      13076.418      4383.5531      4308.961       3270.5315      377.94626      190.56169      4914.8925     -4370.0282     -496.42537      79335.919      42.969136      42.969136      42.969136      1.1119259     -2.1362059     -654.64816     -612.02126    
    144000   144000         502.26964     -271.29773      22528.865      22838.869      9730.1103      13108.758      4518.6501      4199.7458      3312.141       385.4047       149.34926      4911.5908     -4368.1233     -502.66471      78351.159      42.79061       42.79061       42.79061       1.1259012     -984.97124      758.53774     -587.45969    
    145000   145000         515.08341     -1391.4043      21645.056      23248.413      9978.3423      13270.071      4549.2447      4208.545       3341.5909      388.01394      218.73086      4929.8647     -4365.9196     -498.45151      79013.428      42.910835      42.910835      42.910835      1.1164642     -1648.8331     -2922.7082      397.3283     
    146000   146000         513.51424     -311.62462      22512.09       22869.806      9947.944       12921.862      4453.8175      4194.1572      3190.0606      382.69415      153.3947       4920.7968     -4373.0592     -500.37294      78710.018      42.855839      42.855839      42.855839      1.1207679      222.77783     -4.7664437     -1152.8852    
    147000   147000         520.11064     -558.35418      22550.142      23190.13       10075.731      13114.398      4430.3588      4205.5214      3387.878       392.44619      141.95805      4924.2226     -4367.9866     -501.11582      78593.333      42.834651      42.834651      42.834651      1.1224319      96.720146     -648.27199     -1123.5107    
    148000   148000         509.63861      221.00213      23254.405      22999.199      9872.8642      13126.335      4410.1208      4270.6543      3313.1509      405.39731      146.90757      4944.2624     -4364.1588     -497.39858      79180.69       42.941093      42.941093      42.941093      1.1141058      1324.776      -555.25365     -106.51597    
    149000   149000         516.50432      1178.5305      24407.679      23059.128      10005.869      13053.259      4424.0764      4336.0104      3174.5104      377.74867      187.59589      4921.568      -4368.2503     -501.96461      78460.436      42.810494      42.810494      42.810494      1.1243331      1828.36        1357.5718      349.65963    
    150000   150000         509.903       -276.23115      22686.054      23003.273      9877.986       13125.287      4410.0491      4166.5387      3416.2033      415.98486      183.0438       4905.0675     -4371.6002     -500.16414      78742.876      42.861802      42.861802      42.861802      1.1203002      1098.7123     -1434.0225     -493.38322    
    151000   151000         508.93638      176.92954      23052.459      22849.144      9859.2604      12989.884      4525.5537      4054.2537      3257.3263      380.75384      216.67714      4919.6607     -4364.3417     -499.8394       78794.034      42.871082      42.871082      42.871082      1.1195729     -380.80411      712.94634      198.64638    
    152000   152000         517.79763      296.41172      23441.056      23101.288      10030.923      13070.365      4454.4288      4183.866       3334.6401      382.48729      151.81251      4929.4292     -4366.2989     -501.08704      78597.847      42.835471      42.835471      42.835471      1.1223674      450.31188     -328.58293      767.50621    
    153000   153000         505.49012     -338.6781       22532.118      22921.82       9792.4984      13129.322      4470.1661      4250.1972      3265.9158      392.63263      194.42844      4921.4337     -4365.4521     -499.17629      78898.704      42.890057      42.890057      42.890057      1.1180876     -178.68892     -1763.0067      925.66131    
    154000   154000         503.62752     -976.25852      21513.786      22628.161      9756.4157      12871.745      4259.7614      4256.7908      3289.8239      372.50376      145.29535      4916.3162     -4368.7465     -503.19146      78269.14       42.775673      42.775673      42.775673      1.127081      -643.84568     -1637.0366     -647.89323    
    155000   155000         509.06443      1283.8291      24436.168      22958.615      9861.741       13096.874      4560.0263      4250.1418      3188.5944      385.33363      171.19149      4910.743      -4369.1569     -499.07251      78915.11       42.89303       42.89303       42.89303       1.1178551      1681.2709      2291.9286     -121.71214    
    156000   156000         515.16102     -1199.67        21529.336      22890.369      9979.8459      12910.523      4464.2229      4064.2859      3289.0908      375.12243      191.77284      4899.2501     -4373.2221     -506.28268      77791.25       42.688437      42.688437      42.688437      1.134005      -1619.7078     -872.70215     -1106.6       
    157000   157000         507.99258      103.71276      23032.341      22914.36       9840.9767      13073.383      4496.3459      4188.7562      3298.3049      387.68727      166.29625      4909.8535     -4373.861      -504.91578      78001.845      42.726924      42.726924      42.726924      1.1309433      14.951634     -428.75177      724.93841    
    158000   158000         507.9646      -1215.7657      21581.644      22970.928      9840.4347      13130.494      4337.1904      4344.7857      3323.6756      388.44378      187.77358      4919.8206     -4371.196      -502.64146      78354.782      42.791269      42.791269      42.791269      1.1258491     -379.28529     -2598.7107     -669.30106    
    159000   159000         513.40854      91.781869      22886.226      22781.391      9945.8964      12835.495      4452.4008      4110.9155      3201.0646      376.75529      134.03022      4926.8438     -4366.5155     -502.86294      78320.273      42.784986      42.784986      42.784986      1.1263452      1178.5751     -2324.5332      1421.3036    
    160000   160000         515.85445      494.67031      23561.168      22996.219      9993.2792      13002.94       4473.9059      4214.8886      3241.8394      376.12782      161.16479      4906.4758     -4371.4624     -502.92833      78310.089      42.783132      42.783132      42.783132      1.1264917      1186.3705      1497.4298     -1199.7893    
    161000   161000         499.9725       796.06035      23548.9        22640.33       9685.6095      12954.72       4458.3202      4198.4758      3155.9517      385.16209      209.47435      4916.269      -4368.9328     -503.25407      78259.402      42.773899      42.773899      42.773899      1.1272213      264.54001      1695.3124      428.32868    
    162000   162000         516.34139     -224.97227      22627.879      22882.221      10002.712      12879.509      4352.9178      4191.1734      3326.8259      370.37786      84.346936      4921.843      -4367.9761     -508.05539      77519.82       42.638729      42.638729      42.638729      1.1379756     -967.68726      800.32945     -507.559      
    163000   163000         503.93668     -297.69984      22276.821      22614.543      9762.4048      12852.138      4452.1761      4226.285       3128.1634      377.4704       106.71994      4929.8217     -4368.4988     -506.31354      77786.509      42.687569      42.687569      42.687569      1.1340741     -739.25518      329.63101     -483.47535    
    164000   164000         510.02511     -379.74602      22430.87       22864.164      9880.3515      12983.812      4413.3741      4169.7364      3343.385       385.7683       124.93408      4917.3908     -4370.7762     -503.39699      78237.183      42.769851      42.769851      42.769851      1.1275414      220.3204      -1132.753      -226.8055     
    165000   165000         505.80495     -2580.918       19885.917      22840.933      9798.5974      13042.336      4459.3958      4241.7324      3305.36        373.83893      112.2743       4918.1589     -4368.4246     -501.66522      78507.262      42.819009      42.819009      42.819009      1.1236624     -1133.7553     -3218.1329     -3390.8658    
    166000   166000         514.23461      347.56958      23340.373      22945.797      9961.8991      12983.898      4478.3406      4149.733       3230.0126      368.83256      208.81846      4920.3637     -4372.2025     -505.95478      77841.665      42.697656      42.697656      42.697656      1.1332705      1332.3808      863.40935     -1153.0814    
    167000   167000         509.35193      447.82458      23604.326      23090.469      9867.3104      13223.158      4575.8031      4259.8954      3197.6504      388.86408      274.9869       4899.9596     -4374.0014     -500.57029      78678.985      42.850206      42.850206      42.850206      1.12121        1033.3465     -240.13935      550.26656    
    168000   168000         504.42074     -375.1674       22309.067      22737.226      9771.7821      12965.444      4408.4501      4122.6184      3370.5908      390.00934      123.97126      4922.666      -4372.8617     -503.29124      78253.622      42.772846      42.772846      42.772846      1.1273045      1545.5008     -1752.5484     -918.4546     
    169000   169000         511.2549       798.89816      24130.633      23209.287      9904.1753      13305.112      4538.223       4319.8328      3279.2966      389.07968      227.47173      4924.5596     -4373.3517     -498.04462      79077.98       42.922518      42.922518      42.922518      1.1155528     -1134.943       2727.3881      804.24933    
    170000   170000         505.61475     -1110.9397      21601.648      22874.987      9794.9129      13080.074      4476.5263      4251.7788      3237.476       379.39882      192.55936      4913.3117     -4370.9767     -501.12496      78591.9        42.834391      42.834391      42.834391      1.1224523     -996.27548     -2798.2279      461.68437    
    171000   171000         512.66156     -242.41209      22622.936      22899.023      9931.4255      12967.597      4366.0976      4203.3958      3268.1123      384.2246       189.30914      4927.9872     -4371.5294     -504.32235      78093.629      42.743676      42.743676      42.743676      1.1296141     -816.77411     -467.88259      557.42042    
    172000   172000         515.72656     -174.6185       22690.005      22890.937      9990.8017      12900.136      4371.691       4220.5889      3171.6561      388.47784      213.36528      4905.069      -4370.7126     -499.16151      78901.04       42.89048       42.89048       42.89048       1.1180545     -195.97859      338.90525     -666.78216    
    173000   173000         504.54774     -91.8332        22532.241      22637.392      9774.2423      12863.15       4437.334       4144.8974      3153.9936      380.69221      209.0866       4908.2122     -4371.0666     -501.6341       78512.131      42.819894      42.819894      42.819894      1.1235928     -719.77864      83.659535      360.6195     
    174000   174000         508.36671     -1110.6741      21539.811      22816.173      9848.2245      12967.949      4510.8932      4143.6298      3278.3232      375.10981      106.54045      4921.623      -4368.1708     -499.81863      78797.308      42.871676      42.871676      42.871676      1.1195264     -2169.4911      610.78973     -1773.3209    
    175000   175000         500.6015      -144.3661       22426.93       22590.853      9697.7947      12893.058      4468.6971      4191.6693      3192.1941      384.19398      111.82914      4917.7092     -4373.2346     -505.85494      77857.029      42.700465      42.700465      42.700465      1.1330469      86.294515     -512.17287     -7.2199293    
    176000   176000         502.52637     -282.29203      22543.719      22867.515      9735.0838      13132.431      4460.024       4183.9118      3330.5586      380.15919      227.92805      4917.8542     -4368.0045     -500.75631      78649.759      42.8449        42.8449        42.8449        1.1216266     -1054.1477      185.85893      21.412692    
    177000   177000         508.20814     -1625.6791      20860.701      22709.095      9845.1528      12863.943      4375.3596      4187.0727      3287.6177      370.47526      81.947026      4928.0822     -4366.6119     -505.17282      77962.156      42.719676      42.719676      42.719676      1.131519      -2700.4266     -1387.91       -788.70084    
    178000   178000         501.27174     -980.17861      21602.643      22728.188      9710.7787      13017.41       4583.632       4105.7725      3257.6054      377.25485      133.84605      4926.4808     -4367.1819     -500.19784      78737.569      42.860839      42.860839      42.860839      1.1203757     -854.45041     -1693.6637     -392.42176    
    179000   179000         504.45096     -1129.9098      21576.557      22874.901      9772.3676      13102.534      4485.0326      4238.7642      3302.4257      372.4554       165.81266      4910.082      -4372.0388     -499.86591      78789.856      42.870324      42.870324      42.870324      1.1196322     -88.859355     -647.32506     -2653.5448    
    180000   180000         502.72062      305.75447      23189.63       22841.102      9738.8469      13102.255      4529.8449      4202.7436      3212.8463      384.87215      234.87997      4907.3238     -4370.2554     -503.88981      78160.664      42.755903      42.755903      42.755903      1.1286452      1186.8127     -1435.1697      1165.6204    
    181000   181000         501.61225     -658.37915      21877.982      22625.02       9717.3752      12907.645      4319.4132      4212.3314      3303.4728      388.37728      122.00902      4930.8849     -4368.8438     -506.21275      77801.997      42.690402      42.690402      42.690402      1.1338483      244.74994     -1377.9177     -841.96968    
    182000   182000         509.97995      2.707301       23000.412      22997.311      9879.4767      13117.834      4460.1896      4351.9427      3229.9589      369.49562      161.54261      4918.3326     -4373.628      -501.42839      78544.342      42.825749      42.825749      42.825749      1.123132      -1211.183       256.60842      962.69646    
    183000   183000         512.38371     -805.92679      22036.394      22954.813      9926.043       13028.77       4435.1676      4276.0895      3253.0665      388.35011      124.94463      4920.6527     -4369.5013     -504.02792      78139.247      42.751997      42.751997      42.751997      1.1289546     -470.81765     -2624.7254      677.76272    
    184000   184000         506.3618       167.57544      22877.33       22686.027      9809.3849      12876.642      4334.4024      4090.2734      3307.08        403.81172      184.7661       4921.5819     -4365.2733     -503.13828      78277.412      42.77718       42.77718       42.77718       1.1269619      403.95571     -435.38543      534.15604    
    185000   185000         506.92502      100.32788      22694.494      22579.818      9820.2958      12759.522      4235.8093      4213.3497      3260.6103      384.37119      128.97118      4906.6538     -4370.2434     -502.51397      78374.662      42.794888      42.794888      42.794888      1.1255635      280.40822     -522.77692      543.35236    
    186000   186000         503.97763      202.306        23065.369      22834.802      9763.1981      13071.604      4579.8155      4251.4232      3170.4675      388.9166       121.95835      4923.1417     -4364.1187     -503.97887      78146.852      42.753384      42.753384      42.753384      1.1288447      43.250517      1480.7744     -917.10694    
    187000   187000         505.91812      193.50267      22814.687      22594.185      9800.7897      12793.396      4333.069       4176.1326      3232.0212      371.72416      131.67641      4919.0347     -4370.2625     -504.05025      78135.786      42.751366      42.751366      42.751366      1.1290046     -1387.8265      42.792284      1925.5423    
    188000   188000         512.07278     -1223.4854      21417.677      22811.499      9920.0196      12891.479      4386.1191      4200.3703      3265.7653      387.59126      106.51559      4914.2119     -4369.0946     -504.18648      78114.675      42.747515      42.747515      42.747515      1.1293097     -420.1963      -2410.4701     -839.78987    
    189000   189000         495.85956      661.80648      23204.962      22449.804      9605.9324      12843.872      4343.354       4191.3055      3209.3325      391.63184      167.39072      4907.4779     -4366.6204     -503.37682      78240.318      42.770422      42.770422      42.770422      1.1274962     -185.92422      476.99516      1694.3485    
    190000   190000         497.61254      19.691006      22662.924      22640.224      9639.8917      13000.333      4399.4954      4187.4884      3223.3848      391.23165      261.96721      4907.9504     -4371.1853     -498.2617       79043.527      42.916283      42.916283      42.916283      1.116039      -354.30585     -211.53707      624.91594    
    191000   191000         501.14392      1328.0061      24174.231      22656.913      9708.3026      12948.611      4350.4121      4265.9042      3207.343       375.64324      202.48653      4918.9728     -4372.1512     -502.71678      78343.043      42.789132      42.789132      42.789132      1.1260178      938.25712      2229.764       815.99722    
    192000   192000         505.13723     -1620.7652      21006.943      22846.913      9785.6622      13061.251      4327.0261      4338.3322      3370.8729      384.7831       95.609545      4911.9074     -4367.2803     -505.9516       77842.154      42.697746      42.697746      42.697746      1.1332634     -2878.0926     -2249.6886      265.4858     
    193000   193000         498.98462     -336.08514      22236.748      22622.969      9666.472       12956.497      4429.2483      4199.6241      3232.3677      389.21093      159.10287      4918.1884     -4371.2451     -499.81922      78797.215      42.871659      42.871659      42.871659      1.1195277      1407.1018      140.7858      -2556.143     
    194000   194000         504.61893      1327.1686      24062.181      22542.787      9775.6215      12767.165      4331.2401      4205.5783      3135.2628      373.8073       173.85454      4919.4996     -4372.0775     -501.7131       78499.769      42.817647      42.817647      42.817647      1.1237697     -1057.5431      557.20317      4481.8458    
    195000   195000         521.10961      120.9183       23315.786      23176.131      10095.084      13081.047      4539.897       4351.0756      3135.1482      384.10408      136.34048      4903.2563     -4368.7747     -497.31756      79193.588      42.943425      42.943425      42.943425      1.1139243      569.6112       119.95652     -326.81283    
    196000   196000         501.59313     -1125.7202      21456.59       22735.283      9717.0049      13018.278      4484.2558      4251.396       3270.3308      385.43798      81.068557      4916.6703     -4370.8817     -505.66637      77886.062      42.705773      42.705773      42.705773      1.1326245     -1097.2957     -175.04109     -2104.8238    
    197000   197000         510.76356      477.66836      23395.577      22851.592      9894.6569      12956.936      4511.946       4239.9868      3120.0569      382.25306      162.31445      4911.5379     -4371.1596     -504.35891      78087.968      42.742643      42.742643      42.742643      1.129696      -157.43759     -101.80939      1692.252     
    198000   198000         507.42874      727.11944      23558.47       22731.224      9830.0538      12901.17       4488.1694      4226.3263      3109.7293      352.03075      185.64195      4907.8309     -4368.5587     -504.85949      78010.543      42.728512      42.728512      42.728512      1.1308172      2717.3455      310.10741     -846.09458    
    199000   199000         496.34606      1403.7726      23883.607      22294.087      9615.3571      12678.73       4294.0818      4162.941       3183.7344      373.97731      110.14566      4925.8586     -4372.0085     -507.25983      77641.398      42.661008      42.661008      42.661008      1.1361936      2787.7322      306.01327      1117.5723    
    200000   200000         507.27658      598.62363      23465.633      22780.541      9827.1063      12953.435      4509.5642      4155.9852      3237.6785      385.13201      125.4885       4907.8496     -4368.2628     -501.88588      78472.745      42.812733      42.812733      42.812733      1.1241567     -1177.4612      1009.2705      1964.0615    
    201000   201000         493.96083     -508.96081      21886.925      22469.033      9569.1497      12899.883      4353.1046      4117.2211      3344.5338      377.51067      168.29141      4909.7492     -4370.5278     -502.20436      78422.98       42.803681      42.803681      42.803681      1.1248701      389.42622     -159.58363     -1756.725     
    202000   202000         511.49505      777.44728      23682.131      22793.971      9908.8276      12885.143      4404.0214      4136.6344      3262.5579      395.44047      149.15489      4909.1937     -4371.8593     -502.78152      78332.955      42.787296      42.787296      42.787296      1.1261628      1801.7522      763.51226     -232.92267    
    203000   203000         502.0975      -1168.4464      21291.538      22624.643      9726.7756      12897.867      4413.0352      4128.9394      3337.3045      378.54786      97.632024      4909.4942     -4367.0857     -503.43567      78231.172      42.768755      42.768755      42.768755      1.127628      -1386.033      -114.01786     -2005.2885    
    204000   204000         500.03173     -634.64112      21653.954      22379.538      9686.7569      12692.781      4245.0916      4142.3418      3233.2697      372.41149      167.61153      4903.1573     -4371.1022     -502.38891      78394.172      42.798439      42.798439      42.798439      1.1252834     -267.71149     -10.51597      -1625.6959    
    205000   205000         510.05709     -1570.582       20889.85       22684.784      9880.9711      12803.813      4324.6634      4053.8451      3348.7701      402.24757      133.17507      4912.9927     -4371.881      -502.5878       78363.148      42.792792      42.792792      42.792792      1.1257289     -881.58248     -1657.9013     -2172.2623    
    206000   206000         511.21727      1546.5152      24655.467      22896.035      9903.4464      12992.588      4361.3193      4245.8441      3280.3198      392.8228       178.5057       4907.1509     -4373.3744     -504.87201      78008.608      42.728159      42.728159      42.728159      1.1308452      1519.5284      1943.7058      1176.3112    
    207000   207000         500.0717       180.03463      22785.688      22581.505      9687.5313      12893.974      4334.7995      4276.6108      3189.0294      380.79834      162.00462      4921.354      -4370.6227     -506.45045      77765.481      42.683722      42.683722      42.683722      1.1343807      588.64455      309.93278     -358.47342    
    208000   208000         511.16577      690.91906      23531.328      22739.045      9902.4488      12836.596      4435.5092      4210.7839      3110.4671      370.3274       182.17386      4899.5195     -4372.1845     -500.89501      78627.979      42.840945      42.840945      42.840945      1.1219373      909.27295      599.02095      564.46329    
    209000   209000         505.8291      -1305.7134      21171.843      22667.394      9799.0652      12868.329      4469.0939      4146.3181      3224.2532      377.52877      112.56177      4908.0333     -4369.4603     -501.4716       78537.574      42.824519      42.824519      42.824519      1.1232288     -1788.5114     -1801.9493     -326.67945    
    210000   210000         505.15927      34.530417      22715.197      22675.936      9786.089       12889.847      4411.5566      4247.5601      3215.7777      380.79103      93.820667      4912.1412     -4371.8002     -505.17736      77961.456      42.719548      42.719548      42.719548      1.1315292      324.26705     -330.17207      109.49628    
    211000   211000         502.14173     -1085.5635      21441.626      22693.791      9727.6325      12966.158      4538.0443      4180.5969      3206.3142      384.80382      135.79523      4890.8383     -4370.2345     -497.95873      79091.62       42.924986      42.924986      42.924986      1.1153604     -269.07822     -1740.84       -1246.7722    
    212000   212000         502.73553     -250.97707      22146.131      22432.14       9739.1356      12693.004      4274.7502      4171.064       3174.5904      377.49192      155.18593      4907.5651     -4367.6432     -504.02692      78139.403      42.752026      42.752026      42.752026      1.1289523      418.08586      618.94306     -1789.9601    
    213000   213000         504.28856     -37.411588      22650.784      22693.878      9769.2214      12924.656      4417.9247      4260.4683      3136.8036      368.65813      192.4745       4914.9727     -4366.6457     -498.65114      78981.795      42.905108      42.905108      42.905108      1.1169113     -605.36289      513.71815     -20.590026    
    214000   214000         502.22466     -45.650877      22632.257      22683.64       9729.2389      12954.401      4536.0507      4165.7561      3252.5354      387.25882      76.065194      4906.9749     -4370.2405     -510.30398      77178.24       42.57601       42.57601       42.57601       1.1430121     -99.164489      1034.2318     -1072.0199    
    215000   215000         493.00044      220.37794      22783.404      22530.491      9550.5448      12979.946      4415.5435      4270.2809      3156.8953      380.0379       197.84271      4926.0409     -4366.6954     -500.49154      78691.366      42.852454      42.852454      42.852454      1.1210336     -2151.8388      3098.1307     -285.15802    
    216000   216000         493.65828     -1908.2602      20328.605      22487.469      9563.2886      12924.18       4384.1601      4168.1941      3343.0353      388.62876      104.41321      4903.1849     -4367.4364     -507.70566      77573.22       42.648518      42.648518      42.648518      1.1371922     -2182.2865     -1792.2894     -1750.2047    
    217000   217000         503.1207       530.11077      23363.953      22756.078      9746.5974      13009.481      4466.5399      4204.5912      3251.7565      379.36442      179.49655      4894.6719     -4366.9399     -500.90138      78626.98       42.840763      42.840763      42.840763      1.1219516      219.36694      2042.6776     -671.71222    
    218000   218000         501.73676      332.78539      23055.403      22675.494      9719.7873      12955.707      4447.8656      4299.1032      3149.0743      383.15998      134.24827      4908.8138     -4366.5583     -503.13471      78277.968      42.777281      42.777281      42.777281      1.1269539      436.94531      463.02223      98.388629    
    219000   219000         508.53715      1987.8728      25049.719      22781.576      9851.5264      12930.05       4433.9179      4203.6416      3185.1209      379.57111      174.97401      4919.8187     -4366.9944     -503.40547      78235.865      42.769611      42.769611      42.769611      1.1275604      4040.2935      1677.1823      246.14259    
    220000   220000         493.30608      135.53001      22474.152      22319.373      9556.4657      12762.908      4271.4263      4189.3437      3229.2434      389.25225      132.6316       4917.0317     -4366.0213     -502.9499       78306.731      42.78252       42.78252       42.78252       1.12654        1581.1576     -773.30177     -401.26578    
    221000   221000         503.69374     -1481.9055      21067.348      22750.728      9757.6985      12993.03       4432.5142      4243.3009      3279.9132      367.2946       140.05533      4898.3354     -4368.3839     -505.63605      77890.733      42.706626      42.706626      42.706626      1.1325566     -2379.3302     -1135.7858     -930.60039    
    222000   222000         500.83267      527.27322      23104.761      22507.231      9702.273       12804.958      4482.771       4182.9513      3133.3228      377.57506      107.60214      4894.2417     -4373.5059     -506.84542      77704.88       42.672632      42.672632      42.672632      1.1352654      93.454913      1054.2202      434.14457    
    223000   223000         508.44498      222.86826      22958.82       22705.94       9849.7408      12856.2        4449.9054      4178.9283      3156.8742      385.18418      149.6986       4903.1572     -4367.5483     -506.21306      77801.949      42.690394      42.690394      42.690394      1.133849      -895.81609      637.62413      926.79674    
    224000   224000         505.32435     -767.14368      21673.52       22546.687      9789.2871      12757.4        4360.5765      4183.7682      3250.7749      378.55918      47.555383      4909.0795     -4372.9138     -504.6372       78044.905      42.734785      42.734785      42.734785      1.1303193     -619.12741     -967.52389     -714.77974    
    225000   225000         514.07167      804.3427       23733.306      22817.252      9958.7427      12858.51       4458.7238      4137.6529      3209.6359      390.44185      138.9634       4896.8633     -4373.7713     -504.33587      78091.535      42.743294      42.743294      42.743294      1.1296444      413.90779     -30.454054      2029.5744    
    226000   226000         492.23486     -16.906082      22450.044      22469.524      9535.7137      12933.81       4448.6268      4230.225       3197.2948      375.44695      139.73233      4913.3472     -4370.8629     -498.49206      79007.001      42.909672      42.909672      42.909672      1.116555      -171.22989      657.10627     -536.59462    
    227000   227000         507.05273     -10.655695      22596.086      22608.236      9822.7697      12785.466      4496.9133      4115.2055      3122.1902      361.88384      142.91194      4910.4526     -4364.0913     -503.76839      78179.503      42.759338      42.759338      42.759338      1.1283733      608.48022      1173.5118     -1813.9591    
    228000   228000         505.59153      968.70659      23905.114      22810.685      9794.4629      13016.223      4404.7345      4344.6762      3200.4927      389.43081      132.97018      4912.3225     -4368.4044     -508.399        77467.427      42.629121      42.629121      42.629121      1.1387452     -288.37482      2047.5183      1146.9763    
    229000   229000         506.40315     -854.5617       21655.043      22622.517      9810.186       12812.331      4481.5064      4099.7632      3193.4374      356.47223      145.59367      4907.3959     -4371.8378     -507.34549      77628.289      42.658607      42.658607      42.658607      1.1363855     -468.674       -2521.1689      426.15786    
    230000   230000         505.22328      840.71358      23465.778      22514.768      9787.3292      12727.439      4275.0159      4157.4913      3192.7428      375.36982      186.45373      4910.7319     -4370.3663     -507.76501      77564.152      42.646856      42.646856      42.646856      1.1373252      4040.5457      312.06911     -1830.474     
    231000   231000         507.50048     -1548.0518      20800.709      22560.137      9831.4438      12728.694      4315.272       4095.6043      3316.5794      379.03531      89.195839      4903.9153     -4370.9085     -505.37494      77930.977      42.71398       42.71398       42.71398       1.1319717     -363.97479     -313.65861     -3966.522     
    232000   232000         494.91282      1063.4716      23751.939      22541.436      9587.592       12953.844      4382.214       4256.4389      3156.6225      389.91705      224.02279      4914.59       -4369.9616     -504.6142       78048.463      42.735434      42.735434      42.735434      1.1302678      1333.455      -630.59888      2487.5586    
    233000   233000         503.06605     -1241.2181      21251.805      22670.518      9745.5387      12924.98       4423.6844      4142.7257      3291.6397      381.5525       145.00222      4909.4492     -4369.074      -502.5197       78373.769      42.794725      42.794725      42.794725      1.1255764     -4193.425       1422.8327     -953.06201    
    234000   234000         500.76977      224.18622      22885.133      22629.744      9701.0545      12928.689      4327.9425      4249.8058      3284.6366      379.05447      127.07381      4928.3141     -4368.1382     -504.20395      78111.968      42.747021      42.747021      42.747021      1.1293489     -1651.8655      2028.8773      295.54689    
    235000   235000         498.73171     -2134.3999      20307.984      22744.368      9661.5725      13082.796      4386.1938      4276.1625      3349.2048      395.03552      144.02351      4901.8679     -4369.6925     -503.18732      78269.783      42.77579       42.77579       42.77579       1.1270718     -2101.5996     -2087.2846     -2214.3154    
    236000   236000         500.06768     -1002.8172      21254.109      22397.017      9687.4534      12709.563      4352.7462      4170.6079      3146.3616      356.32727      126.78493      4919.3632     -4362.6277     -503.97648      78147.224      42.753452      42.753452      42.753452      1.1288394     -213.92197     -1298.7562     -1495.7734    
    237000   237000         499.21281      155.20747      22795.62       22619.013      9670.8927      12948.121      4416.5441      4172.7077      3220.9886      383.53553      221.31732      4903.0516     -4370.0242     -504.78239      78022.458      42.730687      42.730687      42.730687      1.1306445      286.14574      1254.4349     -1074.9583    
    238000   238000         490.89319      1016.427       23581.061      22428.168      9509.7225      12918.446      4464.1533      4302.2863      3152.0484      373.99017      92.79298       4902.5932     -4369.4187     -506.3922       77774.425      42.685359      42.685359      42.685359      1.1342503      1354.0803      366.90831      1328.2923    
    239000   239000         503.39848      1374.3202      24265.719      22699.989      9751.9786      12948.01       4450.8034      4220.8789      3199.2495      377.27617      159.58209      4912.0494     -4371.8293     -504.16283      78118.339      42.748184      42.748184      42.748184      1.1292568      1683.7711      456.2512       1982.9381    
    240000   240000         497.93788     -1168.4022      21223.74       22564.195      9646.1942      12918.001      4470.8658      4238.6343      3185.2192      377.90568      118.85621      4897.5916     -4371.0717     -500.65644      78665.447      42.847748      42.847748      42.847748      1.1214029     -1961.3534     -2164.459       620.60601    
    241000   241000         497.90486     -1100.8625      21135.93       22374.205      9645.5546      12728.65       4302.994       4166.2182      3242.3823      388.59755      82.156021      4918.455      -4372.1531     -510.64131      77127.255      42.566632      42.566632      42.566632      1.1437677     -691.41008     -2601.2622     -9.9151304    
    242000   242000         498.47914      1558.3173      24115.936      22344.142      9656.6797      12687.462      4412.3272      4193.0838      3096.0978      370.05043      89.183614      4900.531      -4373.8119     -505.17555      77961.735      42.719599      42.719599      42.719599      1.1315251      1414.8795      2249.9688      1010.1037    
    243000   243000         499.57245      432.05274      23042.753      22549.602      9677.8596      12871.743      4526.2297      4166.4608      3079.7844      373.73334      185.24792      4910.2617     -4369.9749     -503.21888      78264.875      42.774896      42.774896      42.774896      1.1271424     -1762.8648      2198.2908      860.73228    
    244000   244000         497.01048     -931.44493      21211.161      22272.785      9628.2284      12644.557      4317.0116      4165.6068      3162.4452      377.43501      88.567674      4905.4116     -4371.9214     -503.94843      78151.573      42.754245      42.754245      42.754245      1.1287765     -172.37395     -3268.9985      647.03761    
    245000   245000         503.43052     -368.87051      22210.823      22632.099      9752.5993      12879.499      4375.2457      4185.4734      3204.1493      389.83834      190.87419      4906.5021     -4372.5838     -502.92973      78309.872      42.783092      42.783092      42.783092      1.1264948      741.80135     -849.93434     -998.47854    
    246000   246000         506.29364      1515.9903      24269.873      22564.705      9808.0644      12756.641      4361.1298      4210.1119      3118.8408      383.88373      147.07268      4905.5639     -4369.9622     -510.65659      77124.947      42.566208      42.566208      42.566208      1.1438019      1913.4851      3621.6999     -987.21411    
    247000   247000         496.5595       499.79543      22841.333      22271.643      9619.4919      12652.151      4373.0845      4164.6031      3110.8691      356.82322      100.99578      4912.6629     -4366.8874     -503.91069      78157.426      42.755312      42.755312      42.755312      1.128692       2430.9884     -308.49492     -623.10715    
    248000   248000         501.13791      866.58755      23427.5        22439.977      9708.1862      12731.791      4317.4442      4201.7044      3205.4361      362.43653      110.96468      4901.5029     -4367.6982     -504.03984      78137.401      42.75166       42.75166       42.75166       1.1289813      1298.376      -268.93768      1570.3244    
    249000   249000         498.92226      801.95301      23505.108      22598.425      9665.264       12933.161      4473.2325      4326.9318      3073.4749      365.25017      156.3762       4909.2591     -4371.3634     -508.03467      77522.982      42.639309      42.639309      42.639309      1.1379292      876.76658      539.20718      989.88526    
    250000   250000         502.28656      106.3934       22706.063      22584.764      9730.4381      12854.326      4498.3057      4162.2071      3129.7234      347.77665      182.01454      4903.4587     -4369.1599     -503.79945      78174.683      42.758459      42.758459      42.758459      1.1284429      370.95391      1399.2066     -1450.9803    
Loop time of 519.909 on 1 procs for 250000 steps with 6500 atoms

Performance: 41.546 ns/day, 0.578 hours/ns, 480.853 timesteps/s, 3.126 Matom-step/s
100.0% CPU use with 1 MPI tasks x 1 OpenMP threads

MPI task timing breakdown:
Section |  min time  |  avg time  |  max time  |%varavg| %total
---------------------------------------------------------------
Pair    | 52.014     | 52.014     | 52.014     |   0.0 | 10.00
Bond    | 67.349     | 67.349     | 67.349     |   0.0 | 12.95
Kspace  | 229.71     | 229.71     | 229.71     |   0.0 | 44.18
Neigh   | 71.981     | 71.981     | 71.981     |   0.0 | 13.85
Comm    | 10.402     | 10.402     | 10.402     |   0.0 |  2.00
Output  | 2.2867     | 2.2867     | 2.2867     |   0.0 |  0.44
Modify  | 76.061     | 76.061     | 76.061     |   0.0 | 14.63
Other   |            | 10.11      |            |       |  1.94

Nlocal:           6500 ave        6500 max        6500 min
Histogram: 1 0 0 0 0 0 0 0 0 0
Nghost:          17117 ave       17117 max       17117 min
Histogram: 1 0 0 0 0 0 0 0 0 0
Neighs:              0 ave           0 max           0 min
Histogram: 1 0 0 0 0 0 0 0 0 0
FullNghs:  3.43761e+06 ave 3.43761e+06 max 3.43761e+06 min
Histogram: 1 0 0 0 0 0 0 0 0 0

Total # of neighbors = 3437610
Ave neighs/atom = 528.86308
Ave special neighs/atom = 5.7630769
Neighbor list builds = 13680
Dangerous builds = 0
System init for write_data ...
PPPM Kokkos initialization ...
  using 12-bit tables for long-range coulomb
  G vector (1/distance) = 0.29966485
  grid = 30 30 30
  stencil order = 5
  estimated absolute RMS force accuracy = 0.00032751629
  estimated relative force accuracy = 9.8630557e-07
  using double precision cuFFT
  3d grid and FFT values/proc = 50653 27000
Generated 28 of 28 mixed pair_coeff terms from sixthpower/sixthpower mixing rule
System init for write_restart ...
PPPM Kokkos initialization ...
  using 12-bit tables for long-range coulomb
  G vector (1/distance) = 0.29966485
  grid = 30 30 30
  stencil order = 5
  estimated absolute RMS force accuracy = 0.00032751629
  estimated relative force accuracy = 9.8630557e-07
  using double precision cuFFT
  3d grid and FFT values/proc = 50653 27000
Generated 28 of 28 mixed pair_coeff terms from sixthpower/sixthpower mixing rule
STAGE COMPLETE: NPT T=525.0->500.0K P=1.0->1.0atm steps=250000
