Authorization required, but no authorization protocol specified

Authorization required, but no authorization protocol specified

Authorization required, but no authorization protocol specified

Authorization required, but no authorization protocol specified

LAMMPS (22 Jul 2025 - Update 3)
KOKKOS mode with Kokkos version 4.6.2 is enabled
  will use up to 1 GPU(s) per node
  using 1 OpenMP thread(s) per MPI task
Reading data file ...
  orthogonal box = (4.3856168 4.3856168 4.3856168) to (46.660935 46.660935 46.660935)
  1 by 1 by 1 MPI processor grid
  reading atoms ...
  6320 atoms
  reading velocities ...
  6320 velocities
  scanning bonds ...
  4 = max bonds/atom
  scanning angles ...
  12 = max angles/atom
  scanning dihedrals ...
  21 = max dihedrals/atom
  scanning impropers ...
  8 = max impropers/atom
  orthogonal box = (4.3856168 4.3856168 4.3856168) to (46.660935 46.660935 46.660935)
  1 by 1 by 1 MPI processor grid
  reading bonds ...
  6310 bonds
  reading angles ...
  11200 angles
  reading dihedrals ...
  13970 dihedrals
  reading impropers ...
  6300 impropers
Finding 1-2 1-3 1-4 neighbors ...
  special bond factors lj:    0        0        1       
  special bond factors coul:  0        0        1       
     4 = max # of 1-2 neighbors
     6 = max # of 1-3 neighbors
    10 = max # of special neighbors
  special bonds CPU = 0.003 seconds
  read_data CPU = 0.262 seconds
Finding SHAKE clusters ...
     700 = # of size 2 clusters
      10 = # of size 3 clusters
     700 = # of size 4 clusters
       0 = # of frozen angles
  find clusters CPU = 0.002 seconds
PPPM Kokkos initialization ...
  using 12-bit tables for long-range coulomb
  G vector (1/distance) = 0.33729067
  grid = 48 48 48
  stencil order = 5
  estimated absolute RMS force accuracy = 0.00034014462
  estimated relative force accuracy = 1.0243354e-06
  using double precision cuFFT
  3d grid and FFT values/proc = 166375 110592
Generated 21 of 21 mixed pair_coeff terms from sixthpower/sixthpower mixing rule
Neighbor list info ...
  update: every = 1 steps, delay = 0 steps, check = yes
  max neighbors/atom: 4000, page size: 100000
  master list distance cutoff = 11.5
  ghost atom cutoff = 11.5
  binsize = 11.5, bins = 4 4 4
  1 neighbor lists, perpetual/occasional/extra = 1 0 0
  (1) pair lj/class2/coul/long/kk, perpetual
      attributes: full, newton off, kokkos_device
      pair build: full/bin/kk/device
      stencil: full/bin/3d
      bin: kk/device
Setting up Verlet run ...
  Unit style    : real
  Current step  : 0
  Time step     : 1
Per MPI rank memory allocation (min/avg/max) = 45.17 | 45.17 | 45.17 Mbytes
   Step          Time           Temp          Press         Enthalpy        TotEng         KinEng         PotEng         E_bond        E_angle        E_dihed        E_impro         E_vdwl         E_coul         E_long         E_tail         Volume           Lx             Ly             Lz          Density          Pxx            Pyy            Pzz      
         0   0              607.24305      1109.1124      32932.896      31710.781      9736.3998      21974.381      3239.4016      7545.2814     -5176.7233      416.2114      -2499.5875      62366.975     -43917.178     -490.39791      75554.556      42.275318      42.275318      42.275318      1.1091215      1558.4715      233.22584      1535.6399    
       500   500            570.47901     -934.44304      29974.981      31000.362      9146.9334      21853.428      3278.4861      7367.1779     -5167.5128      353.19519     -2470.2997      62398.531     -43906.149     -492.43961      75241.298      42.216811      42.216811      42.216811      1.1137392     -120.73067     -1815.9854     -866.61308    
      1000   1000           576.09698      218.48899      31196.412      30954.051      9237.0106      21717.04       3132.1002      7408.4703     -5228.0727      399.95658     -2466.4217      62378.774     -43907.766     -487.13887      76060.028      42.369385      42.369385      42.369385      1.1017506      1084.0554      509.4782      -938.06662    
      1500   1500           585.8707       30.649534      31413.182      31379.123      9393.7203      21985.403      3264.7422      7508.6877     -5187.5148      409.27853     -2397.9382      62315.842     -43927.695     -486.27495      76195.156      42.394461      42.394461      42.394461      1.0997967      1805.4999     -1576.206      -137.34536    
      2000   2000           579.94742     -369.44911      30801.202      31207.143      9298.7478      21908.395      3286.752       7479.4734     -5185.2315      372.31634     -2441.5427      62311.586     -43914.958     -491.78609      75341.285      42.235503      42.235503      42.235503      1.1122611     -1233.3448      1252.3872     -1127.3897    
      2500   2500           585.6245       420.86301      31737.356      31271.724      9389.7728      21881.951      3253.7751      7409.1423     -5145.8542      339.37583     -2472.3988      62405.997     -43908.085     -488.409        75862.23       42.332625      42.332625      42.332625      1.1046232      665.72203      1488.0943     -891.22734    
      3000   3000           580.45528      1286.2581      32468.022      31053.746      9306.8906      21746.856      3243.7233      7207.1082     -5092.3474      385.902       -2474.2019      62387.571     -43910.9       -491.44981      75392.837      42.245134      42.245134      42.245134      1.1115006      1149.6877      967.88977      1741.1968    
      3500   3500           570.10081      184.63999      31020.417      30819.587      9140.8694      21678.718      3180.0304      7287.1779     -5082.8896      404.63867     -2603.0305      62408.39      -43915.599     -496.8023       74580.565      42.092872      42.092872      42.092872      1.1236061      156.95576     -188.65664      585.62087    
      4000   4000           583.87236      1076.2406      32276.036      31089.924      9361.6793      21728.244      3161.8824      7397.7964     -5139.5303      409.39921     -2531.7219      62351.189     -43920.77      -490.30779      75568.442      42.277908      42.277908      42.277908      1.1089177      1451.3062     -246.38209      2023.7976    
      4500   4500           585.34588     -828.4116       30222.262      31141.397      9385.3055      21756.092      3392.0288      7380.938      -5234.161       398.42894     -2516.8701      62267.003     -43931.276     -487.0257       76077.702      42.372666      42.372666      42.372666      1.1014946     -1496.5887      884.19362     -1872.8397    
      5000   5000           582.00864      315.83246      31755.733      31410.357      9331.7969      22078.561      3273.0571      7603.9063     -5106.7182      412.35516     -2559.8135      62368.57      -43912.797     -494.14092      74982.245      42.168305      42.168305      42.168305      1.117587      -40.049488     -757.72981      1745.2767    
      5500   5500           583.96856     -42.045793      31406.237      31452.235      9363.2219      22089.013      3339.9697      7595.9345     -5192.5518      411.60871     -2538.8557      62379.753     -43906.845     -493.93621      75013.321      42.17413       42.17413       42.17413       1.117124      -1071.611       1959.4519     -1013.9783    
      6000   6000           584.15112      437.73681      31588.452      31106.513      9366.1489      21740.364      3266.908       7306.0186     -5199.1004      440.76885     -2466.4497      62306.095     -43913.877     -490.8019       75492.365      42.263716      42.263716      42.263716      1.1100352      266.76012      330.17006      716.28025    
      6500   6500           575.15229      2001.6811      33192.335      30999.932      9221.8637      21778.069      3137.2545      7437.5488     -5200.2074      396.41308     -2472.4123      62385.558     -43906.086     -493.35529      75101.649      42.190677      42.190677      42.190677      1.1158101      2233.6779      1636.0774      2135.2879    
      7000   7000           584.46816      660.91983      31915.947      31187.038      9371.2323      21815.805      3278.6596      7400.5554     -5189.0314      404.77914     -2533.257       62355.673     -43901.573     -489.95948      75622.164      42.287924      42.287924      42.287924      1.1081299      485.11632      1611.7122     -114.06907    
      7500   7500           584.72522     -219.32448      31032.039      31273.352      9375.354       21897.998      3244.8821      7450.4355     -5162.7192      428.26723     -2460.0399      62304.755     -43907.583     -491.12476      75442.736      42.254452      42.254452      42.254452      1.1107654     -364.06656     -807.78291      513.87604    
      8000   8000           582.09423     -875.96995      30082.104      31041.766      9333.1693      21708.597      3305.5744      7368.2122     -5207.8579      415.21989     -2593.484       62332.297     -43911.365     -493.23753      75119.579      42.194034      42.194034      42.194034      1.1155438     -466.23086     -991.28093     -1170.3981    
      8500   8500           573.12027     -145.57966      30841.53       31000.237      9189.2827      21810.954      3181.8052      7592.4689     -5205.6396      379.81651     -2512.8824      62276.604     -43901.218     -495.66706      74751.378      42.124983      42.124983      42.124983      1.1210386      237.46609     -141.92813     -532.27695    
      9000   9000           571.31891      255.44855      31389.206      31107.58       9160.4002      21947.18       3411.1099      7343.3802     -5167.9783      404.24423     -2434.9165      62305.322     -43913.982     -490.13565      75594.982      42.282857      42.282857      42.282857      1.1085284      2452.3333     -817.04434     -868.94333    
      9500   9500           580.62008      233.44942      31634.549      31375.177      9309.533       22065.644      3439.9345      7556.5954     -5224.4858      383.7196      -2414.4955      62228.8       -43904.423     -486.35666      76182.356      42.392087      42.392087      42.392087      1.0999815      1121.1099     -106.71161     -314.05       
     10000   10000          580.90781      1364.3666      32614.064      31113.967      9314.1464      21799.821      3298.8516      7285.7138     -5140.8471      374.17807     -2399.6382      62298.52      -43916.958     -491.46983      75389.767      42.244561      42.244561      42.244561      1.1115458      520.10459      1580.2645      1992.7306    
     10500   10500          578.14884     -1127.3667      29750.05       30987.084      9269.9098      21717.175      3371.9725      7286.4702     -5219.2063      396.86081     -2513.5403      62306.356     -43911.738     -492.45715      75238.619      42.21631       42.21631       42.21631       1.1137788     -1370.4515     -1181.4708     -830.1779     
     11000   11000          582.59581     -1124.1535      29941.766      31182.839      9341.2114      21841.627      3184.5935      7390.4151     -5139.7823      409.13154     -2509.3637      62408.332     -43901.699     -489.45581      75699.981      42.302424      42.302424      42.302424      1.1069908     -1570.2132     -616.36846     -1185.8789    
     11500   11500          575.6972       233.99229      31346.508      31092.477      9230.6008      21861.876      3352.0109      7452.4986     -5189.2062      395.31002     -2582.8268      62354.348     -43920.259     -497.73738      74440.452      42.066496      42.066496      42.066496      1.125721       1309.8156      1399.4282     -2007.2669    
     12000   12000          583.65183     -845.31516      30276.958      31198.442      9358.1434      21840.299      3191.2777      7475.4098     -5114.1865      401.55374     -2548.8539      62343.217     -43908.12      -495.69661      74746.922      42.124146      42.124146      42.124146      1.1211054     -398.71947     -716.36708     -1420.8589    
     12500   12500          573.86596      87.405316      31228.602      31132.816      9201.239       21931.577      3363.4631      7462.7283     -5198.0471      377.03509     -2487.1063      62320.069     -43906.565     -493.08421      75142.937      42.198407      42.198407      42.198407      1.115197       255.93057     -84.836592      91.121971    
     13000   13000          577.58771     -354.24964      30621.186      31008.887      9260.9126      21747.975      3281.1908      7268.4564     -5107.3715      394.67823     -2533.0829      62354.505     -43910.402     -493.73899      75043.285      42.179745      42.179745      42.179745      1.1166779      604.3561      -1365.3011     -301.80395    
     13500   13500          582.15094      29.033903      31159.492      31127.486      9334.0786      21793.408      3306.6226      7379.714      -5194.508       397.36154     -2487.4004      62315.516     -43923.898     -490.18711      75587.047      42.281377      42.281377      42.281377      1.1086447      1238.6208     -1132.0649     -19.454114    
     14000   14000          583.71052     -252.22447      30944.485      31223.112      9359.0844      21864.027      3288.318       7347.8955     -5160.1991      411.36422     -2440.1923      62323.547     -43906.706     -489.15853      75745.988      42.310992      42.310992      42.310992      1.1063184     -33.873527     -53.512774     -669.2871     
     14500   14500          579.32504      807.28038      32057.578      31166.053      9288.7687      21877.285      3261.9734      7481.9654     -5238.7611      411.54948     -2504.9018      62360.077     -43894.618     -489.30093      75723.943      42.306887      42.306887      42.306887      1.1066405      714.84556      567.9719       1139.0237    
     15000   15000          584.60346      448.81375      31732.446      31238.007      9373.4016      21864.605      3327.2501      7419.3121     -5182.277       395.52101     -2515.8789      62335.23      -43914.552     -490.49985      75538.852      42.272389      42.272389      42.272389      1.1093521      305.05247      1717.7699     -676.38109    
     15500   15500          595.30978     -1024.9899      30158.507      31284.34       9545.0645      21739.276      3259.3175      7309.1238     -5191.7623      399.92185     -2491.2745      62354.689     -43900.74      -491.961        75314.498      42.230497      42.230497      42.230497      1.1126567     -838.97061      1316.8665     -3552.8655    
     16000   16000          588.01817      1325.1682      32736.237      31278.156      9428.1524      21850.004      3361.3215      7381.758      -5215.5817      416.1526      -2483.0828      62294.905     -43905.469     -491.10505      75445.763      42.255017      42.255017      42.255017      1.1107208      1590.0025      2228.5704      156.93165    
     16500   16500          575.5803      -105.99663      30917.497      31034.464      9228.7263      21805.737      3338.4422      7436.48       -5322.6251      387.71342     -2488.4174      62353.89      -43899.746     -489.68496      75664.558      42.295825      42.295825      42.295825      1.107509      -1423.6691      788.95417      316.725      
     17000   17000          577.32176      980.09552      32038.034      30961.903      9256.6486      21705.255      3270.6116      7396.5413     -5325.4759      386.61343     -2455.0665      62340.303     -43908.272     -492.13977      75287.139      42.225383      42.225383      42.225383      1.113061       352.03688      781.13084      1807.1188    
     17500   17500          581.235        274.4165       31510.484      31208.248      9319.3926      21888.855      3222.048       7446.1967     -5128.8643      398.92819     -2475.3918      62336.906     -43910.967     -490.62406      75519.729      42.268822      42.268822      42.268822      1.109633       1275.3726      614.06064     -1066.1838    
     18000   18000          586.11834      779.3688       32135.891      31287.477      9397.6909      21889.786      3395.7858      7300.1857     -5169.8085      405.17912     -2497.6529      62366.86      -43910.763     -496.3865       74643.037      42.104621      42.104621      42.104621      1.1226657      287.86563      1698.4102      351.83055    
     18500   18500          593.68874      635.74582      32117.916      31429.585      9519.0731      21910.512      3378.4878      7551.7334     -5221.3928      435.44622     -2658.1102      62317.316     -43892.969     -499.081        74240.044      42.028711      42.028711      42.028711      1.1287598      2619.0324     -1036.1207      324.32581    
     19000   19000          578.88685     -1114.2428      30067.409      31291.381      9281.7428      22009.638      3279.5981      7619.591      -5168.087       378.12499     -2450.2429      62265.302     -43914.649     -491.91897      75320.934      42.2317        42.2317        42.2317        1.1125616     -1128.0534     -1414.8125     -799.86263    
     19500   19500          576.6221       749.60424      31901.083      31075.112      9245.4303      21829.682      3294.8402      7423.617      -5252.6228      416.03617     -2488.2356      62351.603     -43915.556     -490.40236      75553.869      42.27519       42.27519       42.27519       1.1091316      197.02874      1014.1187      1037.6653    
     20000   20000          580.49147      1535.0312      32797.95       31115.519      9307.471       21808.048      3188.6763      7458.4828     -5204.4545      442.51841     -2514.3868      62355.554     -43918.342     -493.0206       75152.632      42.200222      42.200222      42.200222      1.1150532      2286.0295      2267.3659      51.698127    
     20500   20500          583.14198     -135.80606      31153.336      31302.251      9349.9685      21952.283      3440.919       7525.9339     -5178.2069      334.72858     -2525.541       62266.21      -43911.761     -492.7945       75187.113      42.206675      42.206675      42.206675      1.1145418     -2167.5103      971.05733      789.03475    
     21000   21000          585.80556     -182.81775      31205.034      31406.715      9392.6759      22014.039      3402.7937      7509.4938     -5179.0248      379.29829     -2554.647       62366.433     -43910.307     -489.82194      75643.397      42.291882      42.291882      42.291882      1.1078188      378.63444     -892.97346     -34.114231    
     21500   21500          568.70387     -343.54601      30567.965      30941.601      9118.4711      21823.13       3255.4065      7526.6607     -5220.5759      387.47683     -2557.8576      62337.899     -43905.88      -496.84506      74574.145      42.091664      42.091664      42.091664      1.1237029      38.206875     -1020.4112     -48.433672    
     22000   22000          573.85981     -861.51752      30026.536      30970.128      9201.1404      21768.988      3414.1759      7373.473      -5229.1771      388.13678     -2539.4648      62273.366     -43911.522     -493.36109      75100.766      42.190511      42.190511      42.190511      1.1158233      116.25732     -887.77831     -1813.0316    
     22500   22500          573.85996     -1111.4913      29592.836      30805.946      9201.1427      21604.803      3257.8243      7389.9171     -5211.4261      373.73952     -2577.281       62291.97      -43919.941     -495.09787      74837.316      42.141119      42.141119      42.141119      1.1197513     -2129.3399      641.31291     -1846.4468    
     23000   23000          578.24272     -913.17119      30128.902      31131.137      9271.4149      21859.722      3332.9443      7552.0267     -5231.6466      404.19379     -2498.0643      62227.725     -43927.457     -492.34296      75256.069      42.219574      42.219574      42.219574      1.1135206     -2713.1696     -315.6034       289.25947    
     23500   23500          577.06445      1012.5251      32331.833      31216.376      9252.5229      21963.853      3365.9431      7554.2643     -5196.6147      411.92428     -2577.9301      62322.842     -43916.575     -490.49911      75538.967      42.272411      42.272411      42.272411      1.1093504      222.04065      624.10683      2191.4277    
     24000   24000          587.50066     -1212.9497      29907.392      31229.699      9419.8548      21809.844      3399.2729      7421.3026     -5214.0874      382.62454     -2532.7828      62265.116     -43911.601     -495.67328      74750.439      42.124806      42.124806      42.124806      1.1210527     -18.87738      -1565.2536     -2054.7182    
     24500   24500          572.02365     -587.9191       30619.975      31268.902      9171.6998      22097.202      3448.861       7533.6426     -5241.7047      409.51031     -2472.4148      62307.957     -43888.649     -489.56146      75683.644      42.299381      42.299381      42.299381      1.1072297     -459.95444     -325.81992     -977.98292    
     25000   25000          575.17761     -94.76313       30968.065      31072.218      9222.2697      21849.948      3374.3856      7284.9664     -5196.2777      389.89118     -2419.8775      62326.935     -43910.074     -491.64676      75362.636      42.239493      42.239493      42.239493      1.111946       515.2673      -1059.236       259.67928    
     25500   25500          571.25642     -125.82756      30961.839      31100.867      9159.3983      21941.469      3341.2981      7441.7831     -5129.5125      339.36484     -2444.8283      62296.905     -43903.541     -489.05565      75761.921      42.313959      42.313959      42.313959      1.1060857     -341.30805      292.32246     -328.4971     
     26000   26000          575.5817       1128.8341      32368.464      31126.099      9228.7487      21897.351      3106.5173      7538.2871     -5151.252       401.45862     -2446.9605      62381.165     -43931.864     -490.98269      75464.566      42.258527      42.258527      42.258527      1.1104441      2016.2032      164.9409       1205.3581    
     26500   26500          589.0155      -76.237826      31114.102      31197.386      9444.1434      21753.243      3295.9022      7287.0803     -5156.09        367.09625     -2499.4747      62378.78      -43920.052     -494.64545      74905.765      42.153963      42.153963      42.153963      1.1187281     -2432.6881      1569.3216      634.65308    
     27000   27000          582.64563      214.42569      31604.615      31366.95       9342.0102      22024.94       3248.9587      7503.2043     -5032.4246      393.89465     -2525.9572      62338.16      -43900.896     -487.52448      75999.867      42.358211      42.358211      42.358211      1.1026227     -113.12516      421.5798       334.82244    
     27500   27500          584.19133     -6.4174664      31130.111      31137.193      9366.7936      21770.4        3192.3734      7434.8368     -5257.1622      396.39433     -2445.1189      62351.401     -43902.325     -489.63027      75673.01       42.2974        42.2974        42.2974        1.1073853     -418.98345      1407.1587     -1007.4277    
     28000   28000          586.35299     -104.68913      31255.546      31370.05       9401.4532      21968.596      3444.7528      7501.4618     -5239.8113      410.92029     -2562.0122      62305.201     -43891.916     -494.04534      74996.751      42.171024      42.171024      42.171024      1.1173708      2097.1295     -459.1542      -1952.0427    
     28500   28500          593.54968      49.88442       31446.688      31391.815      9516.8434      21874.972      3413.1437      7437.6337     -5343.0882      386.41019     -2479.9822      62358.149     -43897.294     -491.24523      75424.235      42.250998      42.250998      42.250998      1.1110379      1479.1345     -1174.042      -155.43926    
     29000   29000          584.01156      928.96937      32353.351      31321.932      9363.9112      21958.021      3254.5982      7486.6833     -5181.1217      392.6699      -2447.8781      62369.55      -43916.48      -486.68911      76130.316      42.382432      42.382432      42.382432      1.1007334      1574.5431      1115.4421      96.922908    
     29500   29500          578.06091      1494.2006      32769.174      31129.785      9268.4999      21861.285      3260.9697      7471.2685     -5162.6681      383.63002     -2496.2996      62319.633     -43915.249     -492.5063       75231.111      42.214906      42.214906      42.214906      1.11389        2066.0686      1082.8321      1333.7011    
     30000   30000          581.15739     -103.07364      31182.601      31295.286      9318.1481      21977.138      3370.9128      7481.6695     -5209.4365      386.41563     -2502.3726      62349.485     -43899.536     -494.27522      74961.872      42.164486      42.164486      42.164486      1.1178907     -178.95772     -512.8954       382.63218    
     30500   30500          570.41015      607.86535      31806.072      31139.801      9145.8293      21993.972      3396.6037      7553.4322     -5238.9395      414.94228     -2512.7795      62288.043     -43907.33      -492.99385      75156.71       42.200985      42.200985      42.200985      1.1149927     -289.68719      570.43595      1542.8473    
     31000   31000          575.53669     -269.4515       30691.493      30987.468      9228.0271      21759.441      3235.0155      7444.2837     -5218.7594      411.63544     -2585.2499      62388.394     -43915.878     -491.937        75318.172      42.231184      42.231184      42.231184      1.1126024     -678.2909       1002.5477     -1132.6113    
     31500   31500          578.60058      374.87098      31619.473      31207.093      9277.1528      21929.94       3329.1381      7521.954      -5184.1182      367.93281     -2577.7775      62379.668     -43906.857     -491.21183      75429.364      42.251956      42.251956      42.251956      1.1109623     -1341.1413      572.05116      1893.7031    
     32000   32000          582.98614     -241.98408      30959.654      31226.754      9347.4699      21879.284      3329.0511      7486.2747     -5231.6407      400.84179     -2491.7096      62290.482     -43904.015     -489.55149      75685.186      42.299668      42.299668      42.299668      1.1072072     -311.28427      786.21687     -1200.8848    
     32500   32500          577.82225     -1098.5488      30149.35       31345.217      9264.6732      22080.544      3538.707       7498.3492     -5189.4103      383.43793     -2558.7297      62322.156     -43913.966     -496.38835      74642.758      42.104569      42.104569      42.104569      1.1226699     -1789.853       79.311425     -1585.1047    
     33000   33000          579.82628     -51.455789      31205.032      31260.851      9296.8055      21964.046      3369.842       7598.0984     -5225.9921      438.14039     -2625.6179      62310.83      -43901.255     -498.11716      74383.697      42.055802      42.055802      42.055802      1.1265799      564.4901      -1724.8792      1006.0218    
     33500   33500          574.7665      -1206.9498      29823.726      31146.557      9215.6781      21930.879      3383.3597      7468.0492     -5262.4331      440.05734     -2458.5093      62273.096     -43912.741     -493.0262       75151.778      42.200062      42.200062      42.200062      1.1150658     -1364.5842     -1904.8176     -351.44753    
     34000   34000          581.83226      537.72227      31662.971      31072.9        9328.9689      21743.931      3400.4706      7514.9977     -5280.0609      369.51198     -2585.2373      62231.948     -43907.699     -492.42335      75243.784      42.217276      42.217276      42.217276      1.1137024      1251.8816      134.7492       226.53597    
     34500   34500          586.31099      1733.277       33044.377      31155.632      9400.7798      21754.852      3317.9869      7409.7342     -5227.7434      379.87785     -2564.2678      62357.159     -43917.894     -495.88363      74718.732      42.118849      42.118849      42.118849      1.1215284      1766.6617      775.19571      2657.9736    
     35000   35000          586.51291      1700.3267      33262.375      31391.19       9404.0173      21987.172      3255.5694      7520.9072     -5152.9652      384.04677     -2492.4097      62377.001     -43904.977     -491.02169      75458.572      42.257409      42.257409      42.257409      1.1105323      3096.0647      1421.7293      583.18597    
     35500   35500          583.90461     -532.80715      30723.132      31310.413      9362.1964      21948.217      3366.5292      7454.173      -5242.9554      408.80715     -2501.7544      62358.336     -43894.919     -490.24032      75578.842      42.279847      42.279847      42.279847      1.1087651     -2155.2937      518.21581      38.656477    
     36000   36000          582.97084      979.41596      32233.584      31176.154      9347.2245      21828.93       3385.2844      7357.4836     -5161.8338      414.28889     -2608.0594      62342.676     -43900.91      -500.49655      74030.073      41.989051      41.989051      41.989051      1.1319613      927.49592     -466.57438      2477.3263    
     36500   36500          573.78822      372.53152      31471.74       31064.516      9199.9925      21864.523      3313.3436      7474.4552     -5261.228       422.12453     -2545.9709      62374.959     -43913.16      -494.32717      74953.994      42.163009      42.163009      42.163009      1.1180082     -123.2475       1124.3385      116.50351    
     37000   37000          568.61235     -233.26712      30657.991      30912.208      9117.0037      21795.204      3340.4334      7442.5556     -5247.003       363.28205     -2564.4912      62367.267     -43906.84      -495.8311       74726.648      42.120337      42.120337      42.120337      1.1214096      29.631168      40.890472     -770.32301    
     37500   37500          565.88397      794.12974      31620.831      30757.35       9073.2575      21684.093      3208.912       7356.9645     -5181.4055      373.5586      -2517.557       62352.675     -43909.055     -496.96311      74556.432      42.088331      42.088331      42.088331      1.1239698     -257.56065      1948.35        691.59989    
     38000   38000          582.97342     -88.757045      31155.03       31252.787      9347.2659      21905.521      3334.9053      7506.4666     -5226.5178      385.88033     -2493.6931      62305.539     -43907.06      -490.61523      75521.087      42.269075      42.269075      42.269075      1.109613      -579.50712      720.07862     -406.84263    
     38500   38500          581.70397     -967.10995      30084.098      31149.349      9326.912       21822.437      3338.058       7373.5821     -5119.1474      406.34465     -2591.8932      62315.811     -43900.318     -490.57901      75526.663      42.270115      42.270115      42.270115      1.1095311     -369.6823      -643.62663     -1888.0209    
     39000   39000          581.45126     -503.26035      30553.173      31108.517      9322.8599      21785.657      3391.1403      7302.0493     -5248.8195      436.85423     -2496.9905      62307.957     -43906.533     -489.68315      75664.837      42.295877      42.295877      42.295877      1.1075049      631.88348     -1388.8107     -752.8538     
     39500   39500          575.5203       1073.5911      32314.917      31140.091      9227.7642      21912.327      3230.6238      7572.3383     -5234.1276      390.47847     -2507.4163      62381.303     -43920.873     -493.79954      75034.084      42.178021      42.178021      42.178021      1.1168149      1366.5274      1202.6156      651.63032    
     40000   40000          582.17624      230.67632      31496.389      31240.648      9334.4842      21906.164      3256.9765      7472.7777     -5200.1994      402.06205     -2509.0962      62403.751     -43920.108     -487.40146      76019.049      42.361775      42.361775      42.361775      1.1023445      867.7175       157.09848     -332.78701    
     40500   40500          586.07107      907.12883      32237.882      31234.177      9396.9329      21837.244      3263.7839      7500.6901     -5185.4331      355.18559     -2496.5968      62305.754     -43906.14      -488.36905      75868.435      42.333779      42.333779      42.333779      1.1045329      1525.5215     -1.0855347      1196.9505    
     41000   41000          582.55278      1288.1113      32665.718      31263.57       9340.5215      21923.049      3238.025       7427.9342     -5115.7919      389.68275     -2524.4975      62409.745     -43902.048     -496.41509      74638.738      42.103813      42.103813      42.103813      1.1227304      1303.1341      3079.3114     -518.11149    
     41500   41500          572.71546      248.85677      31081.43       30807.806      9182.7922      21625.014      3327.2698      7275.9543     -5224.5062      400.6407      -2575.2751      62344.054     -43923.123     -491.45146      75392.585      42.245087      42.245087      42.245087      1.1115043      1192.6371      354.46798     -800.53478    
     42000   42000          559.66707     -2563.5193      28233.242      31068.01       8973.5772      22094.433      3307.6593      7730.8826     -5213.5732      394.96966     -2550.7922      62336.44      -43911.154     -488.6572       75823.697      42.325457      42.325457      42.325457      1.1051846     -2277.6443     -2668.4299     -2744.4837    
     42500   42500          585.30667      776.54277      32029.085      31183.54       9384.6768      21798.863      3250.8836      7486.567      -5254.2392      374.61134     -2547.2567      62387.863     -43899.566     -496.2653       74661.266      42.108049      42.108049      42.108049      1.1223916      875.74317      1549.2727     -95.387532    
     43000   43000          591.3727       801.43096      32095.4        31227.346      9481.9382      21745.408      3164.1413      7470.6601     -5105.5507      406.26401     -2631.806       62346.187     -43904.488     -498.88971      74268.511      42.034082      42.034082      42.034082      1.1283272      1015.6207      2583.0082     -1194.336     
     43500   43500          588.37574     -1031.4133      30262.831      31390.748      9433.8855      21956.863      3378.006       7531.7692     -5147.1647      406.40406     -2678.2739      62371.365     -43905.243     -494.12934      74984.002      42.168635      42.168635      42.168635      1.1175608     -999.69807     -426.48615     -1668.0558    
     44000   44000          581.07967      48.148322      31327.295      31274.614      9316.902       21957.712      3446.1357      7396.9301     -5185.9565      435.51771     -2578.3559      62344.188     -43900.747     -493.86833      75023.633      42.176062      42.176062      42.176062      1.1169705      15.653387     -209.57345      338.36503    
     44500   44500          566.84638      1000.5827      31965.398      30878.874      9088.6886      21790.185      3275.5626      7433.427      -5197.2738      412.337       -2519.3363      62277.324     -43891.855     -497.62098      74457.865      42.069775      42.069775      42.069775      1.1254577      523.26308     -481.0539       2959.5389    
     45000   45000          577.66604      1371.7956      32551.563      31065.53       9262.1686      21803.361      3278.0876      7564.2789     -5176.5052      379.48447     -2642.9346      62316.043     -43915.093     -498.82247      74278.522      42.035971      42.035971      42.035971      1.1281751      571.87833      2243.2789      1300.2298    
     45500   45500          574.36748     -1196.2713      29683.383      30996.802      9209.2802      21787.522      3435.5286      7401.549      -5199.1895      363.09943     -2645.1805      62323.22      -43891.505     -492.16583      75283.153      42.224638      42.224638      42.224638      1.11312        95.094908     -1273.6823     -2410.2266    
     46000   46000          584.4244      -575.38957      30567.208      31196.195      9370.5307      21825.664      3300.7429      7425.7131     -5155.4694      401.50767     -2589.1463      62351.79      -43909.474     -494.31704      74955.53       42.163297      42.163297      42.163297      1.1179853      270.58764     -744.02107     -1252.7353    
     46500   46500          588.28265     -706.77869      30435.805      31203.831      9432.393       21771.438      3389.4571      7358.6464     -5112.9095      396.18437     -2633.8993      62278.613     -43904.654     -497.27054      74510.337      42.079655      42.079655      42.079655      1.1246652     -1101.3652      588.77443     -1607.7453    
     47000   47000          585.62726     -1515.2194      29469.918      31123.385      9389.817       21733.568      3286.7138      7375.5153     -5146.6586      383.94225     -2558.9801      62304.996     -43911.96      -495.18217      74824.575      42.138728      42.138728      42.138728      1.1199419     -1744.7421     -1037.0063     -1763.9096    
     47500   47500          584.17113      233.63928      31341.905      31086.692      9366.4697      21720.222      3325.8919      7419.022      -5264.2021      383.4365      -2572.7905      62328.044     -43899.179     -494.68576      74899.661      42.152818      42.152818      42.152818      1.1188192      1110.5233      732.47295     -1142.0784    
     48000   48000          587.99879     -1658.1825      29339.91       31151.495      9427.8417      21723.653      3234.9372      7454.6304     -5151.0541      387.29973     -2645.4206      62352.194     -43908.934     -494.60538      74911.834      42.155102      42.155102      42.155102      1.1186374     -3019.0606      148.26123     -2103.7483    
     48500   48500          576.80029     -197.44384      31082.488      31298.21       9248.2873      22049.923      3429.8099      7514.922      -5238.9701      431.84256     -2514.4511      62327.773     -43901.003     -494.57725      74916.094      42.155901      42.155901      42.155901      1.1185738     -884.56534      568.40099     -276.16715    
     49000   49000          567.32639     -926.30931      29943.201      30957.683      9096.3849      21861.298      3386.6415      7389.0357     -5221.2875      381.28588     -2513.8778      62341.249     -43901.748     -493.39736      75095.245      42.189477      42.189477      42.189477      1.1159053     -1353.8795     -748.49979     -676.54864    
     49500   49500          573.26981     -1395.5093      29393.304      30921.66       9191.6804      21729.979      3225.4069      7471.6266     -5179.0974      393.07821     -2604.7639      62348.45      -43924.721     -493.39364      75095.811      42.189583      42.189583      42.189583      1.1158969     -2960.4617     -353.68352     -872.38251    
     50000   50000          569.38392      226.93529      31305.385      31057.576      9129.3749      21928.201      3361.818       7512.2133     -5303.3124      388.60176     -2480.519       62357.531     -43908.131     -494.84575      74875.445      42.148275      42.148275      42.148275      1.1191811      522.12026      956.00954     -797.32392    
     50500   50500          582.07153      379.43009      31586.462      31171.004      9332.8052      21838.199      3295.3739      7486.2079     -5246.8024      408.75804     -2485.43        62296.451     -43916.359     -493.50317      75079.144      42.186462      42.186462      42.186462      1.1161446     -138.51359      1145.8868      130.91711    
     51000   51000          583.0637       17.505678      31222.606      31203.37       9348.7135      21854.656      3235.8739      7482.5173     -5147.0167      402.69108     -2551.9178      62341.784     -43909.276     -491.75157      75346.573      42.236491      42.236491      42.236491      1.112183       115.24838      637.84301     -700.57436    
     51500   51500          580.90066      1010.7162      32254.444      31159.695      9314.0317      21845.664      3481.2321      7429.5312     -5269.4435      412.12691     -2532.0857      62242.37      -43918.068     -498.88443      74269.297      42.034231      42.034231      42.034231      1.1283153      684.01455      1257.9349      1090.199     
     52000   52000          580.20322     -174.71768      31066.987      31258.088      9302.8493      21955.239      3431.8854      7449.8609     -5216.9661      384.25589     -2481.7335      62285.576     -43897.64      -494.0357       74998.215      42.171299      42.171299      42.171299      1.117349       702.81507     -1304.6113      77.643191    
     52500   52500          574.2405      -400.14762      30590.44       31022.049      9207.2442      21814.805      3294.7961      7497.585      -5223.3701      433.04882     -2562.3132      62290.905     -43915.847     -500.97336      73959.613      41.975725      41.975725      41.975725      1.1330397     -879.72037     -789.41014      468.68764    
     53000   53000          572.05745      128.95893      31032.218      30891.041      9172.2417      21718.799      3228.1873      7390.1744     -5218.637       375.19192     -2496.0737      62355.006     -43915.05      -493.59487      75065.197      42.183849      42.183849      42.183849      1.116352      -1266.9446      538.96225      1114.8591    
     53500   53500          584.00751      246.1714       31339.676      31068.874      9363.8463      21705.028      3217.4844      7545.3409     -5301.1251      372.37011     -2524.2444      62305.7       -43910.498     -491.21413      75429.011      42.25189       42.25189       42.25189       1.1109675     -186.76506      822.00975      103.26951    
     54000   54000          575.92217      8.7921286      31224.414      31214.831      9234.2078      21980.623      3413.1536      7554.9274     -5294.9389      429.90939     -2531.6292      62317.931     -43908.73      -495.77319      74735.376      42.121976      42.121976      42.121976      1.1212786      1039.4939     -1648.9099      635.79236    
     54500   54500          579.10024     -251.89817      30862.794      31138.384      9285.1642      21853.22       3298.2124      7576.7561     -5158.0323      405.5579      -2647.2643      62292.934     -43914.944     -493.90768      75017.654      42.174942      42.174942      42.174942      1.1170595     -176.31276      1363.7226     -1943.1043    
     55000   55000          571.41113      1177.1627      32290.239      30998.89       9161.8787      21837.011      3237.2681      7490.9996     -5244.8506      405.18777     -2421.005       62276.704     -43907.293     -492.58134      75219.649      42.212762      42.212762      42.212762      1.1140597      1133.3751     -82.236631      2480.3496    
     55500   55500          579.77562     -248.92975      31105.883      31378.496      9295.9931      22082.503      3344.4331      7552.3391     -5183.998       423.74306     -2424.5588      62288.424     -43917.88      -493.41925      75091.915      42.188854      42.188854      42.188854      1.1159548     -1114.0294     -615.73101      982.97115    
     56000   56000          588.69814     -1287.5066      29916.219      31318.635      9439.0548      21879.58       3347.0105      7501.7715     -5270.6439      380.89296     -2531.6358      62364.785     -43912.6       -496.08709      74688.087      42.11309       42.11309       42.11309       1.1219886     -895.22339     -1421.1065     -1546.19      
     56500   56500          576.0156       1846.1976      33065.149      31051.187      9235.7058      21815.482      3299.1879      7413.1095     -5264.7543      403.15848     -2508.0684      62393.624     -43920.776     -495.34988      74799.243      42.133972      42.133972      42.133972      1.1203212      2674.7958      1933.3268      930.47016    
     57000   57000          588.11836     -539.70323      30505.341      31102.741      9429.7588      21672.982      3329.7526      7318.4446     -5338.4401      375.00242     -2407.8237      62301.692     -43905.646     -488.17505      75898.586      42.339387      42.339387      42.339387      1.1040941      647.11353     -2599.484       333.26082    
     57500   57500          582.21037      1584.4217      32999.94       31260.944      9335.0313      21925.913      3345.0767      7397.5045     -5234.1427      420.79056     -2448.8704      62363.077     -43917.523     -492.33136      75257.842      42.219905      42.219905      42.219905      1.1134943      498.00834      3771.2152      484.04155    
     58000   58000          591.14116      2237.5061      33561.174      31147.406      9478.2258      21669.18       3225.1025      7348.5506     -5201.239       359.98262     -2497.7782      62362.728     -43928.167     -500.90325      73969.965      41.977684      41.977684      41.977684      1.1328812      2840.2447      1563.0227      2309.2509    
     58500   58500          570.88658      1119.9928      32213.763      30992.621      9153.4683      21839.153      3327.0269      7502.1678     -5153.3836      396.92818     -2656.8794      62339.321     -43916.029     -495.60354      74760.959      42.126782      42.126782      42.126782      1.1208949      23.549406      1339.1206      1997.3085    
     59000   59000          578.31441     -742.29539      30137.605      30951.601      9272.5645      21679.036      3361.7869      7420.6102     -5300.3736      390.52461     -2601.2012      62317.599     -43909.91      -492.76509      75191.6        42.207514      42.207514      42.207514      1.1144753     -961.2687      -595.54207     -670.07541    
     59500   59500          580.91775     -442.03112      30625.788      31105.821      9314.3058      21791.515      3403.6521      7462.3586     -5278.501       354.8548      -2577.0155      62330.603     -43904.437     -497.58464      74463.303      42.0708        42.0708        42.0708        1.1253756     -1327.8839     -101.73116      103.52173    
     60000   60000          582.32286      122.27094      31308.606      31176.121      9336.835       21839.286      3282.6282      7432.6882     -5206.2216      365.90223     -2485.4665      62359.654     -43909.898     -498.70233      74296.416      42.039346      42.039346      42.039346      1.1279034      2089.5333     -622.25956     -1100.4609    
     60500   60500          590.92344     -1069.5459      30128.891      31304.808      9474.7349      21830.074      3314.6111      7510.4875     -5296.7577      348.03832     -2420.5779      62294.162     -43919.889     -491.48206      75387.891      42.244211      42.244211      42.244211      1.1115735     -2447.7497     -711.58249     -49.305458    
     61000   61000          582.63119      1535.0786      32898.865      31215.129      9341.7787      21873.351      3320.4607      7410.5318     -5240.6103      395.30737     -2488.2973      62373.286     -43897.327     -492.65381      75208.585      42.210692      42.210692      42.210692      1.1142236      1830.2755      1553.3379      1221.6225    
     61500   61500          569.33026     -713.01648      30292.471      31078.369      9128.5146      21949.854      3262.3559      7661.7039     -5189.2137      388.82171     -2511.8179      62264.917     -43926.912     -490.25137      75577.138      42.27953       42.27953       42.27953       1.1087901      261.68872     -2030.2144     -370.52373    
     62000   62000          579.72119     -909.06592      30010.657      31000.362      9295.1204      21705.242      3330.4115      7414.8002     -5290.1162      355.93259     -2499.1192      62294.17      -43900.837     -496.335        74650.782      42.106078      42.106078      42.106078      1.1225493     -1715.2421     -1804.8319      792.87633    
     62500   62500          567.21283     -677.34153      30148.667      30884.372      9094.5642      21789.808      3267.5853      7482.07       -5192.0097      398.71903     -2597.5261      62340.363     -43909.393     -497.49537      74476.664      42.073316      42.073316      42.073316      1.1251737     -1704.5107      447.11404     -774.6279     
     63000   63000          584.14934     -43.045404      31145.488      31192.389      9366.1204      21826.268      3319.4593      7430.6134     -5181.6804      367.36408     -2526.7075      62330.383     -43913.163     -495.9494       74708.822      42.116987      42.116987      42.116987      1.1216772      364.75479     -24.168702     -469.7223     
     63500   63500          582.35893     -1699.2618      29257.412      31089.054      9337.4133      21751.64       3340.0843      7505.374      -5179.8775      435.6729      -2685.5565      62253.141     -43917.198     -501.30846      73910.174      41.96637       41.96637       41.96637       1.1337976     -1019.002      -1326.4871     -2752.2962    
     64000   64000          580.35925      325.30685      31538.769      31186.283      9305.351       21880.932      3396.6565      7504.4481     -5249.6017      412.88312     -2585.9574      62302.097     -43899.594     -498.6967       74297.255      42.039505      42.039505      42.039505      1.1278907      207.91126     -138.56904      906.57831    
     64500   64500          583.60373      107.19827      31323.254      31207.743      9357.3723      21850.371      3385.4764      7515.8406     -5254.2941      398.84928     -2589.3563      62315.422     -43921.567     -501.47644      73885.416      41.961684      41.961684      41.961684      1.1341776      535.71604     -19.97062      -194.15061    
     65000   65000          587.22483      860.87229      32128.828      31198.048      9415.4322      21782.616      3300.3708      7553.5786     -5197.4814      393.08404     -2660.3084      62306.977     -43913.605     -499.77748      74136.586      42.009179      42.009179      42.009179      1.130335       753.54519      1230.9079      598.16379    
     65500   65500          582.96809      466.55736      31762.222      31257.929      9347.1805      21910.749      3293.7346      7519.9079     -5142.4289      431.95046     -2652.9633      62374.629     -43914.081     -499.92789      74114.281      42.004966      42.004966      42.004966      1.1306752      433.46709     -178.14122      1144.3462    
     66000   66000          575.03032     -28.069558      31090.414      31120.873      9219.908       21900.965      3418.6718      7397.3406     -5209.0918      433.83096     -2556.7578      62323.781     -43906.81      -497.96636      74406.223      42.060047      42.060047      42.060047      1.1262389     -2287.6173      510.245        1693.1637    
     66500   66500          581.60119      571.445        31610.574      30992.021      9325.2639      21666.757      3235.0864      7422.2278     -5221.5384      412.0757      -2603.7619      62348.833     -43926.166     -499.20908      74220.997      42.025117      42.025117      42.025117      1.1290495      1032.473      -149.17408      831.03607    
     67000   67000          572.86407      646.49722      31853.985      31155.151      9185.1748      21969.976      3316.8896      7493.2866     -5144.8466      421.3013      -2561.3827      62360.819     -43916.091     -499.8933       74119.409      42.005934      42.005934      42.005934      1.130597       437.70763     -53.564391      1555.3484    
     67500   67500          576.28105      1012.3554      32058.761      30950.351      9239.962       21710.389      3203.6375      7345.3073     -5168.5538      378.56934     -2488.1747      62350.158     -43910.555     -493.53488      75074.32       42.185559      42.185559      42.185559      1.1162163      1032.0613     -80.913231      2085.918     
     68000   68000          576.22006      66.379143      31149.804      31077.599      9238.984       21838.615      3272.2694      7432.5146     -5123.9106      409.84156     -2477.862       62251.651     -43925.89      -496.75726      74587.326      42.094144      42.094144      42.094144      1.1235043     -227.19921      1568.8563     -1142.5197    
     68500   68500          586.02775      41.103353      31189.263      31145.027      9396.2384      21748.789      3191.9579      7444.105      -5123.7513      402.99693     -2617.3348      62366.304     -43915.489     -502.10109      73793.499      41.944276      41.944276      41.944276      1.1355903      653.77126     -897.49343      367.03223    
     69000   69000          578.19397      857.02571      31925.157      30999.192      9270.6334      21728.558      3278.4353      7528.6502     -5324.6385      417.94403     -2604.4914      62341.775     -43909.116     -500.13175      74084.07       41.999257      41.999257      41.999257      1.1311363     -532.05046      1236.6641      1866.4635    
     69500   69500          564.0372       630.13575      31556.16       30874.077      9043.6468      21830.43       3297.1638      7513.2943     -5108.1357      387.30995     -2608.405       62271.647     -43922.444     -499.20799      74221.16       42.025147      42.025147      42.025147      1.129047       1314.7945      857.44535     -281.83264    
     70000   70000          573.31707     -558.11505      30455.483      31060.012      9192.4382      21867.574      3363.967       7427.5587     -5201.7793      393.22333     -2541.8111      62339.741     -43913.326     -498.87476      74270.737      42.034502      42.034502      42.034502      1.1282934     -887.6094       365.6905      -1152.4263    
     70500   70500          588.46024      651.1586       31997.929      31286.559      9435.2404      21851.319      3317.8721      7489.8347     -5162.6406      435.99435     -2656.7468      62337.601     -43910.596     -494.62518      74908.835      42.154539      42.154539      42.154539      1.1186822      1990.5963      502.27788     -539.39841    
     71000   71000          586.26031     -166.17095      31058.011      31237.624      9399.9673      21837.656      3351.2093      7398.2557     -5182.9176      379.08094     -2577.5188      62367.085     -43897.538     -499.92395      74114.864      42.005076      42.005076      42.005076      1.1306663     -367.44919      549.92703     -680.9907     
     71500   71500          589.99316     -632.84221      30328.353      31015.228      9459.8188      21555.409      3190.9494      7391.166      -5209.4925      379.8368      -2626.2005      62339.813     -43910.663     -497.85534      74422.814      42.063173      42.063173      42.063173      1.1259878     -1935.226       683.33186     -646.63251    
     72000   72000          580.4725       940.75732      32161.914      31143.037      9307.1668      21835.87       3182.5857      7539.4063     -5170.9995      409.09105     -2501.4001      62287.763     -43910.576     -498.93151      74262.289      42.032909      42.032909      42.032909      1.1284217      294.74809      392.27937      2135.2445    
     72500   72500          574.43962      398.72081      31397.229      30963.019      9210.4369      21752.582      3361.3129      7402.5136     -5280.7195      383.92318     -2555.7645      62351.908     -43910.592     -496.19711      74671.527      42.109978      42.109978      42.109978      1.1222374      448.6034       475.14021      272.41884    
     73000   73000          580.70052      711.00789      31997.696      31232.213      9310.8228      21921.39       3241.9471      7600.67       -5143.5459      428.20844     -2566.1979      62275.903     -43915.595     -501.9081       73821.873      41.949651      41.949651      41.949651      1.1351538     -110.88514      1215.6792      1028.2296    
     73500   73500          580.75395      149.24276      31429.882      31269.56       9311.6795      21957.881      3407.6247      7502.7077     -5215.9785      427.26341     -2568.3298      62306.3       -43901.707     -503.01974      73658.731      41.918726      41.918726      41.918726      1.137668       1437.1006      1356.6372     -2346.0095    
     74000   74000          577.6311       365.44267      31619.735      31219.645      9261.6084      21958.037      3339.3543      7600.3039     -5244.2983      423.46347     -2548.0908      62297.44      -43910.136     -493.56798      75069.286      42.184615      42.184615      42.184615      1.1162912      104.25732     -418.66282      1410.7335    
     74500   74500          584.94085     -17.727356      31100.869      31120.315      9378.8113      21741.504      3211.0572      7449.8334     -5241.7765      407.42953     -2453.8045      62275.793     -43907.028     -492.58337      75219.339      42.212704      42.212704      42.212704      1.1140643     -307.31731      949.03653     -694.90128    
     75000   75000          576.7234      -631.59223      30417.91       31110.008      9247.0545      21862.953      3244.6761      7447.1039     -5189.4961      400.20587     -2468.4529      62342.93      -43914.013     -493.12209      75137.166      42.197326      42.197326      42.197326      1.1152827     -1458.3292     -1373.5473      937.09986    
     75500   75500          581.17531      982.91644      32426.941      31351.209      9318.4355      22032.773      3358.005       7633.1471     -5174.3996      381.99727     -2536.617       62283.081     -43912.44      -493.73893      75043.293      42.179746      42.179746      42.179746      1.1166778      370.39843      1211.4101      1366.9408    
     76000   76000          588.98741     -413.1804       30963.483      31419.141      9443.6929      21975.448      3306.5754      7477.0706     -5182.5569      469.57219     -2506.5336      62322.762     -43911.441     -489.98811      75617.744      42.2871        42.2871        42.2871        1.1081947      219.4456      -2071.365       612.37823    
     76500   76500          568.84643     -544.73629      30445.943      31039.976      9120.7569      21919.219      3177.973       7585.2801     -5149.2845      442.88665     -2619.4976      62390.975     -43909.113     -495.51939      74773.655      42.129167      42.129167      42.129167      1.1207046     -2260.9388     -1204.8701      1831.6       
     77000   77000          584.28033      2032.2141      33447.751      31250.775      9368.2207      21882.555      3294.8665      7437.2525     -5093.3157      384.60696     -2545.5405      62328.88      -43924.195     -499.83803      74127.604      42.007482      42.007482      42.007482      1.130472       888.32452      3640.974       1567.3437    
     77500   77500          585.8044       614.24249      31843.92       31171.418      9392.6573      21778.761      3245.5805      7347.0595     -5130.9243      383.95851     -2488.3276      62342.804     -43921.39      -493.55038      75071.962      42.185117      42.185117      42.185117      1.1162514      1477.1003     -35.689395      401.31662    
     78000   78000          590.5266      -497.07149      30784.381      31329.547      9468.3719      21861.175      3265.1571      7599.6267     -5190.4556      365.25435     -2532.3638      62273.016     -43919.06      -492.69225      75202.716      42.209594      42.209594      42.209594      1.1143106     -885.00492      259.47753     -865.6871     
     78500   78500          585.6098       1246.7711      32530.508      31173.804      9389.537       21784.267      3183.5932      7416.4459     -5141.2284      405.78444     -2537.7486      62376.489     -43919.069     -496.57706      74614.392      42.099235      42.099235      42.099235      1.1230967      1710.7086      86.856795      1942.7479    
     79000   79000          565.37364     -41.308881      30982.28       31027.593      9065.0751      21962.518      3437.9541      7484.7683     -5164.6034      343.44674     -2561.1776      62330.763     -43908.634     -492.62072      75213.637      42.211637      42.211637      42.211637      1.1141488      366.46546      1025.5397     -1515.9318    
     79500   79500          583.0892       1637.079       33000.811      31214.77       9349.1223      21865.648      3208.323       7544.6863     -5193.8199      403.09427     -2561.9527      62369.138     -43903.821     -495.29438      74807.625      42.135546      42.135546      42.135546      1.1201957      1013.1174      2521.4142      1376.7054    
     80000   80000          580.87551      1239.839       32487.87       31148.576      9313.6285      21834.947      3383.5485      7357.3609     -5159.995       397.25678     -2591.3354      62367.464     -43919.352     -500.23531      74068.734      41.996359      41.996359      41.996359      1.1313705      1699.2061      1692.3416      327.9693     
     80500   80500          590.05601      273.94076      31502.64       31203.289      9460.8267      21742.462      3301.6041      7320.392      -5122.5012      373.91402     -2596.848       62373.205     -43907.303     -494.49328      74928.816      42.158287      42.158287      42.158287      1.1183839      1127.4333      463.90426     -769.51529    
     81000   81000          570.38343     -701.01277      30075.615      30844.277      9145.4008      21698.876      3231.5832      7436.3607     -5316.3173      384.86082     -2501.2383      62369.811     -43906.184     -492.80554      75185.429      42.20636       42.20636       42.20636       1.1145668     -1818.3058     -447.12152      162.38903    
     81500   81500          581.09187      1024.5775      32128.142      31011.599      9317.0977      21694.501      3275.2095      7233.5472     -5173.6109      378.63216     -2469.4507      62367.27      -43917.096     -495.85442      74723.132      42.119676      42.119676      42.119676      1.1214624      1470.1404      314.53431      1289.0577    
     82000   82000          584.94639     -116.71892      31050.741      31177.92       9378.9001      21799.02       3335.7614      7474.771      -5212.7984      369.99316     -2565.5973      62292.183     -43895.293     -495.91807      74713.542      42.117874      42.117874      42.117874      1.1216063     -1959.131       1158.0979      450.87632    
     82500   82500          582.62043      761.08649      31938.269      31111.485      9341.6062      21769.879      3261.6513      7443.5269     -5130.612       387.86501     -2604.3888      62322.707     -43910.871     -497.42423      74487.315      42.075321      42.075321      42.075321      1.1250128      364.40583      1286.5619      632.29172    
     83000   83000          578.34507      1020.3128      32220.969      31098.9        9273.0561      21825.844      3174.4005      7418.3661     -5195.399       398.31032     -2378.752       62330.615     -43921.696     -491.3592       75406.741      42.247731      42.247731      42.247731      1.1112956      1183.9941      31.954076      1844.9901    
     83500   83500          578.70411      44.206445      31282.445      31234.024      9278.8128      21955.211      3444.1707      7411.8728     -5227.9334      409.8725      -2510.567       62331.239     -43903.444     -493.3275       75105.879      42.191469      42.191469      42.191469      1.1157473      478.92659     -295.53552     -50.77174     
     84000   84000          582.29905     -139.86679      31183.594      31336.13       9336.4533      21999.677      3337.0867      7616.2596     -5158.7479      405.57032     -2553.3903      62261.312     -43908.414     -495.48156      74779.363      42.130239      42.130239      42.130239      1.1206191     -440.43038     -238.35346      259.18348    
     84500   84500          585.5498       160.71724      31495.838      31321.113      9388.5751      21932.538      3403.3736      7477.6259     -5170.2476      431.20994     -2567.4764      62281.771     -43923.718     -497.04199      74544.599      42.086104      42.086104      42.086104      1.1241483      853.4415       1365.4598     -1736.7496    
     85000   85000          577.88757      711.35136      31952.62       31181.93       9265.7206      21916.209      3321.3604      7571.8286     -5225.67        399.69074     -2505.9521      62279.46      -43924.509     -498.75756      74288.189      42.037795      42.037795      42.037795      1.1280283      1969.5018      740.38771     -575.83546    
     85500   85500          590.80058     -471.74169      30713.791      31228.593      9472.7649      21755.828      3343.1102      7417.5481     -5254.4905      384.33765     -2508.2489      62291.189     -43917.617     -495.16472      74827.213      42.139223      42.139223      42.139223      1.1199025     -800.44099      1159.5333     -1774.3174    
     86000   86000          580.93179      2528.7625      33919.147      31180.13       9314.5309      21865.599      3214.3099      7562.0902     -5161.2773      431.48301     -2563.6111      62308.582     -43925.978     -498.88271      74269.553      42.034279      42.034279      42.034279      1.1283114      3468.5285      2911.4307      1206.3285    
     86500   86500          580.47749     -563.87093      30430.358      31043.169      9307.2469      21735.922      3239.9724      7382.425      -5125.7157      390.50557     -2556.0432      62316.477     -43911.699     -497.20778      74519.743      42.081426      42.081426      42.081426      1.1245232      1060.7557     -1279.542      -1472.8265    
     87000   87000          580.39991     -957.21449      29924.687      30965.645      9306.0028      21659.643      3280.6987      7407.6174     -5210.4275      396.18929     -2647.0808      62348.773     -43916.127     -496.8911       74567.235      42.090364      42.090364      42.090364      1.123807      -943.23374     -1268.6326     -659.7771     
     87500   87500          577.20726      443.70947      31566.36       31083.705      9254.8127      21828.892      3329.4934      7479.582      -5197.0791      398.38111     -2582.7491      62303.684     -43902.42      -496.76069      74586.811      42.094047      42.094047      42.094047      1.123512      -191.81566      615.8957       907.04836    
     88000   88000          574.64795      65.946549      31377.376      31305.467      9213.7772      22091.69       3494.1232      7508.0598     -5168.137       415.27406     -2619.1025      62362.01      -43900.537     -495.55755      74767.896      42.128085      42.128085      42.128085      1.1207909      833.79818      486.47733     -1122.4359    
     88500   88500          586.44246     -694.23927      30487.504      31242.212      9402.8878      21839.324      3329.028       7442.5038     -5181.3772      405.88021     -2577.8341      62312.959     -43891.836     -497.06731      74540.802      42.08539       42.08539       42.08539       1.1242055     -497.48308     -248.19325     -1337.0415    
     89000   89000          586.97971      302.77179      31544.97       31213.124      9411.502       21801.622      3234.8859      7542.3477     -5131.1986      368.62444     -2688.6992      62378.966     -43903.304     -493.0195       75152.8        42.200253      42.200253      42.200253      1.1150507     -424.3205       1264.5076      68.128262    
     89500   89500          578.14053      613.32611      31749.727      31081.573      9269.7765      21811.796      3240.0069      7551.0592     -5114.2911      376.15438     -2645.859       62318.55      -43913.825     -496.02091      74698.052      42.114963      42.114963      42.114963      1.1218389      2194.2703      1213.0278     -1567.3198    
     90000   90000          581.07978      1413.634       32651.106      31108.74       9316.9037      21791.836      3248.4231      7439.4375     -5203.0494      408.90981     -2590.2184      62393.463     -43905.129     -495.26155      74812.583      42.136476      42.136476      42.136476      1.1201215      1670.4831     -335.63608      2906.0549    
     90500   90500          582.3447      -712.98297      30479.504      31262.207      9337.1852      21925.021      3305.095       7455.2916     -5144.2296      398.83211     -2514.3744      62324.427     -43900.021     -492.22965      75273.392      42.222813      42.222813      42.222813      1.1132643      302.96756     -2042.2339     -399.68254    
     91000   91000          586.03909      383.55989      31859.563      31435.432      9396.4202      22039.011      3473.6674      7444.5513     -5240.0813      417.45941     -2447.1921      62307.015     -43916.408     -488.67294      75821.256      42.325002      42.325002      42.325002      1.1052202      2110.7131     -672.57529     -287.45813    
     91500   91500          577.13974     -1086.8944      29822.932      31024.876      9253.7301      21771.146      3415.8595      7383.5934     -5212.5015      400.69407     -2594.1365      62276.583     -43898.946     -488.6392       75826.491      42.325976      42.325976      42.325976      1.1051439     -2262.6311     -1237.743       239.69094    
     92000   92000          585.57279      635.70321      31744.423      31056.826      9388.9437      21667.883      3210.7087      7350.0414     -5194.6348      400.4979      -2586.0649      62384.853     -43897.518     -499.58098      74165.745      42.014686      42.014686      42.014686      1.1298906     -164.03771      3100.1979     -1029.0506    
     92500   92500          586.63561     -331.37777      31093.656      31458.285      9405.9847      22052.3        3363.5001      7372.8113     -5162.8292      457.0123      -2473.4234      62404.173     -43908.944     -491.08515      75448.822      42.255589      42.255589      42.255589      1.1106758     -1156.9234     -256.18189      418.97198    
     93000   93000          578.79409      1090.1392      32627.068      31424.936      9280.2555      22144.68       3364.2525      7569.024      -5144.2695      424.63618     -2521.0274      62364.125     -43912.061     -490.02148      75612.596      42.286141      42.286141      42.286141      1.1082701      897.19549      717.6436       1655.5785    
     93500   93500          585.79554     -1957.0805      28991.421      31153.077      9392.5151      21760.562      3225.7887      7522.6304     -5224.5185      360.73124     -2549.4865      62321.053     -43895.637     -489.22344      75735.938      42.309121      42.309121      42.309121      1.1064652     -626.49542     -883.28167     -4361.4644    
     94000   94000          579.61081      570.31293      31801.356      31179.161      9293.3506      21885.811      3342.8631      7339.5787     -5153.4795      423.03985     -2520.6975      62373.931     -43919.425     -495.30434      74806.119      42.135263      42.135263      42.135263      1.1202183      1306.549      -876.30945      1280.6992    
     94500   94500          570.21207      453.072        31451.538      30955.274      9142.6533      21812.62       3212.3657      7404.9886     -5179.1816      394.99243     -2496.4821      62377.116     -43901.179     -493.33187      75105.214      42.191344      42.191344      42.191344      1.1157572      2082.3628      196.30018     -919.44699    
     95000   95000          580.8241       87.64872       31281.047      31184.963      9312.8042      21872.158      3230.7026      7391.7928     -5078.4536      422.45308     -2528.6998      62354.896     -43920.533     -492.92044      75167.903      42.20308       42.20308       42.20308       1.1148266      1421.3926     -653.0852      -505.36128    
     95500   95500          583.81208     -664.61799      30555.224      31284.167      9360.7129      21923.455      3268.883       7544.7703     -5118.1517      376.58759     -2556.9751      62328.036     -43919.696     -492.67858      75204.803      42.209985      42.209985      42.209985      1.1142796      904.74776     -297.94809     -2600.6537    
     96000   96000          582.79177      940.8162       32214.928      31185.995      9344.3534      21841.641      3329.5096      7433.4529     -5239.3369      379.07676     -2488.158       62336.889     -43909.792     -494.0861       74990.564      42.169865      42.169865      42.169865      1.117463      -5.9862241      2253.0886      575.34624    
     96500   96500          581.20569      409.2399       31708.062      31256.926      9318.9225      21938.003      3302.1147      7491.049      -5173.5207      421.62972     -2582.9542      62384.629     -43904.944     -490.17971      75588.188      42.28159       42.28159       42.28159       1.108628      -2343.1907      559.67696      3011.2334    
     97000   97000          579.19433      396.27771      31454.926      31021.301      9286.6728      21734.628      3182.0278      7520.3743     -5286.2383      392.83999     -2468.0336      62316.081     -43922.423     -493.82151      75030.745      42.177395      42.177395      42.177395      1.1168646     -203.39424      849.78543      542.44193    
     97500   97500          578.04143      631.37118      31838.39       31143.976      9268.1876      21875.789      3364.3762      7355.0534     -5208.8789      379.08482     -2405.739       62317.296     -43925.403     -491.30533      75415.009      42.249275      42.249275      42.249275      1.1111738      187.62816      1392.7998      313.68555    
     98000   98000          581.75178      246.95936      31551.79       31279.318      9327.6784      21951.64       3257.8955      7531.7404     -5235.9253      405.93254     -2529.4796      62418.191     -43896.715     -489.76689      75651.9        42.293466      42.293466      42.293466      1.1076943      461.96421      158.62249      120.29139    
     98500   98500          573.40237      1347.2139      32611.883      31141.372      9193.8058      21947.566      3313.866       7495.5098     -5228.7317      420.49198     -2401.642       62265.926     -43917.855     -495.0549       74843.812      42.142339      42.142339      42.142339      1.1196541      2045.4844     -345.1615       2341.3187    
     99000   99000          573.22307      1593.0771      33048.003      31299.608      9190.931       22108.677      3345.5337      7455.2081     -5164.0804      409.19742     -2390.3467      62355.027     -43901.863     -492.35961      75253.524      42.219098      42.219098      42.219098      1.1135582      1938.6695      2441.3124      399.24944    
     99500   99500          586.43635      1280.617       32603.91       31188.077      9402.7897      21785.288      3243.3941      7371.535      -5203.6282      377.99278     -2436.8746      62341.614     -43908.746     -488.75649      75808.294      42.32259       42.32259       42.32259       1.1054091      1379.8049      388.22172      2073.8244    
    100000   100000         581.12167      413.3671       31688.099      31236.384      9317.5754      21918.808      3312.4582      7566.4357     -5284.4713      417.73039     -2519.7836      62333.747     -43907.308     -494.48904      74929.458      42.158407      42.158407      42.158407      1.1183743     -314.08596      580.47788      973.70938    
    100500   100500         573.14842     -879.31193      30146.884      31111.54       9189.7342      21921.806      3340.9904      7500.2077     -5173.9122      405.91104     -2600.6431      62347.274     -43898.022     -492.55598      75223.523      42.213487      42.213487      42.213487      1.1140023     -1729.9064     -118.9979      -789.03145    
    101000   101000         576.45636     -109.52328      30906.016      31026.095      9242.7729      21783.322      3223.4087      7499.5666     -5223.0148      350.95417     -2485.1685      62330.381     -43912.805     -492.86047      75177.049      42.204791      42.204791      42.204791      1.114691      -511.61796     -1014.6771      1197.7252    
    101500   101500         574.85417     -2.3453928      30895.504      30898.078      9217.0837      21680.994      3282.3767      7359.9047     -5230.8173      409.12112     -2511.2703      62285.492     -43913.813     -492.38932      75248.984      42.218249      42.218249      42.218249      1.1136254     -1605.195       674.4585       923.70031    
    102000   102000         583.84395     -1128.0007      30026.098      31257.528      9361.2238      21896.305      3325.5036      7595.5348     -5250.912       400.68033     -2522.18        62260.441     -43912.763     -494.97662      74855.649      42.14456       42.14456       42.14456       1.119477      -887.53264     -47.861762     -2448.6076    
    102500   102500         567.63277     -163.606        30814.065      30993.438      9101.2974      21892.141      3279.7422      7486.4367     -5195.4651      397.88252     -2555.8454      62382.115     -43902.725     -492.86279      75176.695      42.204725      42.204725      42.204725      1.1146963      356.07531     -145.19394     -701.69936    
    103000   103000         573.50501     -455.1738       30614.107      31115.546      9195.4516      21920.094      3244.0047      7633.7498     -5268.901       380.90725     -2500.4229      62344.262     -43913.505     -490.50607      75537.895      42.272211      42.272211      42.272211      1.1093661     -3081.0702      1059.1704      656.37834    
    103500   103500         589.22821      696.73931      32018.946      31252.756      9447.5539      21805.203      3241.1397      7379.7769     -5224.1732      398.80186     -2475.7135      62384.969     -43899.599     -491.38169      75403.29       42.247087      42.247087      42.247087      1.1113465      1345.5352     -476.67104      1221.3538    
    104000   104000         574.68345     -371.37783      30762.577      31170.474      9214.3464      21956.128      3385.1287      7418.3422     -5163.9457      413.38372     -2500.3604      62319.911     -43916.331     -491.98306      75311.122      42.229866      42.229866      42.229866      1.1127066     -817.20852     -370.02527      73.100291    
    104500   104500         581.97033      198.07417      31324.729      31105.339      9331.1827      21774.157      3273.9411      7372.9727     -5244.8515      379.69278     -2474.2184      62361.968     -43895.348     -487.86092      75947.456      42.348472      42.348472      42.348472      1.1033837      478.21451     -1866.9561      1982.9641    
    105000   105000         572.11455      154.40238      31267.373      31098.102      9173.1573      21924.944      3427.1647      7497.4166     -5276.4824      388.0904      -2486.535       62274.719     -43899.429     -492.89762      75171.384      42.203731      42.203731      42.203731      1.114775      -454.47605      2909.2115     -1991.5283    
    105500   105500         582.20355     -1369.418       29748.899      31253.477      9334.9221      21918.555      3243.3604      7546.9105     -5176.4845      370.85497     -2468.3247      62309.878     -43907.64      -491.82015      75336.066      42.234528      42.234528      42.234528      1.1123382     -1801.8693     -1249.2911     -1057.0937    
    106000   106000         580.7581       1100.1088      32461.984      31253.138      9311.7461      21941.392      3311.1776      7497.5761     -5166.3681      375.22018     -2466.1656      62314.769     -43924.817     -491.75593      75345.905      42.236367      42.236367      42.236367      1.1121929      1388.4531      1442.7369      469.13635    
    106500   106500         577.5034      -459.05504      30588.595      31088.008      9259.5609      21828.447      3318.0662      7498.1306     -5217.2239      414.29953     -2552.1357      62276.33      -43909.02      -496.69545      74596.608      42.09589       42.09589       42.09589       1.1233645     -1384.4572     -404.40593      411.698      
    107000   107000         582.18102     -24.949264      31182.46       31209.931      9334.5607      21875.37       3297.4483      7550.0083     -5271.4744      369.57971     -2428.0969      62261.821     -43903.915     -490.75766      75499.17       42.264986      42.264986      42.264986      1.1099351      1337.7269     -1165.4223     -247.15237    
    107500   107500         582.07517      561.24983      31825.346      31211.365      9332.8636      21878.501      3304.9718      7470.2341     -5215.6101      435.40972     -2471.1665      62276.059     -43921.397     -493.95384      75010.644      42.173628      42.173628      42.173628      1.1171639     -841.36815      581.45403      1943.6636    
    108000   108000         583.92658     -457.15263      30765.533      31260.579      9362.5487      21898.031      3250.9764      7587.5758     -5123.8612      397.36051     -2599.6293      62291.144     -43905.535     -499.00024      74252.06       42.030979      42.030979      42.030979      1.1285772     -116.84391     -352.84902     -901.76496    
    108500   108500         590.03602      346.18252      31587.919      31205.754      9460.5061      21745.248      3372.2128      7430.6022     -5263.7111      422.47873     -2578.0277      62283.571     -43921.878     -489.4841       75695.607      42.30161       42.30161       42.30161       1.1070547      554.50465     -668.2088       1152.2517    
    109000   109000         573.19411      230.79858      31436.673      31182.568      9190.4668      21992.101      3317.2344      7507.1223     -5189.8474      389.59928     -2456.8584      62344.473     -43919.622     -490.80082      75492.53       42.263747      42.263747      42.263747      1.1100328     -107.26045      602.51192      197.14426    
    109500   109500         579.02108     -66.139913      31128.058      31200.653      9283.8951      21916.758      3268.7947      7526.7829     -5162.5714      419.76927     -2546.8438      62319.193     -43908.367     -492.31276      75260.685      42.220437      42.220437      42.220437      1.1134523     -1254.246      -1115.6132      2171.4394    
    110000   110000         576.88999     -1813.8232      29149.914      31124.903      9249.7256      21875.177      3370.0697      7543.7293     -5155.667       418.79984     -2665.7631      62288.607     -43924.599     -496.26702      74661.008      42.108         42.108         42.108         1.1223955     -1430.9053     -823.15213     -3187.412     
    110500   110500         574.63153     -68.107775      31007.309      31081.861      9213.5139      21868.347      3294.028       7464.7506     -5170.1862      399.95077     -2550.1694      62326.424     -43896.45      -493.65322      75056.324      42.182187      42.182187      42.182187      1.1164839      395.27527      654.67103     -1254.2696    
    111000   111000         576.28223      55.626163      31068.131      31006.701      9239.981       21766.72       3269.5791      7311.7819     -5199.4566      393.28693     -2396.3652      62306.696     -43918.802     -489.3072       75722.973      42.306707      42.306707      42.306707      1.1066547     -1117.4554      86.337216      1197.9966    
    111500   111500         578.49606      1228.5111      32444.844      31094.801      9275.477       21819.324      3143.397       7546.8582     -5158.7774      402.93605     -2511.5517      62300.01      -43903.549     -491.71867      75351.615      42.237434      42.237434      42.237434      1.1121086      3110.0296     -541.97089      1117.4747    
    112000   112000         586.23187     -462.93776      30722.294      31229.803      9399.5112      21830.292      3346.9944      7502.5987     -5308.5849      361.61577     -2512.2297      62345.759     -43905.862     -492.90553      75170.176      42.203505      42.203505      42.203505      1.1147929     -1222.1257      1301.6774     -1468.365     
    112500   112500         595.24958      251.6172       31777.166      31500.92       9544.0992      21956.821      3332.7102      7511.931      -5124.1226      388.56031     -2562.6375      62325.331     -43914.951     -492.18772      75279.805      42.224012      42.224012      42.224012      1.1131695     -898.18069      1435.8163      217.21603    
    113000   113000         573.7479      -472.03477      30637.317      31155.849      9199.346       21956.504      3349.5496      7467.6075     -5189.3972      391.15883     -2493.0853      62333.127     -43902.457     -491.90766      75322.665      42.232024      42.232024      42.232024      1.1125361     -521.61936     -462.76293     -431.722      
    113500   113500         563.71317      917.12436      31928.598      30911.624      9038.4515      21873.173      3356.5943      7397.972      -5317.0216      389.00211     -2377.2298      62329.339     -43905.483     -487.30823      76033.594      42.364476      42.364476      42.364476      1.1021336      2552.3751      662.18104     -463.18309    
    114000   114000         575.54166      678.91438      31718.825      30970.349      9228.1067      21742.243      3183.9016      7431.8227     -5156.8137      396.58073     -2518.5604      62310.818     -43905.506     -490.14243      75593.936      42.282662      42.282662      42.282662      1.1085437      644.00801     -254.44256      1647.1777    
    114500   114500         585.71489      35.223996      31261.059      31222.448      9391.2221      21831.225      3372.3521      7448.819      -5198.0415      405.09102     -2566.7173      62292.837     -43923.115     -492.95243      75163.025      42.202167      42.202167      42.202167      1.114899       756.88256     -120.42926     -530.78131    
    115000   115000         585.86356     -1155.3616      29950.888      31223.947      9393.6058      21830.342      3381.3888      7370.678      -5163.4302      414.0025      -2588.3999      62333.353     -43917.25      -490.40431      75553.569      42.275134      42.275134      42.275134      1.109136      -1568.4854     -1152.8347     -744.76458    
    115500   115500         577.48109     -212.13355      30847.498      31079.922      9259.2032      21820.719      3328.6291      7465.7542     -5262.4257      407.85495     -2481.77        62277.851     -43915.175     -493.19057      75126.732      42.195373      42.195373      42.195373      1.1154376      186.79564     -546.36385     -276.83246    
    116000   116000         583.35127      707.28056      31822.173      31053.808      9353.3243      21700.484      3238.1899      7407.2807     -5182.3312      400.66654     -2577.2451      62319.913     -43905.99      -497.40394      74490.355      42.075894      42.075894      42.075894      1.1249669     -1006.9867      1345.084       1783.7444    
    116500   116500         577.09643     -788.89139      30294.046      31152.902      9253.0356      21899.867      3253.3606      7613.2505     -5093.3956      373.49077     -2644.4714      62295.795     -43898.163     -496.34304      74649.572      42.10585       42.10585       42.10585       1.1225675     -1576.6282      198.61625     -988.66221    
    117000   117000         582.56854     -278.12877      30936.644      31241.734      9340.7743      21900.959      3242.4714      7481.5784     -5152.3353      421.95271     -2516.8831      62339.919     -43915.744     -492.60997      75215.278      42.211944      42.211944      42.211944      1.1141245     -1011.8578      181.17535     -3.703866     
    117500   117500         588.80421     -970.05031      30157.36       31218.415      9440.7556      21777.659      3363.1507      7517.647      -5248.9072      382.4029      -2597.1262      62280.745     -43920.253     -494.01675      75001.092      42.171838      42.171838      42.171838      1.1173061      112.2617      -1857.2989     -1165.1137    
    118000   118000         574.62564     -716.35291      30415.878      31199.068      9213.4196      21985.648      3442.2678      7555.6892     -5176.1089      387.00881     -2563.3345      62245.815     -43905.689     -494.24869      74965.895      42.16524       42.16524       42.16524       1.1178307     -1057.0947     -345.23539     -746.72861    
    118500   118500         579.84743     -289.67799      30766.267      31083.132      9297.1445      21785.988      3315.3467      7542.4503     -5227.3131      365.65569     -2568.1361      62267.107     -43909.123     -493.99835      75003.886      42.172362      42.172362      42.172362      1.1172645      970.57522     -599.78909     -1239.8201    
    119000   119000         571.60665     -342.31238      30453.992      30824.854      9165.0137      21659.84       3306.0036      7399.0105     -5252.9826      390.50577     -2597.5483      62330.406     -43915.554     -498.76394      74287.238      42.037615      42.037615      42.037615      1.1280428     -357.29233     -564.68686     -104.95793    
    119500   119500         585.92425     -372.59703      30752.97       31159.927      9394.5789      21765.348      3229.7859      7382.8011     -5151.7198      395.69175     -2576.3192      62388.116     -43903.007     -494.73876      74891.638      42.151313      42.151313      42.151313      1.1189391     -600.93427      1187.1585     -1704.0153    
    120000   120000         593.06812      1500.8022      32948.004      31315.384      9509.1221      21806.261      3298.4481      7348.869      -5219.9363      395.52045     -2493.5545      62386.04      -43909.125     -496.73326      74590.931      42.094822      42.094822      42.094822      1.12345        346.45656      1353.3649      2802.585     
    120500   120500         565.32754     -86.772297      30515.654      30610.36       9064.3359      21546.024      3276.0923      7338.3695     -5174.375       403.34194     -2666.9529      62287.624     -43918.076     -495.09678      74837.481      42.14115       42.14115       42.14115       1.1197488     -246.43415      649.49248     -663.37523    
    121000   121000         574.61909      795.44436      31872.137      31010.313      9213.3146      21796.998      3240.7143      7382.8046     -5169.2081      420.02474     -2506.6975      62336.106     -43906.746     -498.74206      74290.498      42.03823       42.03823       42.03823       1.1279933      1169.4641      1675.2723     -458.40338    
    121500   121500         580.44528      1191.6132      32499.015      31196.165      9306.7303      21889.435      3215.8686      7469.1287     -5083.6332      392.70462     -2539.6869      62343.724     -43908.671     -494.22662      74969.243      42.165868      42.165868      42.165868      1.1177808     -1890.4333      2337.5721      3127.7007    
    122000   122000         578.48122     -271.21256      30851.929      31147.352      9275.239       21872.113      3259.8767      7479.8556     -5170.0519      402.06428     -2620.0379      62421.012     -43900.606     -496.07942      74689.242      42.113307      42.113307      42.113307      1.1219712     -1415.1173      765.01964     -163.54005    
    122500   122500         568.25971     -361.95784      30457.873      30852.98       9111.3496      21741.63       3315.507       7379.7799     -5173.6442      398.36947     -2628.4948      62364.38      -43914.267     -495.02651      74848.104      42.143144      42.143144      42.143144      1.1195899     -1729.3719      873.78109     -230.28267    
    123000   123000         581.28557      634.51485      31874.32       31182.596      9320.2034      21862.393      3311.1232      7504.745      -5236.8034      405.31478     -2537.4073      62326.12      -43910.7       -495.67142      74750.72       42.124859      42.124859      42.124859      1.1210485     -913.42501      206.54143      2610.4281    
    123500   123500         580.30539      1104.5021      32239.45       31048.607      9304.4874      21744.119      3166.932       7460.3069     -5079.5391      396.15426     -2566.362       62278.245     -43911.618     -501.18379      73928.56       41.96985       41.96985       41.96985       1.1335157      417.12807      1824.9836      1071.3945    
    124000   124000         580.90976      898.37115      32113.473      31136.936      9314.1776      21822.759      3272.747       7405.4292     -5146.5219      435.77877     -2499.9381      62265.43      -43910.166     -497.10983      74534.426      42.08419       42.08419       42.08419       1.1243017      1089.3669      2320.1596     -714.41306    
    124500   124500         580.15647     -707.35038      30429.678      31202.545      9302.0996      21900.446      3433.4757      7459.7722     -5193.3594      414.51421     -2578.5116      62275.699     -43911.145     -494.555        74919.465      42.156533      42.156533      42.156533      1.1185235      833.33624     -1050.9723     -1904.4151    
    125000   125000         587.14408     -266.83495      30890.966      31180.441      9414.1373      21766.304      3320.0993      7399.3627     -5144.2208      371.43794     -2612.8494      62336.454     -43903.98      -498.10074      74386.149      42.056264      42.056264      42.056264      1.1265428     -801.82226      511.4036      -510.0862     
    125500   125500         587.38982      35.267304      31309.29       31270.935      9418.0775      21852.857      3312.3255      7451.6002     -5129.3429      417.31341     -2595.5345      62299.22      -43902.724     -496.85244      74573.037      42.091455      42.091455      42.091455      1.1237196     -822.43446      608.5996       319.63677    
    126000   126000         589.48208      466.50964      31762.235      31250.81       9451.6243      21799.186      3415.166       7326.4624     -5245.6912      380.45791     -2504.9198      62322.665     -43894.954     -492.90645      75170.036      42.203479      42.203479      42.203479      1.114795       1370.9105      935.75798     -907.13954    
    126500   126500         586.07988      192.42816      31300.528      31088.269      9397.0742      21691.195      3169.696       7453.9986     -5236.1973      379.76709     -2546.7687      62377.526     -43906.827     -489.87755      75634.811      42.290281      42.290281      42.290281      1.1079446      816.6162      -503.59016      264.25846    
    127000   127000         577.87522      570.95887      31754.09       31125.543      9265.5225      21860.021      3260.9767      7456.377      -5121.2094      370.49641     -2555.4736      62351.321     -43902.467     -490.85383      75484.378      42.262225      42.262225      42.262225      1.1101526      1801.1698      740.26187     -828.55508    
    127500   127500         579.8014      -602.64349      30698.437      31360.431      9296.4065      22064.024      3363.9699      7461.9503     -5145.4372      392.69407     -2519.008       62412.61      -43902.755     -491.91641      75321.325      42.231773      42.231773      42.231773      1.1125559      452.75625     -165.72953     -2094.9572    
    128000   128000         578.25391     -2355.423       28562.68       31109.608      9271.5944      21838.014      3314.669       7421.5404     -5093.8094      385.38673     -2582.8977      62314.337     -43921.212     -499.73216      74143.308      42.010449      42.010449      42.010449      1.1302326     -3522.7992     -1987.8294     -1555.6405    
    128500   128500         578.40485      1640.7522      32995.642      31207.101      9274.0145      21933.087      3378.277       7422.2465     -5242.763       431.44464     -2443.3727      62300.372     -43913.117     -495.71176      74744.638      42.123716      42.123716      42.123716      1.1211397      1615.669       1447.5835      1859.004     
    129000   129000         581.95166     -431.71889      30652.219      31129.031      9330.8832      21798.148      3374.2955      7391.7888     -5236.6755      375.36008     -2513.9658      62315.025     -43907.681     -489.25915      75730.41       42.308092      42.308092      42.308092      1.106546      -1812.9531      567.5867      -49.790268    
    129500   129500         576.35268     -184.82626      30817.195      31020.11       9241.1104      21779          3248.5241      7616.4535     -5220.6732      372.3381      -2609.8792      62293.141     -43920.905     -492.19194      75279.16       42.223891      42.223891      42.223891      1.113179      -439.16381      9.2506631     -124.56565    
    130000   130000         583.24024      1424.3966      32639.849      31088.786      9351.5441      21737.241      3385.7367      7416.8031     -5340.3314      384.18087     -2488.7233      62303.322     -43923.747     -496.23405      74665.968      42.108933      42.108933      42.108933      1.122321       1347.7788      2297.5005      627.91045    
    130500   130500         586.71646      25.26498       31271.932      31244.131      9407.2811      21836.85       3256.1723      7466.8136     -5244.0541      413.21266     -2416.0835      62273.914     -43913.125     -491.07244      75450.774      42.255953      42.255953      42.255953      1.1106471      857.42841     -60.090426     -721.54305    
    131000   131000         592.55706      1719.8383      33349.61       31470.893      9500.928       21969.965      3425.9615      7552.0791     -5299.4575      370.60869     -2525.5826      62345.711     -43899.355     -494.66517      74902.779      42.153403      42.153403      42.153403      1.1187727      1251.4276      569.49772      3338.5896    
    131500   131500         576.7438       410.56316      31421.169      30975.082      9247.3816      21727.7        3467.2993      7368.0983     -5278.0259      394.84325     -2499.5255      62197.506     -43922.495     -497.33077      74501.314      42.077957      42.077957      42.077957      1.1248014      535.87386     -560.45833      1256.274     
    132000   132000         579.71484     -2105.6432      28761.344      31053.749      9295.0185      21758.731      3523.5888      7438.8975     -5317.6683      387.72692     -2652.7233      62286.708     -43907.798     -496.33919      74650.151      42.105959      42.105959      42.105959      1.1225588     -1777.6501     -4094.1797     -445.09992    
    132500   132500         574.7477      -1206.6432      29679.074      31003.653      9215.3766      21788.276      3358.4503      7463.1848     -5280.2009      368.19059     -2574.4192      62355.915     -43902.845     -492.25069      75270.176      42.222212      42.222212      42.222212      1.1133119     -141.52702     -732.29755     -2746.1049    
    133000   133000         566.91518      852.10542      31971.985      31036.067      9089.7917      21946.275      3364.2114      7505.1824     -5260.2224      386.40299     -2499.9976      62361.124     -43910.426     -491.97241      75312.751      42.230171      42.230171      42.230171      1.1126825      494.5963      -339.28697      2401.0069    
    133500   133500         579.09186     -1573.5851      29403.391      31131.301      9285.0299      21846.271      3334.3328      7485.9143     -5235.6032      398.80392     -2524.7992      62293.875     -43906.253     -492.10111      75293.055      42.226489      42.226489      42.226489      1.1129736     -734.02981     -1646.6905     -2340.0349    
    134000   134000         571.03633      355.8457       31581.32       31190.941      9155.8693      22035.072      3341.4179      7526.8149     -5150.2502      375.21023     -2494.0536      62340.273     -43904.341     -492.56172      75222.645      42.213322      42.213322      42.213322      1.1140153      2266.5411     -1758.3175      559.31345    
    134500   134500         586.14227     -288.93554      30766.589      31080.243      9398.0747      21682.169      3423.6599      7404.8432     -5237.4503      367.73889     -2696.8664      62325.699     -43905.456     -497.77756      74434.443      42.065364      42.065364      42.065364      1.1258119     -912.93273      392.30616     -346.18006    
    135000   135000         582.76301     -845.1188       30069.586      30994.202      9343.8923      21650.309      3360.1605      7353.7441     -5273.8519      386.42675     -2502.9999      62236.227     -43909.397     -493.90328      75018.323      42.175067      42.175067      42.175067      1.1170495     -1221.7258      765.68215     -2079.3127    
    135500   135500         571.82069      217.10369      31367.399      31129.66       9168.4456      21961.215      3390.7887      7514.3906     -5300.8461      423.54026     -2500.8244      62337.787     -43903.621     -493.46057      75085.626      42.187676      42.187676      42.187676      1.1160482     -20.037357     -2.1356163      673.48403    
    136000   136000         587.88854      1535.5802      33045.547      31335.138      9426.0739      21909.064      3308.9505      7417.9513     -5245.7452      418.40381     -2388.6149      62306.889     -43908.77      -485.12938      76375.081      42.427805      42.427805      42.427805      1.0972058      3168.2819      462.70462      975.754      
    136500   136500         590.3515       280.18896      31598.306      31291.121      9465.5644      21825.557      3346.0336      7456.1204     -5303.3383      386.38976     -2418.425       62262.444     -43903.668     -492.87436      75174.93       42.204395      42.204395      42.204395      1.1147224      1712.508      -667.88505     -204.05609    
    137000   137000         580.85747     -488.7898       30576.311      31107.653      9313.3393      21794.314      3383.9262      7385.0359     -5247.0752      403.08117     -2509.8257      62275.701     -43896.529     -497.08802      74537.696      42.084805      42.084805      42.084805      1.1242524     -2133.2364     -811.85542      1478.7225    
    137500   137500         576.75609      161.05361      31160.431      30984.693      9247.5786      21737.114      3400.9123      7320.7505     -5227.0225      386.56231     -2540.6491      62311.639     -43915.079     -495.20981      74820.4        42.137944      42.137944      42.137944      1.1200045      409.87408     -572.23565      645.52238    
    138000   138000         579.95498      1453.4489      32557.982      30987.512      9298.869       21688.643      3325.0645      7370.6018     -5185.379       355.72225     -2557.8867      62303.021     -43922.501     -500.09815      74089.049      42.000198      42.000198      42.000198      1.1310603      1545.0545      2186.688       628.60434    
    138500   138500         591.81085     -103.28375      31261.411      31372.944      9488.9633      21883.98       3427.5037      7448.4845     -5245.396       399.13311     -2578.4921      62344.191     -43911.444     -500.39716      74044.777      41.991831      41.991831      41.991831      1.1317366     -439.67213     -63.227417      193.04829    
    139000   139000         573.83297      372.76264      31391.662      30986.553      9200.71        21785.843      3274.0657      7539.1168     -5219.6171      391.69405     -2564.0901      62286.905     -43922.232     -497.21568      74518.559      42.081203      42.081203      42.081203      1.1245411      491.01317      1515.4518     -888.17703    
    139500   139500         577.42231      511.30059      31550.922      30995.318      9258.2607      21737.058      3344.3877      7412.2892     -5220.867       383.41871     -2629.9344      62360.573     -43912.809     -497.27459      74509.731      42.079542      42.079542      42.079542      1.1246743     -700.62156      1064.5016      1170.0217    
    140000   140000         589.31241      1187.5885      32707.972      31419.541      9448.904       21970.637      3484.5164      7409.0743     -5244.4177      415.22215     -2522.1804      62347.446     -43919.024     -498.06953      74390.81       42.057142      42.057142      42.057142      1.1264722      920.65136      1148.3905      1493.7236    
    140500   140500         581.25908     -520.63954      30631.51       31195.843      9319.7786      21876.065      3388.1924      7448.6614     -5226.2656      410.9072      -2469.9568      62243.061     -43918.535     -498.52419      74322.965      42.044353      42.044353      42.044353      1.1275005      267.01702     -2011.2107      182.27502    
    141000   141000         577.12619     -119.1358       30974.956      31104.064      9253.5128      21850.551      3257.0908      7505.3969     -5160.1128      388.02511     -2567.3781      62345.916     -43918.387     -498.6269       74307.656      42.041466      42.041466      42.041466      1.1277328      606.48853      481.37862     -1445.2746    
    141500   141500         582.42176      2347.0764      33485.894      30910.825      9338.4208      21572.404      3133.6556      7380.1766     -5227.4336      381.56814     -2515.853       62363.58      -43943.289     -492.51952      75229.091      42.214528      42.214528      42.214528      1.1139199      1144.5954      2319.3959      3577.238     
    142000   142000         565.37607     -452.86193      30380.284      30876.687      9065.1139      21811.573      3273.9345      7390.5057     -5242.9493      407.30836     -2460.9443      62353.842     -43910.124     -492.96529      75161.063      42.2018        42.2018        42.2018        1.1149281     -99.647764     -1000.7628     -258.17527    
    142500   142500         586.4003      -570.64539      30533.452      31153.312      9402.2118      21751.101      3286.3751      7541.5778     -5215.3817      377.5177      -2593.2237      62270.044     -43915.808     -497.45936      74482.055      42.074331      42.074331      42.074331      1.1250922     -2081.8143     -1482.1167      1851.9948    
    143000   143000         585.75076      19.280068      31234.399      31213.483      9391.7972      21821.685      3357.4641      7554.1739     -5319.3461      401.92477     -2575.3808      62329.318     -43926.468     -498.07593      74389.854      42.056962      42.056962      42.056962      1.1264867      376.40578     -120.76707     -197.79851    
    143500   143500         593.77961     -402.71932      30971.68       31415.699      9520.53        21895.169      3407.9258      7480.0371     -5233.6855      400.73159     -2547.9766      62311.319     -43923.182     -490.10087      75600.347      42.283857      42.283857      42.283857      1.1084497     -129.5123      -253.91907     -824.7266     
    144000   144000         597.10611     -882.28004      30461.888      31431.582      9573.8664      21857.715      3415.2601      7474.8372     -5287.7006      381.24959     -2527.8958      62310.995     -43909.031     -491.65109      75361.972      42.239369      42.239369      42.239369      1.1119558     -1421.1799     -1559.5589      333.8987     
    144500   144500         585.22064      217.30352      31455.582      31219.705      9383.2974      21836.408      3359.832       7367.0398     -5199.3152      414.17988     -2509.1145      62311.674     -43907.888     -497.81343      74429.08       42.064353      42.064353      42.064353      1.125893       1455.9407      570.38953     -1374.4197    
    145000   145000         585.97678      1537.6688      32847.388      31184.571      9395.4212      21789.149      3327.6307      7524.8883     -5310.9559      376.9996      -2511.0266      62301.042     -43919.429     -499.6931       74149.105      42.011543      42.011543      42.011543      1.1301442      1534.7296      2072.312       1005.9648    
    145500   145500         576.44449     -1152.0198      29799.46       31062.273      9242.5825      21819.691      3339.5918      7497.6342     -5239.0754      388.96977     -2514.8498      62269.9       -43922.48      -492.95345      75162.869      42.202138      42.202138      42.202138      1.1149013     -746.73137     -949.46206     -1759.866     
    146000   146000         572.14384      813.0653       31883.851      30988.37       9173.6269      21814.743      3473.4757      7488.2324     -5421.0508      418.88231     -2507.7023      62266.744     -43903.838     -490.63024      75518.777      42.268644      42.268644      42.268644      1.109647       742.09394     -1079.5411      2776.6431    
    146500   146500         580.96026     -146.47235      30958.725      31117.463      9314.9875      21802.476      3482.2498      7503.2832     -5214.4953      354.56313     -2704.1392      62303.076     -43922.062     -498.60792      74310.484      42.042         42.042         42.042         1.1276899      492.65208     -256.56545     -675.50369    
    147000   147000         568.91995     -977.44512      29950.35       31016.226      9121.9357      21894.29       3403.5587      7605.4662     -5314.3875      400.56431     -2564.1645      62282.549     -43919.296     -495.53109      74771.889      42.128835      42.128835      42.128835      1.1207311     -618.71491     -2439.8044      126.18396    
    147500   147500         579.87592      570.65382      31934.67       31308.406      9297.6014      22010.805      3483.8782      7579.1729     -5315.1111      399.75791     -2518.996       62299.032     -43916.928     -492.38053      75250.326      42.2185        42.2185        42.2185        1.1136055      91.081756      2050.3249     -429.44518    
    148000   148000         582.65014      913.5335       32259.659      31269.245      9342.0826      21927.162      3347.7275      7532.8922     -5200.1552      392.09435     -2621.1111      62386.057     -43910.343     -498.41659      74339.01       42.047379      42.047379      42.047379      1.1272571      843.80296     -130.13943      2026.937     
    148500   148500         584.62672      1062.7429      32250.385      31090.279      9373.7746      21716.504      3161.1153      7458.2856     -5207.0812      388.90295     -2500.789       62348.399     -43932.329     -495.01181      74850.327      42.143561      42.143561      42.143561      1.1195566      989.28829      1821.9079      377.03259    
    149000   149000         579.29313      97.214712      31123.459      31017.927      9288.257       21729.67       3258.4825      7489.3211     -5278.8079      440.26342     -2552.8707      62298.675     -43925.393     -497.77639      74434.618      42.065397      42.065397      42.065397      1.1258092     -374.46932      630.43027      35.683181    
    149500   149500         576.88338     -221.45015      30624.733      30866.852      9249.6196      21617.233      3376.1126      7439.0326     -5344.5325      427.59895     -2602.1959      62254.428     -43933.211     -494.23308      74968.264      42.165684      42.165684      42.165684      1.1177954     -2997.172       557.67987      1775.1417    
    150000   150000         590.3675      -566.16291      30454.187      31066.942      9465.821       21601.121      3263.8893      7490.6236     -5253.1499      387.85553     -2645.3781      62282.458     -43925.177     -499.27467      74211.247      42.023276      42.023276      42.023276      1.1291979     -2244.8657     -1396.2574      1942.6344    
    150500   150500         596.49798      843.47074      32123.095      31206.304      9564.1158      21642.188      3174.1549      7575.1805     -5290.9463      400.18153     -2573.9556      62279.301     -43921.729     -497.14685      74528.876      42.083145      42.083145      42.083145      1.1243854     -53.728043      2144.8178      439.32242    
    151000   151000         587.12996      26.58328       31132.261      31103.375      9413.911       21689.464      3432.9502      7330.4388     -5326.5442      377.81178     -2503.149       62290.618     -43912.661     -497.28895      74507.578      42.079136      42.079136      42.079136      1.1247068      165.96448     -1160.6308      1074.4161    
    151500   151500         578.37766      1061.7935      32317.781      31169.032      9273.5786      21895.453      3454.7904      7568.0993     -5298.0826      388.5987      -2580.6741      62284.593     -43921.871     -499.45943      74183.794      42.018094      42.018094      42.018094      1.1296157      824.62847      2265.8855      94.866552    
    152000   152000         582.52377     -2300.0005      28726.712      31252.604      9340.0564      21912.547      3490.0153      7441.862      -5283.2233      383.58053     -2504.3935      62299.536     -43914.83      -492.03764      75302.767      42.228305      42.228305      42.228305      1.11283       -3508.6084     -918.12285     -2473.2701    
    152500   152500         575.89082      2210.6203      33182.464      30771.261      9233.7051      21537.556      3326.5779      7297.9223     -5269.3928      392.99118     -2633.1354      62341.357     -43918.764     -495.41083      74790.04       42.132244      42.132244      42.132244      1.1204591      2040.4694      2481.182       2110.2095    
    153000   153000         582.67941      512.7094       31386.176      30828.659      9342.5519      21486.107      3263.4217      7330.7288     -5283.4288      392.17704     -2557.7108      62252.884     -43911.964     -496.93389      74560.815      42.089156      42.089156      42.089156      1.1239038     -409.37468      615.28323      1332.2197    
    153500   153500         574.86119     -604.15717      30400.177      31057.045      9217.1963      21839.849      3352.7529      7513.5965     -5237.2415      400.5697      -2617.0737      62336.473     -43909.228     -497.00047      74550.826      42.087276      42.087276      42.087276      1.1240544     -476.11708     -317.52779     -1018.8266    
    154000   154000         581.57946     -796.86894      30338.367      31206.056      9324.9156      21881.141      3287.3335      7548.8281     -5165.1073      382.67088     -2599.6815      62338.094     -43910.997     -496.25834      74662.313      42.108246      42.108246      42.108246      1.1223759     -952.80139     -1645.1831      207.37764    
    154500   154500         575.37679      44.677839      31089.343      31040.765      9225.4633      21815.302      3423.7657      7433.3623     -5205.865       362.64761     -2606.7343      62325.941     -43917.815     -496.98277      74553.482      42.087776      42.087776      42.087776      1.1240143      870.91484     -628.30312     -108.5782     
    155000   155000         579.28366      73.786886      31324.83       31244.675      9288.1051      21956.569      3452.4591      7562.1421     -5158.4633      378.28481     -2599.7315      62243.89      -43922.012     -497.42979      74486.484      42.075165      42.075165      42.075165      1.1250253      1233.3821     -1466.3011      454.27966    
    155500   155500         574.48311     -598.79636      30499.74       31156.005      9211.1343      21944.871      3390.799       7524.0296     -5251.0649      442.08326     -2532.6314      62275.73      -43904.075     -493.04277      75149.254      42.199589      42.199589      42.199589      1.1151033     -1827.1732     -1337.8249      1368.609     
    156000   156000         577.12904     -1938.7151      28735.105      30855.181      9253.5584      21601.622      3254.8559      7397.4172     -5209.1724      360.57505     -2545.1702      62261.974     -43918.858     -494.1375       74982.765      42.168403      42.168403      42.168403      1.1175792     -1431.368      -2276.9194     -2107.8578    
    156500   156500         587.99235      2276.7416      33592.943      31148.575      9427.7384      21720.836      3181.6897      7404.5838     -5228.5645      375.90955     -2471.228       62384.107     -43925.662     -503.30618      73616.81       41.910772      41.910772      41.910772      1.1383158      3190.1245      2051.5349      1588.5653    
    157000   157000         582.85007      334.34024      31478.191      31114.523      9345.2883      21769.235      3306.0011      7417.1889     -5201.2002      417.04115     -2617.1644      62368.574     -43921.206     -496.78591      74583.025      42.093334      42.093334      42.093334      1.1235691     -1974.1166      1638.3483      1338.789     
    157500   157500         583.17595     -223.7168       30990.236      31236.265      9350.5133      21885.752      3323.8591      7559.7771     -5271.8228      388.68185     -2486.836       62297.286     -43925.193     -491.35696      75407.085      42.247795      42.247795      42.247795      1.1112905      1221.5643     -728.15965     -1164.555     
    158000   158000         582.21682     -807.8427       30215.535      31100.457      9335.1347      21765.323      3298.5873      7415.5807     -5187.1111      352.51596     -2455.6865      62279.074     -43937.638     -493.2951       75110.813      42.192393      42.192393      42.192393      1.115674       501.96634     -630.56973     -2294.9247    
    158500   158500         572.70376      475.16427      31528.692      31011.252      9182.6046      21828.647      3310.7451      7449.4207     -5187.7308      391.26278     -2492.2495      62272.437     -43915.239     -496.21339      74669.076      42.109517      42.109517      42.109517      1.1222742     -113.9368       2117.9915     -578.56193    
    159000   159000         573.85831      657.73188      31783.481      31063.924      9201.1162      21862.807      3229.1173      7409.6449     -5168.5456      404.21735     -2412.1599      62321.209     -43920.675     -493.9336       75013.719      42.174204      42.174204      42.174204      1.1171181      2215.314       67.509341     -309.62766    
    159500   159500         588.21213      1457.4193      32869.808      31271.419      9431.2624      21840.157      3311.6648      7519.719      -5201.8194      367.698       -2560.6504      62330.346     -43926.801     -492.70531      75200.723      42.209221      42.209221      42.209221      1.1143401      1585.5374      1964.0317      822.68879    
    160000   160000         569.38818      1914.9269      32941.394      30868.222      9129.4432      21738.779      3320.2728      7359.4479     -5144.1145      424.24512     -2615.8893      62335.098     -43940.282     -499.11671      74234.732      42.027709      42.027709      42.027709      1.1288406      2428.943       1853.3687      1462.469     
    160500   160500         575.60959      704.32524      31727.576      30963.73       9229.1959      21734.534      3214.9513      7441.1731     -5178.925       419.31046     -2531.4465      62286.485     -43917.014     -498.25561      74363.028      42.051906      42.051906      42.051906      1.1268931     -1013.137       1028.1643      2097.9484    
    161000   161000         579.93856      297.11694      31449.23       31126.201      9298.6058      21827.595      3315.9903      7507.6824     -5223.8968      424.39186     -2579.381       62307.174     -43924.365     -497.01657      74548.412      42.086822      42.086822      42.086822      1.1240908     -1372.4565      1186.0289      1077.7784    
    161500   161500         571.85354     -182.73766      30868.591      31070.917      9168.9723      21901.945      3286.4583      7377.0715     -5172.5162      385.24907     -2367.3454      62295.809     -43902.782     -488.04718      75918.471      42.343084      42.343084      42.343084      1.1038049     -36.731628     -371.29164     -140.18972    
    162000   162000         586.23163     -213.20903      30920.597      31156.63       9399.5074      21757.122      3383.2709      7192.1094     -5137.6608      393.04964     -2495.1613      62328.198     -43906.683     -488.11197      75908.394      42.34121       42.34121       42.34121       1.1039514      29.045986     -478.06591     -190.60716    
    162500   162500         588.50511     -472.60622      30580.653      31089.71       9435.9599      21653.75       3251           7348.9065     -5149.0955      411.80321     -2645.8079      62351.312     -43914.368     -501.66977      73856.943      41.956293      41.956293      41.956293      1.1346148     -1509.3625     -315.17408      406.71789    
    163000   163000         586.79759     -177.20824      31029.812      31223.651      9408.5819      21815.069      3272.9496      7401.7467     -5154.8994      423.82493     -2510.3159      62301.482     -43919.719     -494.00225      75003.294      42.172251      42.172251      42.172251      1.1172733     -151.7127       689.91179     -1069.8238    
    163500   163500         588.19184     -463.06501      30852.525      31358.477      9430.9369      21927.54       3393.8366      7531.0388     -5179.6818      377.61754     -2596.6658      62309.357     -43907.962     -494.55848      74918.938      42.156434      42.156434      42.156434      1.1185314     -599.1976       1218.9738     -2008.9712    
    164000   164000         580.42597     -1267.9356      29627.94       31009.393      9306.4206      21702.973      3297.516       7288.9966     -5155.7786      401.51326     -2538.4009      62329.36      -43920.234     -495.95952      74707.299      42.116701      42.116701      42.116701      1.1217        -1877.5569     -659.08962     -1267.1602    
    164500   164500         574.90503      69.669981      31056.547      30980.361      9217.8993      21762.461      3377.4435      7466.0272     -5294.5003      380.95221     -2605.1443      62338.678     -43900.995     -494.1427       74981.976      42.168255      42.168255      42.168255      1.117591      -956.4691      -214.65004      1380.1291    
    165000   165000         562.18086      978.1299       31863.153      30796.867      9013.8827      21782.984      3189.7903      7401.6677     -5124.9369      413.12613     -2554.0039      62354.31      -43896.969     -495.68721      74748.34       42.124412      42.124412      42.124412      1.1210842      1006.9532      1460.9371      466.4994     
    165500   165500         573.96077     -136.53799      30751.514      30900.664      9202.7592      21697.904      3367.6643      7486.7509     -5239.088       374.69738     -2599.5438      62249.128     -43941.704     -494.66985      74902.07       42.15327       42.15327       42.15327       1.1187832      1120.5835     -1033.415      -496.78245    
    166000   166000         571.8465      -1177.9072      29583.043      30866.425      9168.8594      21697.565      3365.8343      7372.6745     -5175.5419      389.78882     -2632.7019      62302.514     -43925.002     -495.95294      74708.29       42.116887      42.116887      42.116887      1.1216852     -1198.4686     -1027.4676     -1307.7852    
    166500   166500         574.55655      621.00037      31352.111      30685.085      9212.3117      21472.773      3226.3488      7320.8862     -5169.8253      430.30793     -2706.944       62296.855     -43924.856     -503.07669      73650.392      41.917144      41.917144      41.917144      1.1377968     -265.22522      1026.1856      1102.0407    
    167000   167000         581.23362     -171.53139      30962.897      31150.761      9319.3703      21831.391      3409.2762      7412.224      -5297.8464      429.77717     -2507.9602      62293.662     -43907.742     -493.38336      75097.376      42.189876      42.189876      42.189876      1.1158736      490.1804      -1502.8245      498.04997    
    167500   167500         580.96802     -171.2525       30978.644      31165.375      9315.1119      21850.263      3298.3004      7497.8638     -5205.4589      421.54499     -2545.3533      62302.9       -43919.534     -495.57154      74765.786      42.127689      42.127689      42.127689      1.1208226      550.26592     -1220.6349      156.61148    
    168000   168000         582.80438      580.77694      31687.772      31057.761      9344.5556      21713.205      3253.7351      7501.0546     -5224.9489      388.94983     -2536.1894      62249.207     -43918.602     -498.13395      74381.189      42.055329      42.055329      42.055329      1.1266179     -136.62278      797.17894      1081.7747    
    168500   168500         576.81434     -1736.0657      28995.823      30891.67       9248.5126      21643.157      3286.4944      7313.1092     -5147.3429      377.55584     -2551.2867      62290.429     -43925.801     -494.8209       74879.206      42.148981      42.148981      42.148981      1.1191249     -506.54723     -2847.7931     -1853.8569    
    169000   169000         581.43892      1079.515       32017.89       30838.316      9322.6621      21515.654      3260.5314      7298.2796     -5295.2661      378.89543     -2479.7418      62283.218     -43930.262     -494.52579      74923.89       42.157363      42.157363      42.157363      1.1184574      1406.5713      738.51284      1093.4608    
    169500   169500         578.23593     -1225.119       29634.544      30977.984      9271.3061      21706.678      3239.0289      7493.3919     -5189.5234      358.49215     -2618.8424      62333.769     -43909.638     -492.77114      75190.678      42.207342      42.207342      42.207342      1.114489      -3488.0757     -881.59751      694.3162     
    170000   170000         587.41878     -92.121879      31090.995      31191.745      9418.5418      21773.203      3309.9219      7479.9589     -5196.5421      386.61927     -2602.9889      62309.583     -43913.349     -494.08859      74990.187      42.169794      42.169794      42.169794      1.1174686     -862.75567     -760.10847      1346.4985    
    170500   170500         580.66547     -1039.007       30164.263      31290.218      9310.2608      21979.957      3382.9272      7580.9656     -5223.0548      425.14256     -2534.1708      62256.572     -43908.425     -498.63494      74306.457      42.04124       42.04124       42.04124       1.127751      -1333.3424     -541.54256     -1242.1361    
    171000   171000         581.86428      888.08968      32025.539      31055.658      9329.4823      21726.175      3234.6108      7526.0054     -5213.5773      399.68481     -2617.501       62312.973     -43916.02      -494.79293      74883.439      42.149775      42.149775      42.149775      1.1190616      1026.6655     -189.12347      1826.727     
    171500   171500         578.80783     -1045.0211      29900.673      31050.592      9280.4759      21770.116      3349.7119      7413.4513     -5274.4913      404.48497     -2541.3453      62316.074     -43897.77      -491.06949      75451.228      42.256038      42.256038      42.256038      1.1106404     -1478.0263     -1604.6048     -52.432315    
    172000   172000         571.82548      1113.9734      32206.473      30993.172      9168.5225      21824.649      3327.1627      7455.3725     -5263.1646      375.17157     -2488.2995      62329.348     -43910.942     -496.12514      74682.359      42.112014      42.112014      42.112014      1.1220746      654.70061      1190.6805      1496.5389    
    172500   172500         588.17686     -332.76191      30871.573      31233.11       9430.6968      21802.413      3443.2938      7401.7335     -5215.4373      366.9246      -2625.9462      62334.933     -43903.088     -497.35485      74497.707      42.077278      42.077278      42.077278      1.1248558     -415.90764      4.7476933     -587.12578    
    173000   173000         599.34451      259.70551      31636.296      31354.793      9609.7564      21745.036      3273.3146      7499.4994     -5237.4306      389.51307     -2587.5526      62308.88      -43901.188     -498.52011      74323.573      42.044468      42.044468      42.044468      1.1274913      811.14291      76.898582     -108.92498    
    173500   173500         587.35472      1168.4068      32288.028      31032.995      9417.5147      21615.48       3194.3773      7501.0475     -5278.3572      363.46864     -2608.5636      62369.773     -43926.265     -503.06486      73652.125      41.917473      41.917473      41.917473      1.13777        760.69554      1218.4357      1526.0892    
    174000   174000         573.01383     -317.00829      30803.321      31147.179      9187.5761      21959.603      3290.3879      7461.736      -5112.9391      421.22987     -2569.7098      62368.531     -43899.633     -498.16908      74375.944      42.054341      42.054341      42.054341      1.1266974     -767.88858      521.67098     -704.80728    
    174500   174500         574.03335      238.64464      31359.551      31101.092      9203.9229      21897.169      3454.2461      7509.3887     -5320.763       426.92544     -2512.2752      62269.992     -43930.345     -498.93644      74261.554      42.03277       42.03277       42.03277       1.1284329      1263.1105     -148.45938     -398.71715    
    175000   175000         572.12447      166.12292      31112.913      30932.124      9173.3162      21758.807      3291.3429      7562.8876     -5225.473       407.06889     -2655.3769      62287.395     -43909.037     -496.52529      74622.172      42.100698      42.100698      42.100698      1.1229797      132.34813      2095.0117     -1728.9911    
    175500   175500         580.75098      661.32497      31871.791      31153.368      9311.6318      21841.736      3322.3996      7552.9985     -5141.4996      391.14812     -2729.0934      62350.273     -43904.49      -497.41602      74488.546      42.075553      42.075553      42.075553      1.1249942     -25.241037      2112.8012     -103.58526    
    176000   176000         584.83445     -1048.5879      30163.048      31288.616      9377.1052      21911.51       3459.1162      7598.582      -5230.3994      381.68519     -2601.7068      62219.888     -43915.655     -503.40598      73602.217      41.908003      41.908003      41.908003      1.1385415     -2674.5394     -159.32011     -311.90408    
    176500   176500         593.19758     -689.97403      30595.811      31359.338      9511.1978      21848.14       3298.2994      7481.5019     -5210.7458      389.2973      -2531.8773      62329.314     -43907.65      -488.3076       75877.983      42.335555      42.335555      42.335555      1.1043939     -2065.8179      487.60979     -491.71392    
    177000   177000         575.59261      961.10237      32058.633      31007.972      9228.9237      21779.048      3347.4703      7422.9901     -5251.0082      431.3176      -2545.7045      62287.015     -43913.032     -494.30175      74957.849      42.163731      42.163731      42.163731      1.1179507     -277.43568      2365.7733      794.96949    
    177500   177500         575.71269      80.18321       30810.102      30724.017      9230.849       21493.168      3250.6781      7391.5185     -5195.7015      353.6455      -2668.0088      62280.384     -43919.348     -503.31757      73615.145      41.910456      41.910456      41.910456      1.1383416      522.91086      171.49101     -453.85225    
    178000   178000         573.85178     -2157.7422      28583.389      30934.625      9201.0117      21733.614      3323.2815      7418.1245     -5223.7221      407.04195     -2574.9519      62292.046     -43908.207     -495.89343      74717.255      42.118572      42.118572      42.118572      1.1215506     -877.06126     -3031.8372     -2564.3282    
    178500   178500         583.96638      1033.0864      32165.949      31054.158      9363.1868      21690.971      3372.6254      7411.8144     -5279.1823      415.44296     -2664.784       62346.09      -43911.035     -502.10956      73792.254      41.94404       41.94404       41.94404       1.1356095      874.11427      1627.0691      598.07595    
    179000   179000         576.67291      486.87591      31673.82       31149.99       9246.245       21903.745      3291.2548      7597.8099     -5212.0444      393.93962     -2537.7609      62285.384     -43914.838     -502.24233      73772.746      41.940343      41.940343      41.940343      1.1359097      141.49988      991.47407      327.65379    
    179500   179500         575.34718     -1642.3415      29113.425      30888.091      9224.9886      21663.102      3382.9578      7455.7238     -5322.8488      395.64434     -2729.1715      62385.752     -43904.955     -500.07153      74092.991      42.000943      42.000943      42.000943      1.1310001     -2285.7873     -1862.2922     -778.94506    
    180000   180000         575.48212      503.51655      31417.386      30877.376      9227.1521      21650.224      3339.2518      7457.0053     -5275.7326      423.40741     -2703.7665      62322.472     -43912.414     -503.84589      73537.954      41.895803      41.895803      41.895803      1.1395365     -1865.7087      1363.1747      2013.0837    
    180500   180500         583.62127     -141.31012      30897.318      31050.506      9357.6535      21692.853      3260.4388      7439.5679     -5214.021       403.88725     -2603.223       62330.47      -43924.268     -498.46283      74332.113      42.046078      42.046078      42.046078      1.1273617      1587.5719     -2125.4519      113.94966    
    181000   181000         581.62017     -652.83281      30443.479      31148.181      9325.5682      21822.613      3470.1437      7455.3672     -5254.3674      389.69039     -2634.9959      62314.472     -43917.697     -500.58899      74016.402      41.986466      41.986466      41.986466      1.1321704     -56.264741     -1900.6896     -1.5440469    
    181500   181500         586.2277       1464.0718      32641.499      31069.374      9399.4444      21669.93       3470.2824      7290.4217     -5197.3136      343.01046     -2630.87        62315.204     -43920.805     -503.22314      73628.959      41.913078      41.913078      41.913078      1.138128       1461.8372      2901.5263      28.851932    
    182000   182000         586.14265     -304.13352      30722.787      31051.163      9398.0807      21653.082      3347.8261      7366.3914     -5199.4976      438.19952     -2660.1531      62273.627     -43913.311     -500.47013      74033.98       41.98979       41.98979       41.98979       1.1319016     -319.56856     -54.294776     -538.53723    
    182500   182500         580.59132     -190.55741      30715.127      30920.394      9309.0719      21611.322      3302.4903      7273.215      -5130.0113      422.17536     -2616.2871      62276.967     -43917.227     -501.63905      73861.467      41.95715       41.95715       41.95715       1.1345453     -478.59014     -401.07896      307.99687    
    183000   183000         584.47122      217.41059      31471.963      31237.646      9371.2814      21866.365      3178.1278      7629.9579     -5150.9871      385.56299     -2575.49        62319.904     -43920.711     -501.37428      73900.471      41.964534      41.964534      41.964534      1.1339465     -39.472641     -144.20539      835.9098     
    183500   183500         592.84398      459.791        31821.235      31323.934      9505.5284      21818.406      3325.5633      7393.0268     -5097.9654      367.73016     -2568.7257      62317.633     -43918.857     -499.60452      74162.25       42.014026      42.014026      42.014026      1.1299439      990.50265     -259.92649      648.79684    
    184000   184000         588.35053     -810.056        30240.619      31114.718      9433.4813      21681.237      3373.8934      7393.8428     -5178.9042      402.83759     -2670.7755      62285.256     -43924.913     -500.77121      73989.469      41.981373      41.981373      41.981373      1.1325825     -1068.5348     -665.79402     -695.83916    
    184500   184500         581.86967      517.66469      31613.972      31057.186      9329.5688      21727.618      3195.0559      7495.9777     -5092.0505      378.96644     -2669.4411      62330.529     -43911.419     -502.39566      73750.231      41.936076      41.936076      41.936076      1.1362565     -1086.472      -210.21574      2849.6819    
    185000   185000         583.05234     -1082.0311      29791.278      30958.87       9348.5313      21610.339      3375.4905      7342.6228     -5241.7822      380.9845      -2686.9763      62346.581     -43906.581     -500.76453      73990.456      41.98156       41.98156       41.98156       1.1325674     -1410.7771     -1741.5135     -93.802589    
    185500   185500         575.66518     -898.16757      30114.636      31089.703      9230.0872      21859.615      3396.3013      7448.5158     -5224.7691      401.62483     -2643.2264      62399.103     -43917.934     -497.74635      74439.112      42.066243      42.066243      42.066243      1.1257413      129.83977     -1219.3473     -1604.9952    
    186000   186000         582.77291      184.65466      31499.066      31299.138      9344.051       21955.087      3382.9241      7482.057      -5147.9879      374.9673      -2551.8092      62337.961     -43923.025     -499.08364      74239.652      42.028637      42.028637      42.028637      1.1287658      1325.8685      143.15476     -915.05932    
    186500   186500         593.93662     -1233.6052      29925.236      31270.596      9523.0474      21747.549      3311.9772      7505.2157     -5209.8841      381.92354     -2712.7559      62367.388     -43896.316     -495.47615      74780.18       42.130392      42.130392      42.130392      1.1206068     -886.75921     -2265.9028     -548.15371    
    187000   187000         587.99056      1172.3644      32334.688      31066.021      9427.7096      21638.311      3204.2672      7390.6047     -5154.742       364.19334     -2675.0363      62411.849     -43902.825     -499.34421      74200.912      42.021326      42.021326      42.021326      1.1293551      1357.0995      1453.6401      706.3536     
    187500   187500         584.32579      611.46971      31673.248      31011.883      9368.9496      21642.933      3252.8673      7411.1235     -5198.5451      402.09388     -2630.6848      62329.523     -43923.444     -499.59595      74163.523      42.014266      42.014266      42.014266      1.1299245      622.76738      409.47971      802.16203    
    188000   188000         576.37609     -1179.9384      29610.229      30900.737      9241.4859      21659.251      3494.7222      7403.3016     -5330.1377      394.45399     -2645.7773      62250.348     -43907.66      -494.06487      74993.788      42.170469      42.170469      42.170469      1.117415      -2068.9144     -968.25781     -502.64289    
    188500   188500         570.58097      90.146806      31213.758      31114.886      9148.5682      21966.318      3362.281       7615.843      -5231.9125      360.39203     -2502.0392      62291.119     -43929.365     -492.67764      75204.946      42.210011      42.210011      42.210011      1.1142775     -732.50527     -250.36794      1253.3136    
    189000   189000         589.13872      633.45292      31769.942      31085.678      9446.119       21639.559      3284.5638      7335.0367     -5149.4202      365.51101     -2605.0614      62330.432     -43921.503     -500.23721      74068.452      41.996306      41.996306      41.996306      1.1313748      634.8367       231.9085       1033.6136    
    189500   189500         579.77701      436.51676      31558.729      31087.467      9296.0155      21791.451      3305.7272      7433.4064     -5230.0565      382.02643     -2554.6564      62368         -43912.996     -500.52227      74026.268      41.988332      41.988332      41.988332      1.1320195      446.72502      585.85973      276.96554    
    190000   190000         580.08905     -1495.1905      29399.688      31021.779      9301.0186      21720.761      3392.3322      7326.4862     -5227.1961      395.44224     -2630.2091      62371.141     -43907.235     -498.08831      74388.006      42.056614      42.056614      42.056614      1.1265147     -270.01344     -1953.5958     -2261.9623    
    190500   190500         570.08092     -272.54261      30543.126      30838.748      9140.5506      21698.197      3248.9459      7478.5438     -5205.3614      399.56289     -2601.2164      62291.832     -43914.11      -498.176        74374.911      42.054146      42.054146      42.054146      1.126713      -1290.0658      726.4389      -254.00091    
    191000   191000         578.99563     -951.96371      29975.303      31004.674      9283.4869      21721.187      3353.7058      7396.6126     -5251.519       402.85443     -2587.8752      62316.528     -43909.119     -499.72763      74143.981      42.010576      42.010576      42.010576      1.1302223     -1392.4125     -2255.4471      791.9684     
    191500   191500         582.50803     -1633.6118      29415.368      31178.346      9339.804       21838.542      3492.0758      7478.463      -5277.6325      384.77736     -2619.1069      62286.725     -43906.76      -500.71101      73998.364      41.983055      41.983055      41.983055      1.1324464     -846.94984     -1806.5655     -2247.32      
    192000   192000         583.61917     -573.88223      30489.883      31108.307      9357.6198      21750.687      3440.2697      7329.0943     -5214.1358      404.66701     -2635.0237      62339.274     -43913.459     -501.44365      73890.248      41.962599      41.962599      41.962599      1.1341034     -1512.1305     -1855.7413      1646.225     
    192500   192500         576.49963     -435.44213      30554.889      31027.32       9243.4667      21783.853      3305.1905      7594.736      -5362.7059      380.87875     -2606.7527      62382.307     -43909.8       -498.05443      74393.066      42.057568      42.057568      42.057568      1.1264381     -41.063297     -1171.0209     -94.242173    
    193000   193000         581.0935       777.74308      31770.073      30931.236      9317.1237      21614.113      3276.5239      7442.6899     -5242.3718      384.24743     -2665.2338      62342.619     -43924.362     -501.00726      73954.609      41.974779      41.974779      41.974779      1.1331164      1148.5806      485.15618      699.49246    
    193500   193500         577.02931      376.11356      31167.557      30759.286      9251.9594      21507.326      3192.2033      7362.4962     -5210.2176      384.24177     -2587.5395      62289.353     -43923.211     -497.80005      74431.081      42.06473       42.06473       42.06473       1.1258627      572.47399      914.68515     -358.81846    
    194000   194000         582.79964      606.58845      31854.481      31200.29       9344.4797      21855.811      3356.0988      7387.0265     -5182.0431      408.78033     -2517.1287      62325.605     -43922.528     -501.04306      73949.324      41.973779      41.973779      41.973779      1.1331974      895.56393     -46.987879      971.1893     
    194500   194500         591.85822      1645.5685      32891.394      31142.434      9489.7228      21652.711      3254.3987      7477.5383     -5275.3711      388.59921     -2603.2456      62332.931     -43922.139     -508.41837      72876.587      41.769827      41.769827      41.769827      1.149878       3072.4837      744.48427      1119.7377    
    195000   195000         590.14087     -790.14704      30392.678      31252.474      9462.1873      21790.287      3218.5628      7565.6938     -5172.8103      362.3724      -2657.2423      62367.88      -43894.17      -496.58968      74612.497      42.098878      42.098878      42.098878      1.1231253     -1125.973       113.18778     -1357.6559    
    195500   195500         584.20633      148.27429      31243.783      31083.703      9367.0342      21716.669      3351.836       7353.0517     -5196.4358      417.98109     -2606.1162      62305.239     -43908.887     -500.51211      74027.771      41.988616      41.988616      41.988616      1.1319965      1208.9602     -1723.0236      958.88628    
    196000   196000         582.73073     -541.17812      30429.853      31017.985      9343.3748      21674.61       3161.0153      7432.064      -5137.7062      408.52421     -2555.2903      62281.459     -43915.456     -497.22224      74517.576      42.081018      42.081018      42.081018      1.1245559     -463.8806      -1332.8569      173.20318    
    196500   196500         584.54548     -489.78033      30489.093      31021.505      9372.472       21649.033      3150.0266      7304.7824     -5133.6571      442.52151     -2582.8325      62388.923     -43920.732     -497.09507      74536.639      42.084606      42.084606      42.084606      1.1242683     -426.25161     -490.68968     -552.39968    
    197000   197000         586.8569       1589.6945      32840.15       31122.429      9409.5328      21712.896      3213.2333      7373.8309     -5199.6554      396.57065     -2562.1991      62385.472     -43894.357     -500.08761      74090.61       42.000493      42.000493      42.000493      1.1310365      563.24139      990.20682      3215.6353    
    197500   197500         583.62592      747.52993      31971.836      31160.357      9357.728       21802.629      3287.2006      7468.7175     -5231.2027      422.72165     -2540.9057      62317.779     -43921.682     -497.77863      74434.284      42.065334      42.065334      42.065334      1.1258143     -236.70085      486.93378      1992.3569    
    198000   198000         586.08532     -587.27106      30608.09       31252.549      9397.1615      21855.387      3295.8411      7388.4468     -5102.1199      387.51847     -2554.4048      62345.756     -43905.65      -492.41219      75245.488      42.217595      42.217595      42.217595      1.1136772     -1107.6435     -300.50884     -353.66086    
    198500   198500         581.38938     -930.9285       30259.392      31267.252      9321.8679      21945.384      3306.9855      7556.1628     -5151.8835      371.97414     -2582.1724      62349.953     -43905.635     -499.11557      74234.903      42.027741      42.027741      42.027741      1.128838      -2538.0733      127.52407     -382.23628    
    199000   199000         580.1189       198.4544       31380.836      31165.137      9301.4973      21863.64       3346.7651      7385.473      -5171.5233      398.27257     -2562.842       62377.772     -43910.277     -497.16207      74526.593      42.082716      42.082716      42.082716      1.1244198     -1962.456       702.90006      1854.9191    
    199500   199500         578.3113      -414.75051      30641.415      31095.989      9272.5145      21823.475      3276.3887      7397.6784     -5155.0486      415.64747     -2521.0672      62319.84      -43909.964     -493.02286      75152.288      42.200157      42.200157      42.200157      1.1150583     -677.40158      1005.9912     -1572.8411    
    200000   200000         578.80013      757.74004      31966.153      31140.822      9280.3523      21860.47       3370.1429      7419.7611     -5192.4484      415.48687     -2621.9987      62364.03      -43894.504     -496.10918      74684.762      42.112465      42.112465      42.112465      1.1220385      910.99482      1362.6004     -0.3750587    
Loop time of 903.679 on 1 procs for 200000 steps with 6320 atoms

Performance: 19.122 ns/day, 1.255 hours/ns, 221.318 timesteps/s, 1.399 Matom-step/s
100.0% CPU use with 1 MPI tasks x 1 OpenMP threads

MPI task timing breakdown:
Section |  min time  |  avg time  |  max time  |%varavg| %total
---------------------------------------------------------------
Pair    | 293.94     | 293.94     | 293.94     |   0.0 | 32.53
Bond    | 117.32     | 117.32     | 117.32     |   0.0 | 12.98
Kspace  | 236.12     | 236.12     | 236.12     |   0.0 | 26.13
Neigh   | 94.513     | 94.513     | 94.513     |   0.0 | 10.46
Comm    | 8.5179     | 8.5179     | 8.5179     |   0.0 |  0.94
Output  | 0.044592   | 0.044592   | 0.044592   |   0.0 |  0.00
Modify  | 104.33     | 104.33     | 104.33     |   0.0 | 11.54
Other   |            | 48.89      |            |       |  5.41

Nlocal:           6320 ave        6320 max        6320 min
Histogram: 1 0 0 0 0 0 0 0 0 0
Nghost:          17015 ave       17015 max       17015 min
Histogram: 1 0 0 0 0 0 0 0 0 0
Neighs:              0 ave           0 max           0 min
Histogram: 1 0 0 0 0 0 0 0 0 0
FullNghs:  3.40381e+06 ave 3.40381e+06 max 3.40381e+06 min
Histogram: 1 0 0 0 0 0 0 0 0 0

Total # of neighbors = 3403810
Ave neighs/atom = 538.57753
Ave special neighs/atom = 5.5411392
Neighbor list builds = 10976
Dangerous builds = 0
WARNING: No fixes with time integration, atoms won't move
For more information see https://docs.lammps.org/err0028 (src/verlet.cpp:60)
PPPM Kokkos initialization ...
  using 12-bit tables for long-range coulomb
  G vector (1/distance) = 0.33757221
  grid = 48 48 48
  stencil order = 5
  estimated absolute RMS force accuracy = 0.00033629159
  estimated relative force accuracy = 1.0127321e-06
  using double precision cuFFT
  3d grid and FFT values/proc = 166375 110592
Generated 21 of 21 mixed pair_coeff terms from sixthpower/sixthpower mixing rule
Setting up Verlet run ...
  Unit style    : real
  Current step  : 200000
  Time step     : 1
Per MPI rank memory allocation (min/avg/max) = 44.75 | 44.75 | 44.75 Mbytes
   Step          Time           Temp          Press         Enthalpy        TotEng         KinEng         PotEng         E_bond        E_angle        E_dihed        E_impro         E_vdwl         E_coul         E_long         E_tail         Volume           Lx             Ly             Lz          Density          Pxx            Pyy            Pzz      
    200000   200000         492.69914      2347.1079      33697.293      31140.822      9280.3523      21860.47       3370.1429      7419.7611     -5192.4484      415.48687     -2621.9987      62399.349     -43929.823     -496.10918      74684.762      42.112465      42.112465      42.112465      1.1220385      2510.4133      2974.5257      1556.3848    
Loop time of 4.7638e-05 on 1 procs for 0 steps with 6320 atoms

100.8% CPU use with 1 MPI tasks x 1 OpenMP threads

MPI task timing breakdown:
Section |  min time  |  avg time  |  max time  |%varavg| %total
---------------------------------------------------------------
Pair    | 0          | 0          | 0          |   0.0 |  0.00
Bond    | 0          | 0          | 0          |   0.0 |  0.00
Kspace  | 0          | 0          | 0          |   0.0 |  0.00
Neigh   | 0          | 0          | 0          |   0.0 |  0.00
Comm    | 0          | 0          | 0          |   0.0 |  0.00
Output  | 0          | 0          | 0          |   0.0 |  0.00
Modify  | 0          | 0          | 0          |   0.0 |  0.00
Other   |            | 4.764e-05  |            |       |100.00

Nlocal:           6320 ave        6320 max        6320 min
Histogram: 1 0 0 0 0 0 0 0 0 0
Nghost:          16998 ave       16998 max       16998 min
Histogram: 1 0 0 0 0 0 0 0 0 0
Neighs:              0 ave           0 max           0 min
Histogram: 1 0 0 0 0 0 0 0 0 0
FullNghs:  3.40382e+06 ave 3.40382e+06 max 3.40382e+06 min
Histogram: 1 0 0 0 0 0 0 0 0 0

Total # of neighbors = 3403818
Ave neighs/atom = 538.5788
Ave special neighs/atom = 5.5411392
Neighbor list builds = 0
Dangerous builds = 0
System init for write_data ...
PPPM Kokkos initialization ...
  using 12-bit tables for long-range coulomb
  G vector (1/distance) = 0.33757221
  grid = 48 48 48
  stencil order = 5
  estimated absolute RMS force accuracy = 0.00033629159
  estimated relative force accuracy = 1.0127321e-06
  using double precision cuFFT
  3d grid and FFT values/proc = 166375 110592
Generated 21 of 21 mixed pair_coeff terms from sixthpower/sixthpower mixing rule
STAGE COMPLETE: Tg step T=580.0K P=1.0atm steps=200000
