Authorization required, but no authorization protocol specified

Authorization required, but no authorization protocol specified

Authorization required, but no authorization protocol specified

Authorization required, but no authorization protocol specified

LAMMPS (22 Jul 2025 - Update 3)
KOKKOS mode with Kokkos version 4.6.2 is enabled
  will use up to 1 GPU(s) per node
  using 1 OpenMP thread(s) per MPI task
Reading data file ...
  orthogonal box = (5.2695642 5.2695642 5.2695642) to (45.776988 45.776988 45.776988)
  1 by 1 by 1 MPI processor grid
  reading atoms ...
  6320 atoms
  reading velocities ...
  6320 velocities
  scanning bonds ...
  4 = max bonds/atom
  scanning angles ...
  12 = max angles/atom
  scanning dihedrals ...
  21 = max dihedrals/atom
  scanning impropers ...
  8 = max impropers/atom
  orthogonal box = (5.2695642 5.2695642 5.2695642) to (45.776988 45.776988 45.776988)
  1 by 1 by 1 MPI processor grid
  reading bonds ...
  6310 bonds
  reading angles ...
  11200 angles
  reading dihedrals ...
  13970 dihedrals
  reading impropers ...
  6300 impropers
Finding 1-2 1-3 1-4 neighbors ...
  special bond factors lj:    0        0        1       
  special bond factors coul:  0        0        1       
     4 = max # of 1-2 neighbors
     6 = max # of 1-3 neighbors
    10 = max # of special neighbors
  special bonds CPU = 0.003 seconds
  read_data CPU = 0.255 seconds
Finding SHAKE clusters ...
     700 = # of size 2 clusters
      10 = # of size 3 clusters
     700 = # of size 4 clusters
       0 = # of frozen angles
  find clusters CPU = 0.002 seconds
PPPM Kokkos initialization ...
  using 12-bit tables for long-range coulomb
  G vector (1/distance) = 0.33555206
  grid = 45 45 45
  stencil order = 5
  estimated absolute RMS force accuracy = 0.00040086166
  estimated relative force accuracy = 1.207183e-06
  using double precision cuFFT
  3d grid and FFT values/proc = 140608 91125
Generated 21 of 21 mixed pair_coeff terms from sixthpower/sixthpower mixing rule
Neighbor list info ...
  update: every = 1 steps, delay = 0 steps, check = yes
  max neighbors/atom: 4000, page size: 100000
  master list distance cutoff = 11.5
  ghost atom cutoff = 11.5
  binsize = 11.5, bins = 4 4 4
  1 neighbor lists, perpetual/occasional/extra = 1 0 0
  (1) pair lj/class2/coul/long/kk, perpetual
      attributes: full, newton off, kokkos_device
      pair build: full/bin/kk/device
      stencil: full/bin/3d
      bin: kk/device
Setting up Verlet run ...
  Unit style    : real
  Current step  : 0
  Time step     : 1
Per MPI rank memory allocation (min/avg/max) = 44.02 | 44.02 | 44.02 Mbytes
   Step          Time           Temp          Press         Enthalpy        TotEng         KinEng         PotEng         E_bond        E_angle        E_dihed        E_impro         E_vdwl         E_coul         E_long         E_tail         Volume           Lx             Ly             Lz          Density          Pxx            Pyy            Pzz      
         0   0              176.24782     -616.53595      16730.879      17328.517      2825.9183      14502.598      1595.5044      4317.5569     -5873.362       128.02391     -3863.4253      61974.888     -43776.588     -557.44934      66466.66       40.507423      40.507423      40.507423      1.2607701     -891.16886     -707.03437     -251.40464    
       500   500            156.69907     -556.2906       16079.063      16614.857      2512.4779      14102.379      1487.0772      4061.8091     -5853.5338      113.78017     -3894.2837      61960.609     -43773.079     -561.03345      66042.044      40.42098       40.42098       40.42098       1.2688763      26.8337       -1609.5707     -86.134777    
      1000   1000           160.7765       983.97674      17683.971      16732.54       2577.8546      14154.685      1531.8267      4092.358      -5922.6818      126.9238      -3843.2908      61945.52      -43775.97      -558.84688      66300.443      40.473629      40.473629      40.473629      1.2639309      405.51831      1163.7951      1382.6168    
      1500   1500           159.51649      49.578107      16767.51       16719.418      2557.6518      14161.766      1501.1827      4198.5446     -5927.3532      115.37575     -3889.4704      61940.072     -43776.585     -557.06124      66512.966      40.516828      40.516828      40.516828      1.2598924     -1327.4368      113.8224       1362.3487    
      2000   2000           160.92913      99.06872       16776.641      16680.886      2580.3018      14100.584      1517.1551      4079.1541     -5934.1823      120.4768      -3881.0803      61967.042     -43767.981     -559.05863      66275.331      40.468518      40.468518      40.468518      1.2644098      38.867768      554.39325     -296.05486    
      2500   2500           157.75204      716.19887      17363.468      16672.878      2529.3611      14143.517      1508.8136      4057.2565     -5896.784       123.00914     -3842.0958      61964.419     -43771.102     -560.40064      66116.619      40.436188      40.436188      40.436188      1.267445       850.72046      837.00068      460.87548    
      3000   3000           159.91525     -603.6031       16053.54       16637.162      2564.0455      14073.117      1524.4458      4018.3418     -5901.3959      110.95115     -3866.6891      61961.272     -43773.809     -558.86242      66298.6        40.473254      40.473254      40.473254      1.2639661     -533.8874      -668.54122     -608.38069    
      3500   3500           159.44014     -154.59105      16549.471      16698.861      2556.4276      14142.433      1522.5277      4157.7247     -5941.0145      114.74035     -3888.4301      61951.845     -43774.96      -559.17515      66261.521      40.465707      40.465707      40.465707      1.2646734      144.6862      -339.46152     -268.99783    
      4000   4000           161.13818      125.95202      16868.803      16747.284      2583.6537      14163.63       1493.8541      4044.7769     -5885.0042      123.42207     -3815.6618      61974.078     -43771.835     -560.07371      66155.213      40.444055      40.444055      40.444055      1.2667056     -298.1994       647.49172      28.563731    
      4500   4500           160.47549      354.69102      17030.117      16688.252      2573.0282      14115.224      1492.6834      4078.015      -5903.8693      122.86485     -3823.5407      61915.789     -43766.719     -560.63588      66088.877      40.430532      40.430532      40.430532      1.2679771     -338.19255      1861.8241     -459.55848    
      5000   5000           160.32611      102.59903      16837.979      16738.85       2570.6331      14168.216      1509.8748      4139.4255     -5933.0944      118.73512     -3856.1299      61959.736     -43770.331     -559.27607      66249.564      40.463273      40.463273      40.463273      1.2649016      276.85028     -160.36855      191.31537    
      5500   5500           160.71875      443.64074      17115.171      16687.773      2576.9286      14110.845      1507.491       4107.995      -5919.4146      113.28458     -3859.8823      61931.641     -43770.27      -560.89814      66057.975      40.42423       40.42423       40.42423       1.2685702      241.06418      1838.9197     -749.06162    
      6000   6000           161.65374      84.037984      16752.418      16671.337      2591.9201      14079.417      1531.0209      4014.2147     -5907.4513      106.00141     -3896.1952      62006.581     -43774.755     -560.06508      66156.232      40.444263      40.444263      40.444263      1.2666861     -180.44533      143.97385      288.58543    
      6500   6500           160.21307      63.727241      16748.271      16686.489      2568.8208      14117.669      1468.2468      4113.2611     -5891.7659      123.04247     -3863.8113      61938.987     -43770.292     -557.38219      66474.668      40.50905       40.50905       40.50905       1.2606183     -266.36184      704.14655     -246.60299    
      7000   7000           162.10424      460.22042      17137.979      16693.973      2599.1433      14094.829      1526.7531      4080.6059     -5933.7341      134.14057     -3878.3881      61937.663     -43772.211     -560.09488      66152.713      40.443545      40.443545      40.443545      1.2667535      452.6992       366.05842      561.90364    
      7500   7500           159.54329      234.24406      16916.56       16690.852      2558.0816      14132.771      1481.2186      4116.1606     -5893.8747      123.54459     -3888.7751      61971.212     -43776.715     -560.79856      66069.705      40.426622      40.426622      40.426622      1.268345      -469.22321      438.48157      733.47382    
      8000   8000           159.4805       283.26045      16988.264      16715.37       2557.0749      14158.295      1579.9577      4113.5783     -5944.5198      119.45434     -3875.3903      61941.331     -43776.116     -560.88912      66059.038      40.424446      40.424446      40.424446      1.2685498     -962.2634       946.19121      865.85353    
      8500   8500           160.45491      653.73815      17317.984      16687.807      2572.6982      14115.109      1526.5982      4060.7822     -5919.5549      111.77031     -3859.338       61973.323     -43778.472     -560.56534      66097.193      40.432228      40.432228      40.432228      1.2678175     -23.897087      774.68571      1210.4258    
      9000   9000           159.35211      11.794869      16749.777      16738.361      2555.0163      14183.345      1528.9236      4133.8305     -5914.5648      107.20336     -3849.1758      61953.839     -43776.711     -558.32398      66362.537      40.48626       40.48626       40.48626       1.2627483     -748.99453      635.0119       149.36724    
      9500   9500           159.31679      189.63865      16868.576      16685.614      2554.4499      14131.164      1543.1296      4100.7191     -5930.7334      110.13526     -3853.3924      61939.417     -43778.111     -560.08082      66154.373      40.443884      40.443884      40.443884      1.2667217      25.560209     -352.97026      896.326      
     10000   10000          160.47845     -672.53717      16027.814      16674.978      2573.0757      14101.902      1520.5247      4082.4676     -5878.6312      110.03027     -3893.9442      61936.516     -43775.062     -561.54861      65981.457      40.408615      40.408615      40.408615      1.2700414     -1494.5831      1061.8113     -1584.8398    
     10500   10500          158.54631      5.0538084      16633.884      16628.996      2542.0961      14086.9        1485.1856      4061.609      -5888.0394      118.82128     -3864.6977      61956.591     -43782.571     -558.71091      66316.579      40.476912      40.476912      40.476912      1.2636234     -81.398994     -223.62301      320.18343    
     11000   11000          158.04908      112.59149      16780.669      16671.902      2534.1238      14137.778      1536.2581      4115.1975     -5912.0936      125.95725     -3917.1971      61965.823     -43776.167     -559.3623       66239.351      40.461194      40.461194      40.461194      1.2650966     -1775.5399      948.54163      1164.7727    
     11500   11500          159.55011     -42.627969      16638.786      16679.865      2558.1909      14121.674      1496.1937      4143.5338     -5924.7378      118.59154     -3904.1496      61970.629     -43778.387     -560.7324       66077.501      40.428212      40.428212      40.428212      1.2681954      748.28437      98.993452     -975.16172    
     12000   12000          163.21329      27.544213      16745.117      16718.555      2616.9255      14101.63       1491.5862      4093.148      -5899.9624      110.61122     -3880.4577      61959.855     -43773.15      -560.34693      66122.956      40.43748       40.43748       40.43748       1.2673236     -1403.7909      892.65661      593.7669     
     12500   12500          160.68929      239.23613      16950.452      16719.575      2576.4563      14143.118      1463.4072      4124.0367     -5921.3915      114.96372     -3849.4138      61990.162     -43778.646     -559.92508      66172.774      40.447633      40.447633      40.447633      1.2663695     -260.11202      11.53629       966.28411    
     13000   13000          161.52461      443.65523      17142.201      16713.999      2589.8496      14124.149      1474.415       4067.8077     -5902.2922      115.63252     -3849.4849      61995.39      -43777.319     -559.86318      66180.09       40.449124      40.449124      40.449124      1.2662295     -44.473656      563.90857      811.53078    
     13500   13500          159.64692     -21.164799      16627.421      16647.873      2559.7432      14088.13       1473.8767      4111.174      -5920.7328      117.22944     -3856.9787      61945.08      -43781.519     -559.19891      66258.706      40.465134      40.465134      40.465134      1.2647271     -811.62358      373.75829      374.37089    
     14000   14000          159.71        -552.77482      16103.653      16638.434      2560.7546      14077.679      1487.5734      4069.5405     -5911.2722      103.29149     -3851.2579      61955.596     -43775.793     -558.54495      66336.282      40.48092       40.48092       40.48092       1.2632481     -1059.567       3.0639966     -601.8215     
     14500   14500          158.8418      -532.08354      16188.837      16703.475      2546.8341      14156.641      1542.4093      4153.5557     -5948.9443      114.24846     -3864.6344      61934.554     -43774.547     -558.67975      66320.277      40.477664      40.477664      40.477664      1.2635529     -1153.6992     -472.81622      30.264811    
     15000   15000          158.26476      783.27025      17405.277      16649.527      2537.5819      14111.945      1454.9379      4080.3176     -5877.7389      104.01805     -3861.6947      61982.008     -43769.903     -560.03895      66159.319      40.444892      40.444892      40.444892      1.266627       1034.9046      881.63958      433.26657    
     15500   15500          157.84251      637.58516      17229.155      16614.418      2530.8117      14083.606      1471.7789      4122.1089     -5899.7891      107.68467     -3884.9281      61943.108     -43776.357     -560.44626      66111.237      40.435091      40.435091      40.435091      1.2675482      382.0974      -256.98152      1787.6396    
     16000   16000          160.41041     -152.63175      16487.42       16634.823      2571.9848      14062.838      1499.0443      4060.1585     -5924.5734      111.04975     -3887.1868      61976.069     -43771.724     -559.53012      66219.484      40.457148      40.457148      40.457148      1.2654762      80.986521      135.81129     -674.69305    
     16500   16500          159.2492       407.68635      17083.046      16688.326      2553.3663      14134.959      1496.8174      4109.6395     -5928.825       113.07559     -3848.1291      61962.123     -43769.742     -558.1125       66387.683      40.491373      40.491373      40.491373      1.26227        249.21316      758.84143      215.00447    
     17000   17000          160.61472      21.783042      16731.089      16710.059      2575.2606      14134.798      1503.5457      4095.4308     -5887.5574      114.55112     -3884.8364      61967.13      -43773.466     -559.72192      66196.792      40.452526      40.452526      40.452526      1.26591       -688.81471      411.24163      342.9222     
     17500   17500          158.94642      309.67781      17006.86       16708.114      2548.5114      14159.603      1538.0587      4118.8772     -5929.1767      121.80402     -3857.0677      61939.984     -43772.876     -560.13651      66147.796      40.442543      40.442543      40.442543      1.2668477     -396.06989      1227.902       97.20135     
     18000   18000          158.02464      449.66556      17025.024      16591.799      2533.7319      14058.067      1460.2135      4074.8473     -5898.6391      105.4376      -3858.6669      61950.473     -43775.598     -560.86876      66061.437      40.424936      40.424936      40.424936      1.2685038      2.4182363      589.60444      756.97399    
     18500   18500          159.02119     -435.19895      16218.261      16639.148      2549.7104      14089.438      1480.3717      4113.8349     -5916.3787      106.16408     -3877.1017      61955.84      -43773.292     -558.73655      66313.535      40.476293      40.476293      40.476293      1.2636814     -227.82235     -598.70131     -479.07319    
     19000   19000          158.26939      466.20775      17108.806      16658.429      2537.6562      14120.773      1522.3914      4027.8272     -5930.8214      128.86178     -3821.1832      61961.859     -43768.162     -559.35656      66240.03       40.461332      40.461332      40.461332      1.2650837      741.25903      628.50852      28.855703    
     19500   19500          159.52481     -493.21648      16229.492      16705.594      2557.7853      14147.809      1518.4165      4128.6262     -5899.7987      110.59154     -3896.1861      61959.289     -43773.13      -559.78693      66189.105      40.45096       40.45096       40.45096       1.266057      -1129.3832      394.10009     -744.36629    
     20000   20000          160.69893      164.69387      16860.25       16701.27       2576.6108      14124.659      1518.8797      4077.5472     -5901.3545      125.48121     -3879.0306      61961.594     -43778.458     -559.78186      66189.704      40.451082      40.451082      40.451082      1.2660456     -315.07734      363.73639      445.42258    
     20500   20500          160.85512     -346.86463      16407.794      16742.721      2579.1152      14163.606      1566.4998      4119.2332     -5932.1589      113.82576     -3909.4481      61981.772     -43776.118     -559.62279      66208.519      40.454915      40.454915      40.454915      1.2656858     -314.73286     -233.26298     -492.59805    
     21000   21000          162.4081      -447.46992      16328.784      16760.572      2604.0153      14156.556      1493.3439      4149.3857     -5902.7693      109.46799     -3911.0626      61998.523     -43780.333     -559.98795      66165.344      40.446119      40.446119      40.446119      1.2665117     -772.71535     -614.84135      45.146946    
     21500   21500          160.61523     -384.3929       16296.11       16667.973      2575.2688      14092.705      1488.3977      4122.4341     -5916.1149      115.85023     -3914.6982      61971.83      -43774.994     -558.56973      66333.34       40.480322      40.480322      40.480322      1.2633041     -325.65038      58.338517     -885.86684    
     22000   22000          160.02641      144.7303       16806.77       16667.242      2565.8278      14101.415      1486.0454      4118.8339     -5899.1516      104.7552      -3884.5919      61954.219     -43778.696     -560.51128      66103.569      40.433528      40.433528      40.433528      1.2676953     -947.31396      751.89719      629.60767    
     22500   22500          157.27926      32.406258      16691.81       16660.497      2521.7806      14138.717      1503.6997      4127.0595     -5950.0781      120.21974     -3874.032       61983.125     -43771.277     -559.22736      66255.335      40.464448      40.464448      40.464448      1.2647914     -912.88994      446.86696      563.24176    
     23000   23000          156.94641     -932.22401      15733.033      16634.521      2516.4439      14118.077      1537.514       4117.1792     -5897.461       108.85271     -3901.9078      61929.621     -43775.721     -558.78628      66307.633      40.475092      40.475092      40.475092      1.2637939     -1961.561      -438.86365     -396.24732    
     23500   23500          161.46528     -309.79784      16376.948      16675.023      2588.8983      14086.124      1490.4464      4104.5854     -5876.2781      111.87373     -3890.1696      61923.681     -43778.015     -561.61504      65973.653      40.407022      40.407022      40.407022      1.2701916     -12.895082      761.78398     -1678.2824    
     24000   24000          163.03842      230.04158      16931.924      16709.551      2614.1217      14095.43       1507.2115      4037.7477     -5910.4262      121.4891      -3871.5417      61987.434     -43776.485     -558.99678      66282.663      40.470011      40.470011      40.470011      1.26427       -539.3561       471.05994      758.42091    
     24500   24500          160.49404      341.41983      17070.206      16740.386      2573.3257      14167.061      1496.1675      4080.9939     -5876.7848      113.5288      -3859.7769      61990.552     -43777.621     -559.36739      66238.748      40.461071      40.461071      40.461071      1.2651082      324.56566      811.83886     -112.14505    
     25000   25000          159.63785      1311.347       17926.903      16665.836      2559.5978      14106.238      1483.0521      4162.0366     -5927.582       115.26988     -3883.2467      61939.793     -43783.084     -561.90749      65939.316      40.400011      40.400011      40.400011      1.270853      -223.36082      2357.8154      1799.5864    
     25500   25500          158.15703      371.57926      16973.936      16616.288      2535.8546      14080.433      1490.6883      4073.2795     -5902.4373      102.53854     -3855.6313      61953.348     -43781.352     -561.41091      65997.641      40.411919      40.411919      40.411919      1.2697299     -466.13387      829.69762      751.17402    
     26000   26000          159.79645     -543.46491      16143.289      16666.614      2562.1406      14104.473      1536.4889      4093.255      -5926.0464      111.99345     -3858.3764      61924.951     -43777.792     -561.15797      66027.389      40.41799       40.41799       40.41799       1.2691579     -733.75011     -194.20244     -702.44219    
     26500   26500          159.65606      1356.1386      18018.126      16713.222      2559.8897      14153.332      1470.8146      4128.9209     -5866.2794      107.27312     -3873.2329      61968.165     -43782.329     -561.57855      65977.94       40.407897      40.407897      40.407897      1.2701091      2807.6996      386.63233      874.08375    
     27000   27000          161.14057     -243.96961      16433.613      16668.92       2583.692       14085.228      1499.1552      4073.9265     -5925.7333      116.23837     -3875.6588      61970.345     -43773.045     -560.25501      66133.806      40.439692      40.439692      40.439692      1.2671157     -252.29949      352.29606     -831.90539    
     27500   27500          161.97924     -127.30446      16601.738      16724.519      2597.139       14127.38       1488.0321      4137.0882     -5877.2454      117.75014     -3914.4417      61950.155     -43773.958     -560.26963      66132.079      40.43934       40.43934       40.43934       1.2671487     -231.15073     -96.958633     -53.804023    
     28000   28000          161.98091     -288.36252      16493.017      16771.129      2597.1658      14173.963      1498.6354      4136.2722     -5905.5764      118.82482     -3841.6508      61945.805     -43778.348     -560.27923      66130.946      40.439109      40.439109      40.439109      1.2671704     -526.59398     -216.33138     -122.16219    
     28500   28500          157.96151      53.952508      16699.445      16647.546      2532.7197      14114.826      1546.0814      4068.4294     -5935.3315      113.15676     -3873.3179      61970.723     -43774.915     -561.73483      65959.584      40.404149      40.404149      40.404149      1.2704625     -517.17888      306.98453      372.05188    
     29000   29000          159.12761      587.29751      17251.296      16684.801      2551.4167      14133.384      1519.6509      4087.1703     -5908.9996      112.82641     -3879.3477      61971.197     -43769.113     -560.20467      66139.748      40.440903      40.440903      40.440903      1.2670018      982.82         499.26005      279.8125     
     29500   29500          162.58614     -518.19379      16248.061      16749.346      2606.8699      14142.477      1506.0595      4160.5642     -5941.2732      112.66754     -3919.2412      61993.619     -43769.92      -558.58845      66331.117      40.479869      40.479869      40.479869      1.2633465     -1467.6585      320.97135     -407.89427    
     30000   30000          161.07668     -265.48573      16449.052      16704.7        2582.6677      14122.032      1539.8987      4089.6587     -5916.2155      102.93277     -3888.391       61967.205     -43773.056     -561.15621      66027.596      40.418032      40.418032      40.418032      1.2691539     -412.7738      -193.23295     -190.45043    
     30500   30500          157.12385     -997.38241      15692.485      16660.144      2519.2889      14140.855      1545.5086      4148.2138     -5907.7424      110.96941     -3932.4988      61946.944     -43770.54      -556.96063      66524.982      40.519268      40.519268      40.519268      1.2596648     -1390.1704     -354.72219     -1247.2546    
     31000   31000          160.02406      123.88764      16773.18       16653.817      2565.7902      14088.027      1479.0445      4095.8712     -5903.3309      109.41648     -3895.2064      61972.047     -43769.815     -560.84581      66064.139      40.425487      40.425487      40.425487      1.2684519     -177.39289     -129.57741      678.63322    
     31500   31500          160.98906     -257.52109      16501.264      16749.186      2581.2628      14167.923      1523.4915      4111.7719     -5926.1993      114.26739     -3870.4263      61988.001     -43772.983     -561.28527      66012.414      40.414934      40.414934      40.414934      1.2694458     -423.4404      -247.64422     -101.47865    
     32000   32000          157.0275       482.59069      17068.421      16604.41       2517.744       14086.666      1463.1181      4093.4998     -5906.9934      122.61542     -3874.1622      61964.96      -43776.372     -561.99856      65928.632      40.397828      40.397828      40.397828      1.271059       137.89799      991.64975      318.22433    
     32500   32500          157.97188     -36.460661      16612.515      16647.726      2532.8859      14114.84       1450.8137      4095.3155     -5885.5332      125.77262     -3869.0866      61970.599     -43773.042     -559.54853      66217.306      40.456704      40.456704      40.456704      1.2655178     -388.39467      133.56554      145.44715    
     33000   33000          160.3902       987.48029      17652.57       16703.115      2571.6608      14131.454      1490.2083      4135.6791     -5923.132       111.92083     -3851.1934      61945.061     -43777.09      -562.00407      65927.984      40.397696      40.397696      40.397696      1.2710715      782.57809      1054.3459      1125.5169    
     33500   33500          160.43478      99.554471      16813.829      16717.946      2572.3755      14145.571      1533.1179      4100.6845     -5946.2005      113.49074     -3840.2432      61954.526     -43769.805     -561.05562      66039.435      40.420447      40.420447      40.420447      1.2689264     -349.24303      558.44631      89.460138    
     34000   34000          157.177        132.20312      16705.56       16578.386      2520.1411      14058.245      1490.952       4053.551      -5913.452       104.40409     -3870.3029      61967.813     -43774.72      -561.73051      65960.091      40.404253      40.404253      40.404253      1.2704528     -577.52097      307.57155      666.55879    
     34500   34500          164.18784     -271.7487       16473.671      16736.338      2632.5512      14103.787      1535.4311      4096.6787     -5920.6021      107.71447     -3893.4703      61951.737     -43773.702     -559.0454       66276.899      40.468837      40.468837      40.468837      1.2643799     -620.42394     -80.322062     -114.5001     
     35000   35000          159.67202     -128.85929      16593.157      16717.32       2560.1457      14157.174      1546.6418      4142.3306     -5913.8115      113.26781     -3875.7078      61918.685     -43774.232     -560.80226      66069.27       40.426534      40.426534      40.426534      1.2683534     -414.27506      158.46988     -130.77269    
     35500   35500          159.20562      519.23112      17154.951      16655.515      2552.6674      14102.847      1533.5427      4064.9156     -5898.0059      104.77153     -3892.4129      61964.021     -43773.984     -561.77938      65954.354      40.403081      40.403081      40.403081      1.2705633     -319.45989      560.75367      1316.3996    
     36000   36000          157.41614     -681.39366      15976.678      16633.36       2523.9753      14109.385      1567.176       4075.7625     -5949.6324      125.86435     -3892.9709      61960.55      -43777.365     -560.69679      66081.698      40.429068      40.429068      40.429068      1.2681148     -948.58012      613.64468     -1709.2455    
     36500   36500          157.3435      -299.52425      16342.459      16631.21       2522.8106      14108.4        1610.6445      4081.3588     -5977.7994      109.62035     -3867.2043      61928.993     -43777.213     -560.52356      66102.12       40.433233      40.433233      40.433233      1.267723      -416.86137     -303.98487     -177.72651    
     37000   37000          160.80666      76.214036      16763.018      16689.686      2578.3382      14111.348      1558.826       4076.8356     -5938.9984      119.5234      -3887.9556      61952.665     -43769.548     -561.59887      65975.552      40.40741       40.40741       40.40741       1.270155      -849.88198      1123.6699     -45.145792    
     37500   37500          159.48317     -17.976554      16614.326      16631.71       2557.1176      14074.592      1510.7896      4058.5216     -5917.1361      110.52754     -3896.6581      61982.242     -43773.694     -558.78104      66308.255      40.475218      40.475218      40.475218      1.263782      -217.23327      226.5755      -63.271896    
     38000   38000          158.03672      672.13751      17269.578      16622.236      2533.9255      14088.31       1491.9357      4032.5794     -5897.4366      125.1141      -3865.3067      61984.501     -43783.076     -561.05984      66038.938      40.420346      40.420346      40.420346      1.2689359      481.48783      507.08784      1027.8369    
     38500   38500          160.73645      103.26252      16776.808      16678.008      2577.2124      14100.795      1531.4348      4073.1635     -5902.2698      110.35994     -3879.2628      61946.032     -43778.662     -564.76517      65605.668      40.331755      40.331755      40.331755      1.2773162      318.24928     -118.55538      110.09365    
     39000   39000          161.36726     -293.50689      16442.323      16725.791      2587.3267      14138.464      1521.2101      4104.4145     -5894.9547      108.84023     -3873.6233      61950.553     -43777.976     -559.49958      66223.099      40.457884      40.457884      40.457884      1.2654071     -1125.8535      18.068208      227.26466    
     39500   39500          160.2653      -624.34017      16107.892      16710.477      2569.6581      14140.819      1556.0111      4099.995      -5939.2896      111.04665     -3864.7006      61950.621     -43772.864     -559.87143      66179.115      40.448925      40.448925      40.448925      1.2662481     -608.97973     -332.24821     -931.79259    
     40000   40000          160.11469     -1204.3836      15516.103      16676.711      2567.2432      14109.468      1506.5495      4144.6725     -5921.5981      114.22635     -3908.3622      61942.207     -43768.227     -560.74382      66076.155      40.427938      40.427938      40.427938      1.2682212     -2650.2429     -1046.4394      83.531413    
     40500   40500          159.79062     -516.0091       16214.449      16713.418      2562.0473      14151.371      1533.0588      4096.2827     -5891.8604      120.96403     -3890.2342      61957.61      -43774.45      -558.81615      66304.089      40.474371      40.474371      40.474371      1.2638614     -1168.6764     -700.11562      320.76473    
     41000   41000          161.31869      607.04502      17265.066      16678.976      2586.5479      14092.428      1502.626       4087.4455     -5902.3996      116.24589     -3871.5099      61934.731     -43774.711     -559.68207      66201.506      40.453486      40.453486      40.453486      1.2658199      112.83189      1723.702      -15.398852    
     41500   41500          159.8935      -277.34524      16385.946      16653.244      2563.6967      14089.547      1508.6103      4132.9676     -5915.5167      100.6557      -3949.2198      61980.525     -43768.475     -560.67339      66084.455      40.42963       40.42963       40.42963       1.2680619     -1372.9405      215.46098      325.44376    
     42000   42000          163.23256      944.30707      17631.059      16721.043      2617.2346      14103.809      1464.0681      4081.6213     -5900.4749      105.47031     -3847.2634      61969.49      -43769.102     -560.72486      66078.389      40.428393      40.428393      40.428393      1.2681783      534.85262      2187.2948      110.77379    
     42500   42500          159.79355     -258.35199      16432.475      16681.405      2562.0942      14119.311      1487.0955      4128.342      -5932.3047      111.29934     -3864.0816      61964.617     -43775.656     -560.81432      66067.849      40.426244      40.426244      40.426244      1.2683806     -1279.4982      192.95145      311.49078    
     43000   43000          157.79069     -334.05808      16317.951      16640.35       2529.9808      14110.37       1534.621       4116.7958     -5913.1237      112.9209      -3893.6844      61918.762     -43765.922     -559.90288      66175.398      40.448168      40.448168      40.448168      1.2663193     -1184.404       195.93676     -13.707051    
     43500   43500          156.5604       125.25581      16747.614      16626.586      2510.2546      14116.332      1519.4594      4116.7633     -5966.0609      109.64139     -3885.8914      61989.184     -43766.765     -559.23842      66254.025      40.464181      40.464181      40.464181      1.2648165     -56.057925     -220.11033      651.93569    
     44000   44000          162.15617      788.31175      17461.225      16699.578      2599.976       14099.602      1492.8861      4102.7903     -5936.939       108.21015     -3886.3842      61993.486     -43774.447     -559.2802       66249.075      40.463173      40.463173      40.463173      1.264911      -537.42308      1072.8132      1829.5451    
     44500   44500          160.78558     -116.17431      16608.999      16720.567      2578.0002      14142.567      1511.7998      4170.794      -5920.0674      112.30276     -3900.2497      61949.86      -43781.872     -562.67339      65849.561      40.381672      40.381672      40.381672      1.2725853      385.80693      257.91869     -992.24857    
     45000   45000          155.17674      67.940555      16671.586      16605.976      2488.0694      14117.906      1495.4784      4089.4789     -5911.5339      111.04571     -3868.0094      61983.169     -43781.723     -559.54998      66217.134      40.456669      40.456669      40.456669      1.2655211     -149.96329      566.4884      -212.70345    
     45500   45500          157.43109     -500.88608      16172.067      16657.107      2524.215       14132.892      1532.3723      4084.5227     -5932.7612      102.19693     -3821.8819      61941.099     -43772.656     -558.01699      66399.046      40.493683      40.493683      40.493683      1.262054       32.123028     -251.08264     -1283.6986    
     46000   46000          157.13611      305.31103      17001.574      16706.571      2519.4854      14187.086      1514.3325      4112.9254     -5913.8405      117.36952     -3856.9373      61988.773     -43775.537     -559.24381      66253.385      40.464051      40.464051      40.464051      1.2648287      33.977712     -1.743508       883.69888    
     46500   46500          162.45962      128.24516      16848.67       16725.129      2604.8413      14120.288      1476.9299      4122.1538     -5921.1631      109.83839     -3869.4721      61973.497     -43771.496     -560.93605      66053.512      40.423319      40.423319      40.423319      1.2686559     -307.32075     -472.72005      1164.7763    
     47000   47000          163.05508      571.10904      17289.087      16736.999      2614.3888      14122.61       1524.7894      4099.8499     -5928.5066      114.92069     -3859.3148      61939.817     -43768.945     -558.979        66284.773      40.47044       40.47044       40.47044       1.2642297      632.45253      349.01018      731.86442    
     47500   47500          159.38375      496.67591      17146.51       16667.819      2555.5236      14112.296      1488.052       4108.6066     -5936.347       111.2422      -3835.2053      61950.082     -43774.135     -560.66489      66085.458      40.429835      40.429835      40.429835      1.2680427      1147.3557     -11.295719      353.96778    
     48000   48000          162.27742     -102.68245      16576.586      16675.193      2601.9201      14073.273      1485.1237      4112.9401     -5949.8949      108.00996     -3873.0554      61966.73      -43776.58      -562.70008      65846.438      40.381033      40.381033      40.381033      1.2726456     -916.34328      907.4881      -299.19215    
     48500   48500          160.88768      44.139053      16768.26       16725.826      2579.6372      14146.189      1516.6923      4164.7742     -5913.748       106.34672     -3889.322       61946.108     -43784.663     -562.07505      65919.66       40.395996      40.395996      40.395996      1.271232      -3.6327907     -95.929668      231.97962    
     49000   49000          162.76308     -179.18316      16555.305      16728.3        2609.707       14118.593      1529.0002      4032.9025     -5924.1812      120.58794     -3848.4525      61983.134     -43774.398     -559.69183      66200.352      40.453251      40.453251      40.453251      1.2658419     -979.02434      707.57901     -266.10415    
     49500   49500          161.51945      119.00852      16807.081      16692.026      2589.7669      14102.259      1525.4188      4090.0137     -5917.9328      107.97214     -3885.6691      61951.01      -43768.554     -558.92793      66290.829      40.471672      40.471672      40.471672      1.2641142     -321.97164      711.07174     -32.074535    
     50000   50000          158.70399     -28.182546      16630.253      16657.407      2544.6245      14112.782      1491.9106      4124.6622     -5924.1605      115.26867     -3909.5159      61989.737     -43775.12      -560.83739      66065.131      40.425689      40.425689      40.425689      1.2684328     -569.15336      597.15381     -112.54808    
     50500   50500          159.29537     -138.68842      16596.447      16730.158      2554.1065      14176.051      1506.7529      4124.6357     -5897.4509      118.33594     -3879.7508      61975.952     -43772.424     -560.47697      66107.615      40.434353      40.434353      40.434353      1.2676177     -898.70314      614.61049     -131.97262    
     51000   51000          162.08388     -16.717324      16734.882      16750.984      2598.8168      14152.167      1517.0522      4226.7504     -5939.5489      111.73459     -3907.5626      61921.071     -43777.33      -561.0292       66042.544      40.421082      40.421082      40.421082      1.2688666      208.72924     -245.00851     -13.872705    
     51500   51500          160.03407     -236.31438      16501.7        16728.645      2565.9506      14162.694      1492.7864      4138.2868     -5888.0897      121.49969     -3869.6493      61948.133     -43780.273     -562.67072      65849.873      40.381736      40.381736      40.381736      1.2725792     -605.4407       467.47755     -570.97999    
     52000   52000          159.8681       469.95051      17125.923      16673.555      2563.2894      14110.265      1490.3526      4058.0209     -5925.8763      125.92044     -3835.9348      61975.478     -43777.695     -561.36542      66002.989      40.41301       40.41301       40.41301       1.2696271      370.89903      557.30587      481.64662    
     52500   52500          158.60463     -756.97836      15903.251      16635.993      2543.0314      14092.961      1481.3976      4087.6187     -5899.6785      103.30948     -3847.3982      61944.652     -43776.939     -558.23584      66373.015      40.488391      40.488391      40.488391      1.262549      -1497.7009     -648.73344     -124.50072    
     53000   53000          157.54894     -1049.3371      15677.874      16690.82       2526.1047      14164.715      1555.3139      4139.6145     -5896.8638      101.86006     -3904.6626      61941.14      -43771.687     -559.7755       66190.456      40.451235      40.451235      40.451235      1.2660312     -1619.6194     -1170.6947     -357.69727    
     53500   53500          157.04813     -176.18909      16423.373      16593.825      2518.0747      14075.751      1489.9273      4095.3746     -5903.1364      112.11454     -3907.9195      61965.53      -43776.14      -558.54809      66335.91       40.480845      40.480845      40.480845      1.2632552     -951.97831      279.88823      143.52281    
     54000   54000          156.95147      15.961068      16664.171      16648.728      2516.5249      14132.204      1497.1916      4109.1982     -5931.4903      116.26659     -3853.4689      61965.474     -43770.967     -558.50164      66341.427      40.481967      40.481967      40.481967      1.2631501     -406.91413     -615.40735      1070.2047    
     54500   54500          160.9603       403.20028      17110.608      16722.334      2580.8016      14141.532      1558.8561      4097.8778     -5919.8516      116.81706     -3858.6966      61924.271     -43777.741     -561.13481      66030.115      40.418546      40.418546      40.418546      1.2691055     -30.29225       443.84617      796.04691    
     55000   55000          159.79914      299.77888      16992.193      16702.49       2562.1838      14140.306      1541.7093      4080.7022     -5933.6755      111.3555      -3876.027       61988.384     -43772.143     -559.15504      66263.904      40.466192      40.466192      40.466192      1.2646279      1169.9897     -674.34935      403.69631    
     55500   55500          157.79065      973.05634      17522.254      16583.727      2529.9802      14053.747      1473.1568      4072.4087     -5921.5649      113.63444     -3847.2927      61941.209     -43777.804     -560.24294      66135.23       40.439982      40.439982      40.439982      1.2670884      1761.7289      570.47097      586.96916    
     56000   56000          156.77926     -940.99         15715.948      16626.542      2513.7637      14112.778      1564.2399      4058.4512     -5942.1137      101.89838     -3849.4536      61953.788     -43774.032     -558.39991      66353.514      40.484425      40.484425      40.484425      1.26292       -1922.4823     -1429.2662      528.77842    
     56500   56500          160.47556     -179.34581      16494.809      16667.712      2573.0293      14094.683      1542.4684      4081.0738     -5945.2621      114.34778     -3863.5277      61942.295     -43776.712     -560.4968       66105.276      40.433876      40.433876      40.433876      1.2676625     -1680.6942      796.53347      346.12334    
     57000   57000          160.70671      267.88795      16966.629      16706.988      2576.7355      14130.253      1551.905       4098.747      -5934.8299      121.34453     -3879.9444      61947.683     -43774.652     -557.52586      66457.537      40.50557       40.50557       40.50557       1.2609432     -680.11383      1233.6833      250.09438    
     57500   57500          159.65918      133.70451      16777.741      16648.923      2559.9398      14088.984      1523.5249      4082.623      -5931.8619      113.61458     -3903.0356      61977.818     -43773.7       -560.86093      66062.358      40.425124      40.425124      40.425124      1.2684861      645.88365     -289.07861      44.308506    
     58000   58000          157.78752     -199.83484      16468.92       16662.02       2529.9299      14132.09       1557.1047      4074.7772     -5919.211       114.47628     -3882.477       61959.713     -43772.294     -559.20993      66257.399      40.464868      40.464868      40.464868      1.264752      -698.16331      637.50021     -538.84143    
     58500   58500          160.38548     -205.14973      16533.117      16730.951      2571.585       14159.366      1526.772       4099.5465     -5898.5979      139.6026      -3895.8908      61966.64      -43778.706     -560.34269      66123.457      40.437582      40.437582      40.437582      1.267314      -164.55596     -1003.1005      552.20729    
     59000   59000          162.68885      530.72524      17265.413      16752.219      2608.5168      14143.703      1562.563       4086.9046     -5926.7177      119.78021     -3864.7709      61944.3       -43778.357     -558.82256      66303.329      40.474216      40.474216      40.474216      1.2638759      626.29471      445.80146      520.07955    
     59500   59500          156.13806     -242.51675      16392.209      16626.936      2503.4828      14123.453      1546.069       3986.106      -5903.8554      128.34008     -3814.0884      61955.852     -43774.97      -558.29442      66366.05       40.486974      40.486974      40.486974      1.2626815     -267.80208      63.311801     -523.05996    
     60000   60000          158.86252      3.7080146      16640.832      16637.261      2547.1662      14090.095      1531.3122      4066.9981     -5946.6481      113.08239     -3833.8985      61935.15      -43775.901     -561.14973      66028.359      40.418188      40.418188      40.418188      1.2691392     -245.77157     -561.57546      818.47107    
     60500   60500          161.46294     -572.7312       16204.222      16757.943      2588.8609      14169.082      1525.0855      4150.0154     -5884.8345      123.6105      -3890.4497      61924.475     -43778.82      -558.91411      66292.468      40.472006      40.472006      40.472006      1.264083      -504.98406     -1009.6676     -203.54193    
     61000   61000          159.11695      149.73559      16822.313      16677.738      2551.2458      14126.492      1538.1478      4058.4062     -5922.7791      119.06265     -3860.7478      61966.51      -43772.108     -559.65047      66205.244      40.454248      40.454248      40.454248      1.2657484      170.39047     -223.78545      502.60174    
     61500   61500          157.59941      6.0970028      16657.148      16651.283      2526.9138      14124.369      1485.8886      4092.6802     -5879.0328      121.36714     -3923.5299      62002.295     -43775.298     -561.78933      65953.186      40.402843      40.402843      40.402843      1.2705858     -728.29873     -12.257805      758.84754    
     62000   62000          160.04927     -740.32248      15952.879      16665.998      2566.1943      14099.804      1556.2793      4092.3052     -5925.9394      113.65294     -3904.0731      61943.211     -43775.632     -560.97573      66048.84       40.422366      40.422366      40.422366      1.2687457     -1044.9614     -953.82421     -222.18187    
     62500   62500          158.25159     -453.8748       16271.634      16710.971      2537.3707      14173.601      1530.161       4194.6872     -5905.5008      118.3003      -3919.6427      61928.984     -43773.388     -558.24308      66372.155      40.488216      40.488216      40.488216      1.2625653     -1149.8608      574.00158     -785.76517    
     63000   63000          158.39039      35.021949      16705.709      16671.861      2539.5962      14132.264      1491.0537      4088.472      -5909.8486      112.89391     -3849.0407      61979.916     -43781.182     -559.09874      66270.577      40.46755       40.46755       40.46755       1.2645005     -424.37779     -446.9917       976.43534    
     63500   63500          158.85229      154.31848      16780.127      16631.534      2547.0022      14084.532      1483.9883      4093.3044     -5898.2585      114.65994     -3911.3541      61972.91      -43770.717     -561.18293      66024.453      40.41739       40.41739       40.41739       1.2692143      249.48049     -681.95929      895.43424    
     64000   64000          160.02502     -492.66066      16178.299      16653.976      2565.8055      14088.171      1490.0745      4102.4001     -5898.5846      115.94009     -3902.2148      61954.224     -43773.668     -559.65484      66204.726      40.454142      40.454142      40.454142      1.2657583     -832.84074     -159.94468     -485.19656    
     64500   64500          159.38861     -100.92464      16560.967      16658.237      2555.6015      14102.635      1494.8496      4053.7856     -5881.7658      117.0383      -3845.2817      61939.115     -43775.106     -560.66639      66085.281      40.429799      40.429799      40.429799      1.2680461     -1514.1875      573.95801      637.45561    
     65000   65000          160.13563      174.48062      16893.334      16725.159      2567.579       14157.58       1527.9208      4094.1291     -5909.6396      116.53312     -3870.4793      61974.732     -43775.616     -560.62287      66090.411      40.430845      40.430845      40.430845      1.2679476      1150.9759      231.11406     -858.64809    
     65500   65500          161.41472      205.16285      16959.76       16761.832      2588.0876      14173.744      1528.5342      4134.2786     -5918.7469      108.31592     -3869.775       61960.512     -43769.375     -560.11163      66150.735      40.443142      40.443142      40.443142      1.2667914     -182.65661      18.497816      779.64734    
     66000   66000          156.03052     -487.66249      16238.324      16708.139      2501.7586      14206.38       1511.06        4178.0256     -5881.7478      113.46753     -3910.4715      61969.298     -43773.252     -560.89092      66058.826      40.424403      40.424403      40.424403      1.2685539     -1986.1356     -262.57785      785.72602    
     66500   66500          160.8745       849.53041      17524.584      16709.994      2579.4259      14130.568      1475.8034      4135.9003     -5913.8791      109.4972      -3858.9649      61954.089     -43771.878     -563.54025      65748.269      40.360956      40.360956      40.360956      1.2745458      904.89191      305.23828      1338.461     
     67000   67000          159.96823      5.7385401      16683.499      16677.965      2564.895       14113.07       1532.5587      4079.3832     -5888.0778      108.22965     -3909.5284      61967.75      -43777.245     -560.38168      66118.856      40.436645      40.436645      40.436645      1.2674022      122.83149      183.56292     -289.17878    
     67500   67500          160.27108     -210.32979      16431.337      16634.359      2569.7507      14064.608      1517.2354      4095.9128     -5925.6569      107.91562     -3878.1079      61926.847     -43779.537     -559.8111       66186.247      40.450378      40.450378      40.450378      1.2661117     -876.42203      948.15172     -702.71905    
     68000   68000          158.22066     -303.27782      16338.244      16631.515      2536.8749      14094.64       1504.7094      4096.2317     -5931.3996      111.3123      -3865.1056      61948.483     -43769.592     -558.80089      66305.9        40.474739      40.474739      40.474739      1.2638269     -1309.1692     -87.36789       486.70364    
     68500   68500          157.91066      110.12516      16804.879      16698.514      2531.9044      14166.609      1545.7218      4129.0901     -5952.133       111.55508     -3872.1368      61976.983     -43772.471     -559.46467      66227.231      40.458726      40.458726      40.458726      1.2653282      253.59035      843.72804     -766.9429     
     69000   69000          160.43451     -1402.6692      15362.073      16711.861      2572.3712      14139.49       1544.5374      4096.013      -5914.5383      116.92918     -3884.2621      61957.525     -43776.715     -561.53236      65983.367      40.409005      40.409005      40.409005      1.2700046     -1879.4448     -942.5936      -1385.9692    
     69500   69500          162.47978      395.00395      17113.267      16730.671      2605.1646      14125.506      1502.6997      4084.0808     -5917.6184      130.6517      -3836.1884      61936.337     -43774.456     -557.88627      66414.605      40.496846      40.496846      40.496846      1.2617583      129.57904      622.81716      432.61565    
     70000   70000          161.10531     -227.25954      16472.639      16691.608      2583.1267      14108.482      1549.9662      4091.3741     -5933.7968      122.55346     -3880.6715      61923.94      -43764.884     -560.8206       66067.109      40.426093      40.426093      40.426093      1.2683948     -773.69075     -291.35459      383.26672    
     70500   70500          160.6977      -199.86406      16491.673      16684.066      2576.5911      14107.475      1526.6583      4115.7498     -5926.1279      112.51395     -3900.8762      61956.991     -43777.434     -561.3465       66005.214      40.413464      40.413464      40.413464      1.2695843      391.33812     -218.47171     -772.4586     
     71000   71000          162.10292      190.2271       16922.575      16738.155      2599.1221      14139.033      1459.5368      4129.3152     -5909.3071      123.90741     -3876.0061      61982.119     -43770.533     -557.37722      66475.26       40.50917       40.50917       40.50917       1.260607      -473.79973      835.22756      209.25348    
     71500   71500          159.89927     -106.3169       16586.959      16689.627      2563.7893      14125.837      1520.0427      4093.625      -5920.3958      117.62022     -3880.8931      61965.559     -43769.72      -559.56731      66215.083      40.456252      40.456252      40.456252      1.2655603     -1185.9401      588.78165      278.20777    
     72000   72000          157.40633     -165.64651      16485.089      16645.641      2523.8181      14121.823      1526.0174      4078.4919     -5907.0929      115.97207     -3883.1888      61961.727     -43770.104     -557.50887      66459.563      40.505982      40.505982      40.505982      1.2609048     -754.09818     -560.83104      817.98971    
     72500   72500          164.76619      177.34973      16935.922      16764.957      2641.8243      14123.133      1493.5993      4089.3777     -5895.0801      100.35143     -3831.3466      61944.206     -43777.975     -560.54174      66099.976      40.432795      40.432795      40.432795      1.2677642     -341.08284      983.07698     -109.94495    
     73000   73000          163.07632      40.107594      16766.652      16727.849      2614.7294      14113.12       1498.3193      4107.7751     -5921.0721      121.66539     -3876.0992      61959.952     -43777.421     -558.53772      66337.141      40.481095      40.481095      40.481095      1.2632317     -184.78768     -850.20602      1155.3165    
     73500   73500          159.2546      -541.05546      16176.857      16698.339      2553.4528      14144.887      1515.4316      4138.6204     -5937.6539      115.75892     -3851.7765      61937.373     -43772.867     -560.64441      66087.872      40.430327      40.430327      40.430327      1.2679964     -439.02814     -47.2497       -1136.8885    
     74000   74000          159.38224      677.96487      17320.442      16665.628      2555.4994      14110.129      1443.1127      4130.3393     -5923.4735      115.38742     -3867.1695      61980.193     -43768.261     -559.46687      66226.97       40.458673      40.458673      40.458673      1.2653332      199.78189      836.19053      997.92218    
     74500   74500          157.63242      566.59533      17255.166      16708.984      2527.4432      14181.541      1524.5553      4091.1161     -5898.6458      108.02409     -3847.1385      61979.832     -43776.202     -560.55836      66098.017      40.432396      40.432396      40.432396      1.2678017      839.2053       344.75463      515.82607    
     75000   75000          163.15545     -608.00585      16164.391      16753.089      2615.9981      14137.091      1537.3521      4100.3196     -5928.7471      116.74092     -3869.2369      61955.435     -43774.773     -558.08529      66390.92       40.492031      40.492031      40.492031      1.2622085     -1083.2406     -484.43597     -256.34097    
     75500   75500          157.95814      1033.2844      17629.503      16635.484      2532.6656      14102.819      1490.7137      4077.9304     -5915.7021      122.53223     -3876.4558      61981.046     -43777.246     -561.70787      65962.75       40.404796      40.404796      40.404796      1.2704016      1846.7447      587.95192      665.15642    
     76000   76000          161.51832     -33.520345      16666.258      16698.511      2589.7488      14108.762      1448.3603      4097.9716     -5908.9132      125.43436     -3862.8789      61979.08      -43770.292     -561.59168      65976.397      40.407582      40.407582      40.407582      1.2701388     -811.0237      -436.4491       1146.9118    
     76500   76500          161.83217      1021.0666      17692.755      16707.721      2594.781       14112.94       1457.2362      4099.0906     -5899.8152      126.58778     -3846.5597      61954.931     -43778.531     -560.12875      66148.713      40.44273       40.44273       40.44273       1.2668301      519.36798      1174.0474      1369.7843    
     77000   77000          160.98502      812.91747      17443.114      16662.622      2581.1979      14081.425      1504.0106      4059.6425     -5941.5449      119.56045     -3871.7979      61984.852     -43773.299     -562.81214      65833.327      40.378353      40.378353      40.378353      1.2728991      27.192488      1666.8095      744.75041    
     77500   77500          158.56289      545.87252      17178.018      16652.775      2542.362       14110.413      1469.9222      4061.5367     -5905.673       115.2456      -3875.5827      62016.014     -43771.049     -561.58584      65977.083      40.407722      40.407722      40.407722      1.2701256      226.93423      1752.556      -341.8727     
     78000   78000          158.90628      987.37145      17667.846      16710.414      2547.8678      14162.546      1484.1126      4122.4991     -5930.2166      112.23672     -3817.3473      61968.697     -43777.435     -557.25957      66489.295      40.512021      40.512021      40.512021      1.2603409      85.529873      1838.2138      1038.3707    
     78500   78500          160.76464     -698.81607      16033.456      16707.739      2577.6644      14130.075      1513.9066      4120.6872     -5896.9039      111.207       -3903.4966      61958.048     -43773.373     -560.02294      66161.21       40.445277      40.445277      40.445277      1.2665908     -1431.4007     -227.12939     -437.91816    
     79000   79000          160.75999     -86.981078      16620.503      16704.585      2577.5899      14126.995      1463.8381      4133.5359     -5925.8438      111.68787     -3841.5744      61957.118     -43771.766     -558.99341      66283.064      40.470092      40.470092      40.470092      1.2642623     -618.42819      381.30511     -23.820159    
     79500   79500          159.52341     -78.395544      16581.871      16657.485      2557.7628      14099.722      1511.5057      4062.4569     -5910.0107      106.94183     -3879.2279      61980.45      -43772.394     -560.23927      66135.664      40.440071      40.440071      40.440071      1.2670801     -186.81597     -296.15585      247.78519    
     80000   80000          161.43786      278.78705      17057.309      16787.955      2588.4587      14199.496      1514.6561      4148.5865     -5915.8146      113.11073     -3859.6582      61974.657     -43776.042     -559.28502      66248.504      40.463057      40.463057      40.463057      1.2649219      258.03832      21.791275      556.53156    
     80500   80500          164.29294      108.21758      16847.395      16743.035      2634.2364      14108.798      1535.2495      4136.7031     -5929.8515      94.672634     -3863.1218      61914.591     -43779.445     -560.3364       66124.199      40.437734      40.437734      40.437734      1.2672997     -1607.3421      1677.5128      254.48201    
     81000   81000          162.96796      533.03626      17224.114      16710.551      2612.992       14097.559      1552.2346      4077.5019     -5932.5081      112.98564     -3883.1719      61944.362     -43773.845     -560.85134      66063.489      40.425354      40.425354      40.425354      1.2684644     -135.72272      661.08446      1073.747     
     81500   81500          157.80265      816.66088      17479.244      16691.411      2530.1726      14161.239      1514.8194      4058.3065     -5922.7572      127.84048     -3828.5534      61981.858     -43770.275     -560.13507      66147.967      40.442578      40.442578      40.442578      1.2668444      2358.0335     -145.18229      237.13139    
     82000   82000          155.0578       156.05945      16751.498      16601.415      2486.1623      14115.253      1501.0913      4119.5649     -5882.3869      122.22406     -3898.9273      61931.064     -43777.377     -561.87885      65942.677      40.400697      40.400697      40.400697      1.2707883      668.76204      244.11029     -444.69399    
     82500   82500          159.65719     -192.16901      16545.565      16731.215      2559.9078      14171.308      1561.5133      4104.0409     -5922.9834      114.38287     -3866.691       61954.152     -43773.107     -559.33703      66242.343      40.461803      40.461803      40.461803      1.2650395     -187.21758     -675.95705      286.66761    
     83000   83000          163.22861      152.62423      16837.196      16689.848      2617.1712      14072.677      1471.5105      4040.7692     -5890.9184      120.68352     -3890.2457      61996.659     -43775.781     -559.71106      66198.076      40.452788      40.452788      40.452788      1.2658854     -166.70893      236.55216      388.02946    
     83500   83500          154.34672      71.949173      16654.273      16585.012      2474.7609      14110.251      1508.3625      4095.897      -5924.4933      112.69783     -3882.7399      61973.904     -43773.378     -561.33136      66006.995      40.413828      40.413828      40.413828      1.26955        106.99765     -241.39369      350.24355    
     84000   84000          159.75291      586.56764      17276.153      16710.378      2561.4426      14148.936      1463.8294      4098.4705     -5880.9719      119.06596     -3835.5197      61955.105     -43771.044     -560.22196      66137.707      40.440487      40.440487      40.440487      1.2670409     -402.05174      775.48657      1386.2681    
     84500   84500          159.90104      667.47702      17358.48       16718.415      2563.8176      14154.597      1495.1125      4152.3713     -5908.5133      108.41        -3885.2392      61968.594     -43776.139     -563.50461      65752.427      40.361806      40.361806      40.361806      1.2744652     -207.51517      1219.9536      989.99265    
     85000   85000          163.21106      714.88949      17442.997      16752.53       2616.8898      14135.64       1458.9791      4119.0377     -5928.2839      114.35162     -3847.1583      61987.511     -43768.797     -559.47601      66225.889      40.458452      40.458452      40.458452      1.2653538     -332.75304      913.81268      1563.6088    
     85500   85500          162.07606     -600.27944      16142.891      16723.39       2598.6915      14124.699      1472.4752      4110.5595     -5894.4562      108.67843     -3847.3321      61948.841     -43774.066     -558.77493      66308.98       40.475366      40.475366      40.475366      1.2637682     -118.31635     -1390.9358     -291.58614    
     86000   86000          158.43521      724.6566       17352.957      16654.885      2540.3149      14114.57       1418.4866      4105.7323     -5877.1332      110.5526      -3860.2714      61993.108     -43775.905     -560.94049      66052.988      40.423212      40.423212      40.423212      1.268666      -118.69354      1206.8126      1085.8508    
     86500   86500          158.16655     -225.47044      16436.548      16654.576      2536.0073      14118.568      1425.0454      4126.4478     -5905.1511      117.83553     -3847.0643      61977.691     -43776.236     -558.80919      66304.915      40.474539      40.474539      40.474539      1.2638457     -674.30542     -348.29988      346.19397    
     87000   87000          163.95402      255.94442      17064.107      16817.638      2628.8022      14188.836      1481.8633      4121.6162     -5862.581       114.55283     -3881.9008      61988.754     -43773.468     -561.138        66029.74       40.418469      40.418469      40.418469      1.2691127     -868.26659     -98.989017      1735.0889    
     87500   87500          159.92621      302.41091      16930.227      16639.297      2564.2213      14075.076      1484.6544      4073.5384     -5925.2891      110.82051     -3861.132       61971.351     -43778.867     -561.68637      65965.275      40.405311      40.405311      40.405311      1.2703529      287.57695      642.50112     -22.845351    
     88000   88000          160.31946     -37.568276      16626.853      16662.978      2570.5264      14092.452      1473.9096      4077.7514     -5908.541       119.72084     -3885.4068      61988.418     -43773.401     -561.95844      65933.338      40.39879       40.39879       40.39879       1.2709683     -858.51033      608.95911      136.8464     
     88500   88500          159.07744      1144.3481      17820.886      16717.109      2550.6122      14166.497      1448.7616      4103.1446     -5879.6171      109.47542     -3822.5455      61981.323     -43774.045     -560.22451      66137.406      40.440426      40.440426      40.440426      1.2670467      1088.7965      1315.9265      1028.3215    
     89000   89000          160.57897      190.74435      16841.093      16656.931      2574.6874      14082.243      1480.1979      4106.7902     -5915.2182      113.11609     -3909.1345      61981.053     -43774.561     -559.67584      66202.242      40.453636      40.453636      40.453636      1.2658058      469.09164      354.79433     -251.65293    
     89500   89500          161.27721     -751.24441      15944.523      16671.646      2585.8828      14085.763      1484.1988      4131.0609     -5920.8156      118.44514     -3896.1211      61938.827     -43769.831     -558.28845      66366.76       40.487119      40.487119      40.487119      1.2626679     -787.67062     -242.39707     -1223.6655    
     90000   90000          162.14129     -573.0332       16162.252      16715.606      2599.7374      14115.869      1554.5323      4055.2127     -5915.0967      113.63537     -3891.987       61974.178     -43774.606     -559.57917      66213.68       40.455966      40.455966      40.455966      1.2655871      149.31189      599.88545     -2468.2969    
     90500   90500          163.57407      251.49523      16987.266      16744.864      2622.7102      14122.154      1501.2934      4104.104      -5907.967       111.86736     -3892.3624      61975.338     -43770.12      -560.63292      66089.226      40.430603      40.430603      40.430603      1.2679704     -602.87235      824.84438      532.51367    
     91000   91000          158.15676     -763.98073      15975.312      16715.46       2535.8502      14179.61       1526.8283      4159.436      -5918.3536      115.58886     -3891.8714      61957.279     -43769.297     -557.7618       66429.425      40.499858      40.499858      40.499858      1.2614768     -1501.3048     -1149.2493      358.61196    
     91500   91500          158.05408     -273.44049      16404.421      16668.577      2534.204       14134.373      1526.2605      4089.3438     -5924.1012      118.90007     -3866.8113      61960.965     -43770.184     -559.35456      66240.268      40.46138       40.46138       40.46138       1.2650791     -764.33588     -50.492126     -5.493455     
     92000   92000          161.15614      598.38867      17276.496      16698.382      2583.9416      14114.441      1472.0169      4128.6748     -5885.2259      106.70508     -3877.6909      61945.792     -43775.831     -559.31299      66245.19       40.462382      40.462382      40.462382      1.2649851     -156.00594      1816.892       134.27998    
     92500   92500          160.99842     -96.796222      16617.833      16711.235      2581.4127      14129.822      1523.0751      4104.8539     -5909.052       108.93476     -3889.0512      61967.186     -43776.124     -560.00028      66163.887      40.445822      40.445822      40.445822      1.2665396     -366.11222      431.33558     -355.61203    
     93000   93000          159.77058     -72.392574      16581.077      16650.88       2561.7259      14089.154      1468.5374      4073.036      -5914.135       113.08463     -3859.3345      61985.325     -43777.359     -560.40558      66116.037      40.43607       40.43607       40.43607       1.2674562     -1214.1409      569.23842      427.7248     
     93500   93500          158.0092      -556.81255      16051.662      16588.682      2533.4843      14055.198      1465.5513      4101.452      -5905.5853      111.20382     -3894.0041      61953.862     -43777.282     -560.27741      66131.161      40.439153      40.439153      40.439153      1.2671663     -1625.551       1.9396464     -46.826261    
     94000   94000          161.5709       351.39436      17045.158      16706.146      2590.5918      14115.554      1457.0128      4137.987      -5900.8764      118.13153     -3863.7132      61938.876     -43771.864     -560.09931      66152.19       40.443439      40.443439      40.443439      1.2667635      844.91283      174.61942      34.650835    
     94500   94500          162.6266      -234.80675      16511.896      16738.96       2607.5187      14131.441      1511.6824      4168.9593     -5928.9914      108.50923     -3883.1174      61929.126     -43774.727     -558.78753      66307.485      40.475062      40.475062      40.475062      1.2637967     -1463.7446      664.09162      95.232713    
     95000   95000          159.99601      245.55747      16931.929      16694.931      2565.3404      14129.591      1512.1077      4083.4503     -5932.083       105.29508     -3814.5854      61949.477     -43774.071     -559.87986      66178.119      40.448722      40.448722      40.448722      1.2662672      87.44362       346.34853      302.88025    
     95500   95500          160.93297     -617.33973      16128.659      16727.19       2580.3634      14146.827      1446.0925      4155.7618     -5907.2375      115.45794     -3838.4424      61946.958     -43771.764     -557.3433       66479.306      40.509992      40.509992      40.509992      1.2605303     -783.52286     -197.69778     -870.79855    
     96000   96000          160.94095     -194.8723       16504.277      16692.83       2580.4913      14112.339      1557.8258      4065.6464     -5938.6177      118.72512     -3852.694       61926.771     -43765.318     -558.47124      66345.039      40.482701      40.482701      40.482701      1.2630813     -521.28888     -18.223249     -45.104757    
     96500   96500          160.27953     -665.9503       16031.14       16674.007      2569.8863      14104.121      1535.771       4107.3842     -5914.9782      107.31537     -3896.895       61942.819     -43777.296     -559.7654       66191.65       40.451479      40.451479      40.451479      1.2660083     -2009.2905     -350.32265      361.76226    
     97000   97000          160.43236      1031.0961      17685.617      16692.35       2572.3368      14120.013      1505.8431      4042.1352     -5916.1059      124.25195     -3818.8819      61954.998     -43772.227     -560.94249      66052.754      40.423164      40.423164      40.423164      1.2686705      779.91794      1138.572       1174.7982    
     97500   97500          161.46432      496.4759       17195.103      16716.605      2588.8829      14127.722      1503.3131      4079.1276     -5908.0836      104.63293     -3873.5924      61992.278     -43769.953     -560.66473      66085.477      40.429839      40.429839      40.429839      1.2680423      1049.7714     -692.26342      1131.9197    
     98000   98000          159.19722      119.86574      16794.694      16679.064      2552.5327      14126.531      1534.7006      4072.448      -5915.7058      108.00282     -3864.1573      61960.088     -43768.845     -560.15531      66145.577      40.442091      40.442091      40.442091      1.2668902      433.60793      169.80222     -243.81294    
     98500   98500          154.80188     -867.4802       15777.476      16618.364      2482.0589      14136.305      1550.719       4109.6992     -5943.7682      115.10581     -3878.1977      61957.156     -43774.409     -557.45071      66466.497      40.50739       40.50739       40.50739       1.2607732     -1256.727      -814.35264     -531.361      
     99000   99000          159.80403     -673.34771      15984.161      16635.359      2562.2622      14073.097      1516.998       4063.6874     -5947.1103      105.44354     -3851.9666      61959.801     -43773.756     -558.74229      66312.854      40.476154      40.476154      40.476154      1.2636944     -1802.7997      114.18982     -331.43324    
     99500   99500          162.43538      464.32128      17162.799      16714.913      2604.4527      14110.46       1470.4992      4155.1499     -5898.1805      104.20206     -3926.4772      61976.389     -43771.123     -560.19041      66141.432      40.441246      40.441246      40.441246      1.2669696     -1092.4277      537.17156      1948.22      
    100000   100000         159.23722     -185.57317      16516.857      16696.218      2553.1741      14143.044      1510.6863      4054.5318     -5907.5178      109.4891      -3817.5469      61968.321     -43774.92      -559.07573      66273.304      40.468106      40.468106      40.468106      1.2644485      510.95964     -775.30295     -292.37619    
    100500   100500         159.24645     -202.48106      16466.984      16661.376      2553.3221      14108.053      1500.7346      4051.641      -5879.3279      106.33567     -3891.347       61987.273     -43767.255     -562.84845      65829.08       40.377485      40.377485      40.377485      1.2729812     -943.94383      142.77437      193.72628    
    101000   101000         159.43305     -138.5505       16583.614      16717.422      2556.314       14161.108      1491.6434      4142.7469     -5912.6299      117.48509     -3831.7635      61928.755     -43775.129     -559.51455      66221.327      40.457523      40.457523      40.457523      1.265441       80.968805      93.610165     -590.23046    
    101500   101500         164.58697     -358.40653      16394.495      16741.195      2638.9509      14102.244      1477.5593      4130.3961     -5912.4871      102.22834     -3896.7486      61969.787     -43768.491     -558.60951      66328.617      40.479361      40.479361      40.479361      1.2633941      153.69586     -407.91484     -821.00061    
    102000   102000         164.33005      427.5046       17111.145      16699.088      2634.8314      14064.257      1499.9602      4042.2689     -5893.5242      112.91054     -3874.4122      61956.015     -43778.961     -560.62021      66090.725      40.430909      40.430909      40.430909      1.2679416     -582.35959      798.65145      1066.2219    
    102500   102500         161.23467      132.91494      16847.718      16719.539      2585.2008      14134.338      1549.3714      4042.2805     -5925.5941      119.55674     -3836.3394      61959.672     -43774.609     -560.32722      66125.283      40.437955      40.437955      40.437955      1.267279       167.98951      592.42552     -361.67019    
    103000   103000         160.84993      564.71153      17246.764      16701.543      2579.032       14122.511      1479.0958      4054.2893     -5879.641       116.24766     -3830.1004      61959.685     -43777.065     -559.67961      66201.797      40.453546      40.453546      40.453546      1.2658143      741.13645      158.65537      794.34277    
    103500   103500         158.75422      441.59054      17087.897      16660.717      2545.4298      14115.288      1499.941       4134.2533     -5928.2055      110.74411     -3871.8536      61947.463     -43777.055     -558.591        66330.814      40.479808      40.479808      40.479808      1.2633522      796.45854      1153.8338     -625.52068    
    104000   104000         161.17349      172.14905      16849.959      16683.838      2584.2198      14099.618      1514.6104      4182.703      -5957.0029      111.37855     -3926.3638      61944.18      -43769.887     -559.96851      66167.641      40.446587      40.446587      40.446587      1.2664677     -332.98361      809.10078      40.329983    
    104500   104500         160.64093     -227.94522      16524.639      16745.406      2575.6809      14169.726      1512.9199      4155.528      -5901.3086      128.31625     -3883.4736      61928.74      -43770.996     -557.93054      66409.335      40.495775      40.495775      40.495775      1.2618585      176.8897      -235.24557     -625.47978    
    105000   105000         159.48162     -374.90823      16324.081      16685.914      2557.0927      14128.821      1513.9415      4098.1517     -5894.0936      117.57514     -3917.0782      61981.828     -43771.503     -559.88944      66176.986      40.448491      40.448491      40.448491      1.2662889     -1093.8179     -727.56564      696.65886    
    105500   105500         160.31784     -67.836001      16573.93       16639.394      2570.5006      14068.894      1505.6819      4062.9632     -5925.5356      116.68152     -3896.4744      61976.496     -43770.919     -559.93565      66171.525      40.447379      40.447379      40.447379      1.2663934     -249.39657      163.39397     -117.50541    
    106000   106000         162.25197     -501.2963       16189.712      16672.985      2601.512       14071.473      1515.9271      4065.7638     -5931.4202      103.41545     -3866.0859      61959.557     -43775.685     -560.51531      66103.093      40.433431      40.433431      40.433431      1.2677044     -1994.6514      82.359228      408.40327    
    106500   106500         161.25436     -396.86925      16350.823      16734.372      2585.5164      14148.856      1547.6962      4110.808      -5943.1051      106.89609     -3885.3826      61980.154     -43768.211     -559.12771      66267.142      40.466851      40.466851      40.466851      1.2645661     -960.76794      178.3723      -408.21212    
    107000   107000         160.93117      351.27943      17045.268      16705.033      2580.3345      14124.698      1545.4907      4099.3238     -5946.6106      104.54639     -3855.1083      61950.875     -43773.819     -557.90371      66412.529      40.496424      40.496424      40.496424      1.2617978     -553.84612      115.38164      1492.3028    
    107500   107500         162.3635       896.04324      17531.619      16667.987      2603.3002      14064.687      1433.9117      4073.949      -5883.992       108.22877     -3881.3453      61982.678     -43768.743     -560.64184      66088.175      40.430389      40.430389      40.430389      1.2679905      815.64129      724.48007      1148.0084    
    108000   108000         159.92711     -415.18184      16302.297      16703.839      2564.2356      14139.604      1520.4031      4135.5861     -5940.4877      104.85104     -3868.6381      61952.547     -43764.658     -558.71726      66315.825      40.476759      40.476759      40.476759      1.2636378     -805.23487      319.55062     -759.86126    
    108500   108500         161.0139      -747.15831      15978.845      16701.413      2581.6611      14119.752      1504.0809      4160.4368     -5927.716       111.18817     -3903.2741      61943.315     -43768.279     -558.75194      66311.709      40.475921      40.475921      40.475921      1.2637162     -1204.6576     -663.38447     -373.4328     
    109000   109000         161.09353      559.15054      17244.218      16705.52       2582.9377      14122.582      1536.937       4062.4186     -5929.1191      113.20242     -3838.9486      61949.377     -43771.285     -560.87778      66060.374      40.424719      40.424719      40.424719      1.2685242      117.9301       573.94932      985.57221    
    109500   109500         159.75261      562.54694      17242.484      16699.884      2561.4378      14138.446      1511.2617      4038.0436     -5904.0626      119.82117     -3800.0528      61942.922     -43769.487     -560.22706      66137.105      40.440364      40.440364      40.440364      1.2670524      196.14468      82.656221      1408.8399    
    110000   110000         159.12924     -162.83823      16467.791      16625.004      2551.4427      14073.561      1491.5946      4078.0763     -5928.4367      101.80482     -3846.0373      61948.631     -43772.071     -559.69597      66199.862      40.453152      40.453152      40.453152      1.2658513      274.60135     -384.16129     -378.95476    
    110500   110500         159.40448     -405.39542      16266.297      16657.019      2555.856       14101.163      1571.5246      4058.0699     -5937.9077      121.75654     -3898.2411      61957.101     -43771.14      -560.65572      66086.538      40.430055      40.430055      40.430055      1.2680219     -1251.4248     -614.21277      649.45131    
    111000   111000         160.65019      224.65319      16883.962      16666.837      2575.8294      14091.008      1504.4516      4071.4652     -5902.1156      103.83517     -3879.8043      61964.762     -43771.587     -559.09757      66270.716      40.467579      40.467579      40.467579      1.2644979     -736.60583     -39.882463      1450.4478    
    111500   111500         162.15707     -9.7489186      16687.253      16696.679      2599.9903      14096.689      1508.9317      4126.9362     -5946.9001      102.03989     -3888.6005      61962.023     -43767.741     -558.88932      66295.408      40.472604      40.472604      40.472604      1.2640269     -764.17611     -178.75941      913.68876    
    112000   112000         161.33523      54.711654      16796.478      16743.593      2586.8132      14156.78       1512.4457      4092.5462     -5921.1634      119.9107      -3869.8734      61990.574     -43767.66      -559.0284       66278.915      40.469248      40.469248      40.469248      1.2643415     -215.06413     -390.89707      770.09617    
    112500   112500         161.35969     -190.08184      16532.034      16715.681      2587.2052      14128.476      1552.0808      4059.9878     -5897.3817      109.00908     -3877.7642      61956.898     -43774.354     -559.29547      66247.265      40.462805      40.462805      40.462805      1.2649455     -1272.6297      268.89247      433.49171    
    113000   113000         158.03369     -718.62837      15978.614      16671.928      2533.877       14138.051      1553.1611      4112.573      -5918.2974      121.90177     -3906.3         61946.052     -43771.04      -560.09233      66153.014      40.443607      40.443607      40.443607      1.2667477     -98.252894     -824.05137     -1233.5809    
    113500   113500         159.19902     -127.52945      16567.522      16691.138      2552.5616      14138.577      1547.1914      4133.1468     -5940.7796      110.1162      -3884.8843      61939.088     -43765.302     -557.46871      66464.351      40.506954      40.506954      40.506954      1.260814      -649.04384     -588.26416      854.71963    
    114000   114000         160.38737     -667.33792      16018.132      16664.36       2571.6153      14092.745      1530.6922      4119.2944     -5955.8876      99.43552      -3886.013       61951.46      -43766.237     -558.01391      66399.413      40.493758      40.493758      40.493758      1.262047      -1135.0102     -228.36675     -638.63683    
    114500   114500         158.61133      54.922733      16729.091      16676.113      2543.1388      14132.975      1479.4758      4100.2797     -5894.0114      121.09827     -3867.0676      61966.39      -43773.19      -560.19883      66140.438      40.441044      40.441044      40.441044      1.2669886     -528.66678     -391.26067      1084.6956    
    115000   115000         158.82472      993.28354      17618.327      16661.89       2546.5602      14115.33       1458.2977      4081.4999     -5897.14        113.74111     -3850.2027      61982.805     -43773.671     -561.17965      66024.838      40.417469      40.417469      40.417469      1.2692069      135.71851      1653.7893      1190.3428    
    115500   115500         161.71415      236.76185      16933.911      16705.675      2592.8887      14112.787      1503.9453      4104.6658     -5939.2011      103.77056     -3829.6899      61945.261     -43775.965     -560.54882      66099.142      40.432625      40.432625      40.432625      1.2677802     -130.90342      1070.4326     -229.24363    
    116000   116000         161.69503     -108.1308       16700.911      16805.641      2592.5822      14213.059      1512.9145      4117.0587     -5877.8876      115.41204     -3872.7019      61989.092     -43770.828     -557.91149      66411.602      40.496235      40.496235      40.496235      1.2618154      446.56536      771.38477     -1542.3425    
    116500   116500         157.15006      653.77826      17328.34       16696.72       2519.709       14177.011      1492.9464      4091.3077     -5911.8179      110.97335     -3796.6271      61962.27      -43772.042     -559.319        66244.479      40.462238      40.462238      40.462238      1.2649987      894.70515      256.91987      809.70975    
    117000   117000         156.76867     -440.39697      16248.465      16673.745      2513.5939      14160.151      1553.6825      4157.0467     -5907.4574      112.95964     -3917.2177      61936.591     -43775.454     -559.57016      66214.746      40.456183      40.456183      40.456183      1.2655667     -1068.4235      646.67004     -899.43744    
    117500   117500         160.29106      32.520104      16748.307      16716.971      2570.0712      14146.9        1489.4448      4112.9008     -5903.121       117.50444     -3847.4503      61942.57      -43764.949     -560.77015      66073.053      40.427305      40.427305      40.427305      1.2682808     -265.58861      450.32622     -87.177299    
    118000   118000         160.96744      35.338955      16749.215      16715.168      2580.9161      14134.252      1528.5669      4090.1662     -5904.0094      111.81127     -3885.1653      61965.066     -43772.184     -560.86353      66062.052      40.425061      40.425061      40.425061      1.2684919     -737.76198     -1096.8086      1940.5874    
    118500   118500         157.36256     -1129.5314      15560.186      16654.602      2523.1162      14131.486      1494.863       4128.3356     -5918.0445      115.3217      -3906.3515      61985.696     -43768.334     -557.70063      66436.712      40.501339      40.501339      40.501339      1.2613385     -2639.8943     -282.25861     -466.4412     
    119000   119000         160.27719     -61.359454      16550.524      16609.65       2569.8488      14039.801      1458.428       4100.0394     -5908.526       112.45224     -3945.6617      61997.012     -43773.943     -560.77696      66072.25       40.427141      40.427141      40.427141      1.2682962     -1514.2242      1401.1567     -71.010839    
    119500   119500         162.68626      212.53783      16877.14       16672.12       2608.4753      14063.645      1494.6952      4097.9179     -5922.3194      104.91739     -3871.816       61937.961     -43777.712     -560.17771      66142.932      40.441552      40.441552      40.441552      1.2669408      136.1468      -453.79972      955.26642    
    120000   120000         163.2091       270.1611       16982.482      16721.445      2616.8583      14104.587      1540.4162      4044.5284     -5954.5886      100.52536     -3811.5361      61952.786     -43767.544     -559.24961      66252.698      40.463911      40.463911      40.463911      1.2648418      391.37905     -140.28463      559.38887    
    120500   120500         161.80097      966.86033      17634.81       16702.611      2594.2807      14108.331      1502.9009      4027.9266     -5892.2945      120.87267     -3868.1782      61984.028     -43766.925     -560.45429      66110.29       40.434898      40.434898      40.434898      1.2675664      770.05408      1328.4868      802.04007    
    121000   121000         160.81068     -224.70259      16466.512      16683.669      2578.4027      14105.266      1562.9424      4126.6317     -5957.74        105.2938      -3915.9627      61951.339     -43767.238     -559.13746      66265.987      40.466616      40.466616      40.466616      1.2645881     -847.56004      152.10262      21.349648    
    121500   121500         160.73254      5.4369013      16677.875      16672.634      2577.1498      14095.484      1550.7138      4068.5973     -5933.5132      107.79619     -3855.7887      61929.157     -43771.478     -560.51122      66103.576      40.433529      40.433529      40.433529      1.2676951     -1451.9776      394.48686      1073.8014    
    122000   122000         160.45477     -205.98238      16494.345      16692.623      2572.696       14119.927      1533.9299      4076.65       -5909.5588      97.959889     -3857.1071      61953.923     -43775.869     -561.35849      66003.805      40.413177      40.413177      40.413177      1.2696114     -617.59098      34.932359     -35.288509    
    122500   122500         161.16004     -195.1115       16556.144      16744.367      2584.0042      14160.362      1458.2784      4154.9094     -5871.6411      124.449       -3922.9036      61985.003     -43767.733     -560.14038      66147.339      40.44245       40.44245       40.44245       1.2668564     -420.20646     -604.26113      439.13311    
    123000   123000         161.08934     -323.35645      16393.906      16706.312      2582.8706      14123.442      1481.878       4141.9947     -5897.8258      106.53796     -3885.3817      61951.936     -43775.698     -559.30343      66246.324      40.462613      40.462613      40.462613      1.2649635     -392.82261     -1031.1363      453.88953    
    123500   123500         159.30479      450.34821      17111.656      16676.736      2554.2576      14122.478      1512.4305      4136.628      -5959.6475      109.95912     -3890.0016      61981.526     -43768.416     -559.53114      66219.363      40.457123      40.457123      40.457123      1.2654785      355.42121      452.5043       543.11911    
    124000   124000         157.64276     -225.03472      16450.695      16668.489      2527.6089      14140.88       1494.0529      4085.8033     -5908.197       116.27506     -3855.346       61977.653     -43769.361     -558.32622      66362.271      40.486206      40.486206      40.486206      1.2627534     -41.800396     -185.02177     -448.28199    
    124500   124500         160.11914     -397.5103       16312.993      16698.427      2567.3146      14131.113      1527.7387      4121.5478     -5933.5171      116.72232     -3871.2693      61941.832     -43771.942     -557.29211      66485.412      40.511232      40.511232      40.511232      1.2604145     -770.83622     -832.91029      411.21561    
    125000   125000         158.1912      -171.84587      16490.059      16656.044      2536.4024      14119.641      1575.7906      4117.5953     -5981.7496      115.04721     -3882.0651      61947.932     -43772.909     -559.44386      66229.694      40.459227      40.459227      40.459227      1.2652811     -1450.6981     -30.74934       965.90978    
    125500   125500         161.8873      -288.78054      16433.219      16713.871      2595.6649      14118.206      1517.4646      4116.1516     -5922.0767      111.58243     -3869.4247      61932.533     -43768.024     -556.01218      66638.461      40.542294      40.542294      40.542294      1.2575198     -1162.1841     -18.07159       313.91405    
    126000   126000         162.16292      91.573495      16838.535      16750.195      2600.0842      14150.111      1461.7629      4118.697      -5914.4975      110.88345     -3859.6027      62002.555     -43769.687     -560.14303      66147.027      40.442387      40.442387      40.442387      1.2668624     -374.43394      1007.9192     -358.76476    
    126500   126500         160.27169      391.54571      17055.728      16678.884      2569.7606      14109.123      1459.1635      4072.0513     -5881.7414      108.93        -3852.4254      61971.561     -43768.416     -561.44383      65993.772      40.411129      40.411129      40.411129      1.2698044     -579.45297      931.80902      822.2811     
    127000   127000         158.9615      -1136.0069      15570.948      16668.229      2548.7534      14119.476      1533.0592      4173.1445     -5948.6831      112.67797     -3929.5302      61952.747     -43773.939     -559.43305      66230.974      40.459488      40.459488      40.459488      1.2652567     -1112.9906     -1638.9691     -656.06102    
    127500   127500         160.49658      137.10526      16805.223      16672.857      2573.3664      14099.491      1516.6793      4124.2819     -5959.6807      106.83772     -3901.5137      61981.55      -43768.664     -559.71126      66198.053      40.452783      40.452783      40.452783      1.2658859      603.82419     -414.92333      222.41492    
    128000   128000         159.68891     -559.40623      16131.794      16673.317      2560.4164      14112.9        1521.7252      4101.0428     -5916.7395      111.14791     -3887.0952      61954.242     -43771.423     -558.20778      66376.352      40.489069      40.489069      40.489069      1.2624855     -1259.1861      345.99109     -765.02372    
    128500   128500         159.95161      156.18449      16847.341      16696.232      2564.6285      14131.603      1556.0485      4064.2028     -5923.788       121.59584     -3881.3506      61967.644     -43772.749     -558.51013      66340.419      40.481762      40.481762      40.481762      1.2631693     -597.49098     -34.069324      1100.1138    
    129000   129000         159.91875      91.99117       16793.539      16704.599      2564.1017      14140.498      1572.5372      4104.6232     -5960.42        115.25292     -3882.0795      61961.058     -43770.474     -558.9057       66293.466      40.472209      40.472209      40.472209      1.264064       595.78854     -444.71882      124.90379    
    129500   129500         162.59187     -448.99014      16329.969      16763.884      2606.9619      14156.923      1520.9821      4093.0494     -5908.5568      112.44734     -3842.9322      61955.956     -43774.024     -559.13504      66266.274      40.466675      40.466675      40.466675      1.2645827     -962.73526      226.31975     -610.55492    
    130000   130000         162.51835      410.49475      17114.137      16717.082      2605.7831      14111.299      1488.2003      4097.0459     -5903.8131      111.7766      -3850.6109      61949.545     -43780.844     -558.65408      66323.325      40.478284      40.478284      40.478284      1.2634949     -88.663645     -28.363023      1348.5109    
    130500   130500         159.89125      177.63855      16857.273      16685.427      2563.6607      14121.766      1544.4907      4105.7835     -5938.7704      98.484948     -3864.9189      61948.247     -43771.551     -558.57649      66332.537      40.480158      40.480158      40.480158      1.2633194     -855.14541      420.83597      967.22509    
    131000   131000         157.64042      349.5734       16992.812      16656.054      2527.5714      14128.482      1487.6495      4072.1919     -5946.9955      114.89146     -3836.3741      62005.647     -43768.528     -560.92615      66054.677      40.423557      40.423557      40.423557      1.2686336      67.426646     -81.301572      1062.5951    
    131500   131500         161.19212      143.82772      16838.73       16699.75       2584.5185      14115.232      1545.713       4098.2135     -5951.1592      107.45807     -3862.0482      61950.194     -43773.14      -559.21196      66257.159      40.464819      40.464819      40.464819      1.2647566     -138.69752      236.09528      334.0854     
    132000   132000         163.05635     -556.15394      16235.945      16773.045      2614.4093      14158.636      1511.5811      4119.5514     -5928.7139      112.68116     -3836.324       61953.913     -43774.053     -559.53145      66219.327      40.457116      40.457116      40.457116      1.2654792     -79.484609     -686.43196     -902.54525    
    132500   132500         161.54861      848.75603      17546.659      16728.3        2590.2344      14138.066      1564.4937      4096.0996     -5948.8913      111.11096     -3866.4991      61955.917     -43774.165     -560.43354      66112.738      40.435397      40.435397      40.435397      1.2675194      2.7930209      477.80999      2065.6651    
    133000   133000         161.48948      269.33548      16942.017      16682.785      2589.2863      14093.499      1477.8711      4088.9001     -5900.2274      101.30146     -3911.3608      62004.406     -43767.391     -561.42324      65996.192      40.411623      40.411623      40.411623      1.2697578     -752.07071      99.243606      1460.8335    
    133500   133500         158.64332     -813.34787      15851.706      16637.968      2543.6516      14094.316      1532.2383      4098.4694     -5929.0403      100.74241     -3888.6385      61951.33      -43770.785     -558.97731      66284.973      40.470481      40.470481      40.470481      1.2642259     -1347.4434     -1030.1009     -62.499325    
    134000   134000         159.09199      1067.2522      17709.548      16678.739      2550.8455      14127.893      1463.7106      4146.1287     -5957.6323      113.22115     -3833.8897      61970.983     -43774.629     -559.46599      66227.075      40.458694      40.458694      40.458694      1.2653312     -16.694026      2256.7884      961.66237    
    134500   134500         161.51771      341.03761      17065.869      16736.235      2589.7391      14146.496      1499.7863      4130.838      -5924.5647      119.6195      -3876.6158      61968.739     -43771.306     -559.05686      66275.541      40.468561      40.468561      40.468561      1.2644058     -176.42564      18.815767      1180.7227    
    135000   135000         159.89366     -865.38741      15877.338      16716.807      2563.6994      14153.108      1537.0921      4079.6392     -5909.4606      122.59086     -3845.2337      61944.84      -43776.36      -557.04593      66514.795      40.517199      40.517199      40.517199      1.2598578     -623.35433     -848.7816      -1124.0263    
    135500   135500         160.50053     -779.20123      15908.22       16661.146      2573.4298      14087.717      1534.3574      4128.0959     -5952.298       114.63588     -3915.7589      61946.474     -43767.79      -559.2197       66256.242      40.464633      40.464633      40.464633      1.2647741     -1341.8963     -1059.0503      63.342869    
    136000   136000         163.00318      100.67267      16796.014      16698.931      2613.5566      14085.374      1479.4125      4055.8739     -5903.5138      101.66729     -3884.0735      62000.404     -43764.397     -560.34308      66123.411      40.437573      40.437573      40.437573      1.2673148      368.57998      177.99242     -244.55438    
    136500   136500         161.9199       184.68848      16950.495      16772.304      2596.1877      14176.116      1482.0466      4084.6091     -5911.0949      120.614       -3803.6206      61979.96      -43776.398     -560.06665      66156.047      40.444225      40.444225      40.444225      1.2666897     -308.78905     -114.31269      977.16719    
    137000   137000         162.33728      641.02682      17323.07       16704.76       2602.8797      14101.88       1509.5558      4046.9245     -5904.7531      115.40701     -3806.31        61914.592     -43773.536     -560.21538      66138.483      40.440645      40.440645      40.440645      1.267026       796.23358      738.08133      388.76556    
    137500   137500         158.62842      216.59831      16855.048      16646.371      2543.4128      14102.958      1494.3389      4077.0251     -5904.3455      115.6705      -3881.1427      61969.479     -43768.067     -560.87516      66060.683      40.424782      40.424782      40.424782      1.2685182     -626.17634     -210.14982      1486.1211    
    138000   138000         158.72048     -260.93793      16405.376      16657.755      2544.8888      14112.866      1509.4371      4092.3756     -5920.1917      122.94945     -3876.1697      61957.747     -43773.282     -558.68759      66319.347      40.477475      40.477475      40.477475      1.2635707     -456.77271     -499.28925      173.24816    
    138500   138500         159.19427     -163.19467      16514.256      16672.133      2552.4855      14119.648      1562.0417      4084.0332     -5956.2744      128.655       -3907.9889      61978.61      -43769.429     -558.56366      66334.061      40.480468      40.480468      40.480468      1.2632904     -766.75485      54.458164      222.71268    
    139000   139000         161.53122     -375.0899       16351.128      16714.487      2589.9557      14124.532      1556.9289      4145.8536     -5935.6038      106.32086     -3866.0128      61893.208     -43776.163     -557.80676      66424.071      40.49877       40.49877       40.49877       1.2615785     -850.08469     -188.41517     -86.769836    
    139500   139500         158.52171      651.85327      17300.663      16672.287      2541.7018      14130.585      1494.3641      4094.3584     -5925.9264      116.50073     -3844.9191      61967.301     -43771.094     -560.55065      66098.926      40.432581      40.432581      40.432581      1.2677843     -339.54271      886.12714      1408.9754    
    140000   140000         158.56009     -300.10195      16374.503      16664.198      2542.3172      14121.881      1506.4438      4094.9618     -5923.917       125.42829     -3858.6185      61955.452     -43777.869     -559.77405      66190.628      40.451271      40.451271      40.451271      1.2660279     -462.69928     -271.10764     -166.49893    
    140500   140500         161.75135     -244.43256      16426.365      16662.018      2593.4852      14068.532      1500.9886      4086.4705     -5933.875       115.35683     -3886.3962      61958.589     -43772.601     -560.49614      66105.354      40.433892      40.433892      40.433892      1.267661      -263.84269     -78.651556     -390.80342    
    141000   141000         163.3108       153.90385      16862.338      16713.659      2618.489       14095.17       1474.6051      4087.7256     -5933.0612      121.31206     -3854.8282      61974.001     -43774.584     -559.35251      66240.51       40.46143       40.46143       40.46143       1.2650745     -83.602138      1263.6415     -718.3278     
    141500   141500         156.6515       485.65054      17055.239      16585.663      2511.7152      14073.948      1558.3261      4108.4369     -5962.9963      112.82569     -3924.3643      61953.516     -43771.797     -558.85994      66298.894      40.473314      40.473314      40.473314      1.2639605     -148.20989      648.98291      956.1786     
    142000   142000         158.44123      240.01985      16875.958      16644.047      2540.4115      14103.635      1572.834       4082.0685     -5969.9367      111.57556     -3868.0591      61949.624     -43774.471     -559.25594      66251.949      40.463758      40.463758      40.463758      1.2648561     -735.43208      898.27223      557.21942    
    142500   142500         162.2586      -33.893338      16656.201      16688.899      2601.6183      14087.281      1530.6124      4088.8015     -5908.6129      100.24531     -3903.8852      61947.226     -43767.107     -560.12451      66149.213      40.442832      40.442832      40.442832      1.2668205     -1225.9838      896.85117      227.45266    
    143000   143000         161.18901     -765.86568      15983.375      16722.426      2584.4686      14137.957      1511.9566      4097.2214     -5906.972       115.96387     -3872.0564      61961.83      -43769.987     -559.96828      66167.669      40.446593      40.446593      40.446593      1.2664672     -1755.2634      60.603553     -602.93723    
    143500   143500         163.30416     -16.420574      16780.099      16796.038      2618.3826      14177.656      1509.9814      4141.2692     -5925.1715      118.24346     -3840.2871      61942.55      -43768.93      -556.69328      66556.93       40.525753      40.525753      40.525753      1.2590602      11.836064      359.59195     -420.68974    
    144000   144000         157.92963      487.36326      17109.823      16639.571      2532.2086      14107.362      1544.9578      4046.1346     -5922.3079      114.66578     -3871.2294      61965.842     -43770.7       -560.02463      66161.011      40.445236      40.445236      40.445236      1.2665946     -212.2261       1335.5323      338.78362    
    144500   144500         157.56881      347.23733      16975.27       16639.882      2526.4232      14113.459      1510.5893      4104.7725     -5899.8919      110.8382      -3869.2026      61926.051     -43769.698     -559.4535       66228.553      40.458995      40.458995      40.458995      1.2653029      310.97287      574.4128       156.32632    
    145000   145000         163.30805      190.80332      16961.35       16777.954      2618.445       14159.509      1487.7949      4150.5701     -5945.7498      109.04337     -3853.8743      61977.837     -43766.113     -562.1876       65906.462      40.3933        40.3933        40.3933        1.2714866     -170.13049      445.78936      296.75109    
    145500   145500         159.77305      284.10101      16950.729      16676.844      2561.7655      14115.078      1471.2068      4105.0315     -5938.1796      114.47156     -3857.8126      61991.006     -43770.645     -560.51746      66102.84       40.433379      40.433379      40.433379      1.2677092      638.68213     -346.8262       560.44709    
    146000   146000         161.51547      316.18403      17029.764      16725.483      2589.703       14135.779      1499.026       4137.1318     -5915.3965      108.37968     -3866.8554      61943.049     -43769.555     -561.49952      65987.226      40.409793      40.409793      40.409793      1.2699304      433.38014      621.27294     -106.10099    
    146500   146500         160.49458      146.53527      16889.408      16747.871      2573.3343      14174.537      1515.5372      4167.4038     -5945.9577      122.54272     -3874.1231      61962.556     -43773.422     -559.44753      66229.26       40.459139      40.459139      40.459139      1.2652894     -543.92551      301.07834      682.45299    
    147000   147000         163.65519      401.10715      17149.109      16762.083      2624.0108      14138.073      1523.0701      4092.2825     -5955.9857      118.04358     -3859.5083      61983.469     -43763.298     -560.02322      66161.178      40.44527       40.44527       40.44527       1.2665914     -613.65704      1484.2751      332.70334    
    147500   147500         161.67145      808.09972      17467.087      16687.61       2592.2039      14095.406      1483.7944      4097.7281     -5912.5632      113.99496     -3879.0664      61957.136     -43765.618     -560.20438      66139.783      40.44091       40.44091       40.44091       1.2670012      178.60624      242.21569      2003.4772    
    148000   148000         158.68814     -714.75617      15979.367      16673.101      2544.3703      14128.73       1508.3287      4074.8558     -5891.7144      111.09215     -3872.2563      61966.911     -43768.486     -556.73741      66551.654      40.524682      40.524682      40.524682      1.25916       -180.01827     -1352.2298     -612.02042    
    148500   148500         159.62695     -654.63892      16016.118      16647.486      2559.4229      14088.063      1543.9126      4100.5891     -5915.8562      115.48175     -3947.281       61955.841     -43764.624     -560.27896      66130.979      40.439116      40.439116      40.439116      1.2671698     -1749.9201     -582.17365      368.17695    
    149000   149000         157.68292     -171.75021      16459.285      16624.925      2528.2528      14096.672      1500.9273      4113.5659     -5944.4422      114.42522     -3874.4748      61957.772     -43771.102     -560.29706      66128.842      40.43868       40.43868       40.43868       1.2672108     -1074.2993      291.07692      267.97172    
    149500   149500         159.07564     -485.89467      16230.406      16699.479      2550.5833      14148.895      1492.933       4109.9475     -5904.5968      110.14977     -3822.5735      61935.893     -43772.858     -559.74084      66194.555      40.45207       40.45207       40.45207       1.2659528     -695.15608     -429.59311     -332.93482    
    150000   150000         161.85927      905.31478      17601.646      16729.037      2595.2155      14133.822      1491.7115      4140.1158     -5923.536       121.57709     -3862.8261      61938.516     -43771.736     -560.61574      66091.251      40.431016      40.431016      40.431016      1.2679315      1269.8145      824.05899      622.0708     
    150500   150500         163.0196       111.42763      16844.517      16737.378      2613.82        14123.558      1538.5532      4092.0851     -5900.6941      119.83922     -3923.4521      61969.411     -43772.184     -561.99284      65929.302      40.397965      40.397965      40.397965      1.2710461     -701.02968      289.85424      745.45835    
    151000   151000         160.20393     -381.8261       16348.871      16717.818      2568.6741      14149.144      1547.4814      4110.5632     -5903.6452      125.40517     -3884.1065      61930.465     -43777.019     -559.22541      66255.565      40.464495      40.464495      40.464495      1.2647871      316.67601     -9.4380664     -1452.7162    
    151500   151500         158.61493      919.19068      17551.653      16667.478      2543.1965      14124.282      1474.06        4106.9255     -5905.4428      112.05852     -3842.9953      61950.06      -43770.385     -561.76251      65956.335      40.403486      40.403486      40.403486      1.2705251     -248.42044      1712.5053      1293.4872    
    152000   152000         160.08171     -16.652542      16689.382      16705.43       2566.7145      14138.716      1516.8453      4108.1112     -5932.6799      118.28215     -3860.8801      61961.003     -43771.966     -560.69616      66081.771      40.429083      40.429083      40.429083      1.2681134     -1183.618       543.1908       590.4696     
    152500   152500         159.63546      214.3343       16960.888      16753.453      2559.5593      14193.893      1488.7246      4217.1145     -5915.2867      109.08604     -3894.5204      61953.258     -43764.483     -558.33504      66361.223      40.485993      40.485993      40.485993      1.2627733     -528.99565      622.45934      549.5392     
    153000   153000         160.26335      20.037011      16721.052      16701.678      2569.6268      14132.051      1495.3324      4118.8319     -5931.3206      126.55442     -3887.6286      61974.241     -43763.959     -558.87444      66297.173      40.472963      40.472963      40.472963      1.2639933      415.62732     -727.80189      372.2856     
    153500   153500         161.86671      196.8123       16895.611      16705.985      2595.3347      14110.65       1508.2688      4124.2957     -5940.5719      109.21196     -3852.9521      61939.007     -43776.609     -560.84033      66064.785      40.425619      40.425619      40.425619      1.2684395     -341.53655      690.20143      241.77203    
    154000   154000         160.82599     -486.06808      16225.832      16693.66       2578.6481      14115.012      1550.1927      4118.5627     -5940.7874      126.06854     -3885.2807      61920.346     -43774.09      -561.43042      65995.348      40.411451      40.411451      40.411451      1.2697741     -1488.9321      134.36104     -103.6332     
    154500   154500         160.85807      464.99922      17200.374      16751.165      2579.1625      14172.002      1512.2939      4117.2597     -5938.3397      128.62834     -3845.9508      61965.985     -43767.875     -559.35616      66240.078      40.461342      40.461342      40.461342      1.2650828     -114.58188      1160.8955      348.68405    
    155000   155000         160.4727       633.10299      17341.915      16730.326      2572.9836      14157.342      1507.5474      4138.3077     -5947.8571      116.15174     -3851.0699      61964.828     -43770.565     -559.37068      66238.358      40.460991      40.460991      40.460991      1.2651156      48.120025      538.97644      1312.2125    
    155500   155500         159.84455      865.04237      17501.655      16666.87       2562.9119      14103.959      1551.548       4080.1934     -5958.2137      128.41101     -3854.6119      61929.841     -43773.21      -559.94854      66170.001      40.447068      40.447068      40.447068      1.2664225      104.89699      1328.9         1161.3301    
    156000   156000         160.61004      329.11823      17022.518      16704.736      2575.1857      14129.55       1499.9729      4125.7177     -5893.3369      110.57898     -3860.6887      61922.011     -43774.705     -559.63886      66206.618      40.454528      40.454528      40.454528      1.2657221      65.173117      1317.2971     -395.11554    
    156500   156500         161.21103      183.70373      16901.162      16724.083      2584.8218      14139.262      1488.5039      4182.9247     -5945.3602      112.6007      -3907.2654      61979.693     -43771.835     -560.57817      66095.681      40.43192       40.43192       40.43192       1.2678465     -810.96289      1366.1911     -4.1170423    
    157000   157000         160.42686     -630.47604      16146.127      16754.32       2572.2486      14182.072      1527.3919      4098.3905     -5898.0565      112.26681     -3873.4197      61986.127     -43770.629     -560.15984      66145.041      40.441982      40.441982      40.441982      1.2669004     -1202.2458     -160.19804     -528.98428    
    157500   157500         162.61596      775.47818      17454.347      16708.916      2607.3481      14101.568      1501.7032      4114.9592     -5911.0913      110.24924     -3881.2043      61937.881     -43770.929     -562.14348      65911.634      40.394356      40.394356      40.394356      1.2713868      706.58451      1050.8821      568.96796    
    158000   158000         159.95009      37.218005      16683.708      16647.789      2564.6042      14083.185      1521.1076      4129.0892     -5964.1359      105.02478     -3912.0566      61966.904     -43762.748     -559.91371      66174.118      40.447907      40.447907      40.447907      1.2663438     -728.93828     -320.23728      1160.8296    
    158500   158500         159.33915      711.2163       17359.741      16671.132      2554.8084      14116.324      1517.1959      4057.3021     -5935.0664      117.74378     -3862.4089      61992.599     -43771.042     -558.10284      66388.832      40.491607      40.491607      40.491607      1.2622482      1112.9379      281.46863      739.24233    
    159000   159000         160.99907     -247.3357       16450.117      16688.186      2581.4231      14106.763      1524.0564      4107.3099     -5930.8092      124.79921     -3888.3812      61939.824     -43770.036     -561.39415      65999.611      40.412321      40.412321      40.412321      1.269692      -1594.0505      777.84369      74.199738    
    159500   159500         162.96443     -276.87353      16462.391      16730.072      2612.9354      14117.137      1516.784       4106.1555     -5928.448       121.32927     -3862.1163      61945.259     -43781.826     -558.91755      66292.06       40.471923      40.471923      40.471923      1.2640908      518.51731     -861.63309     -487.50482    
    160000   160000         160.98957      212.60987      16956.842      16752.125      2581.2709      14170.854      1544.8615      4126.427      -5894.3838      116.31079     -3902.5114      61951.789     -43771.638     -561.19653      66022.853      40.417064      40.417064      40.417064      1.2692451     -1283.2572      810.09655      1110.9902    
    160500   160500         157.80374     -271.38273      16391.344      16653.738      2530.19        14123.548      1524.1263      4169.4029     -5967.6289      114.54502     -3899.1307      61943.136     -43760.902     -558.87319      66297.322      40.472994      40.472994      40.472994      1.2639904     -1050.7802      589.50793     -352.87593    
    161000   161000         161.13121      613.54201      17264.425      16672.144      2583.542       14088.602      1530.5072      4106.1614     -5963.2343      116.03582     -3849.7003      61920.497     -43771.665     -559.75918      66192.386      40.451629      40.451629      40.451629      1.2659943      672.22873     -3.8339816      1172.2313    
    161500   161500         160.89046     -43.821599      16654.108      16696.427      2579.6818      14116.745      1513.4079      4084.6196     -5957.2628      125.30674     -3848.1957      61970.19      -43771.321     -559.56038      66215.903      40.456419      40.456419      40.456419      1.2655446     -513.15626      833.97543     -452.28397    
    162000   162000         161.58059      633.06022      17358.025      16749.256      2590.7472      14158.509      1502.4132      4130.7732     -5920.2855      110.83634     -3879.711       61982.202     -43767.719     -561.92358      65937.429      40.399625      40.399625      40.399625      1.2708894     -273.28184      1681.8034      490.65906    
    162500   162500         161.98442     -136.17453      16563.565      16695.071      2597.2222      14097.848      1469.881       4111.7505     -5894.5978      118.46364     -3892.897       61957.492     -43772.244     -559.54944      66217.198      40.456682      40.456682      40.456682      1.2655199     -396.25506     -163.6584       151.38989    
    163000   163000         160.9371      -110.35238      16564.631      16670.986      2580.4297      14090.556      1497.3314      4078.2977     -5893.9058      106.50244     -3870.0621      61943.324     -43770.931     -560.6724       66084.572      40.429654      40.429654      40.429654      1.2680597     -1118.8673      4.7324705      783.07768    
    163500   163500         159.34416     -296.84231      16401.978      16688.74       2554.8888      14133.851      1495.5268      4077.1727     -5884.4857      110.85503     -3874.8419      61982.462     -43772.838     -559.35754      66239.914      40.461308      40.461308      40.461308      1.2650859     -1170.8041      511.44399     -231.16678    
    164000   164000         163.24019      529.20953      17232.679      16721.701      2617.3568      14104.344      1477.5001      4128.5437     -5904.9672      109.67129     -3860.9987      61925.59      -43770.995     -559.64202      66206.243      40.454451      40.454451      40.454451      1.2657293     -62.637867     -320.36082      1970.6273    
    164500   164500         163.35649     -277.34089      16486.012      16753.908      2619.2216      14134.686      1486.5715      4122.9806     -5917.2308      119.91787     -3875.3238      61964.476     -43766.706     -559.41403      66233.225      40.459946      40.459946      40.459946      1.2652137     -2373.8187      795.55186      746.24415    
    165000   165000         161.85844      91.988519      16795.399      16706.452      2595.2021      14111.25       1520.3131      4079.0509     -5934.6738      104.8936      -3871.1692      61979.246     -43766.41      -558.84539      66300.62       40.473665      40.473665      40.473665      1.2639276     -1068.8676      718.36375      626.46944    
    165500   165500         158.80305      334.50516      16990.081      16668.415      2546.2127      14122.203      1513.293       4103.5679     -5945.4992      114.46141     -3836.7957      61948.218     -43775.043     -561.93159      65936.488      40.399433      40.399433      40.399433      1.2709076     -182.08253      415.70931      769.88871    
    166000   166000         157.11506     -353.45821      16360.272      16701.15       2519.1479      14182.002      1518.2275      4151.4631     -5920.6582      116.99772     -3865.8584      61954.765     -43772.934     -560.30379      66128.048      40.438518      40.438518      40.438518      1.267226      -1583.4464      1075.7186     -552.64683    
    166500   166500         160.6026      -82.30874       16708.709      16788.553      2575.0663      14213.487      1609.5436      4098.0097     -5961.3823      124.45142     -3852.0688      61962.537     -43767.604     -557.04109      66515.372      40.517317      40.517317      40.517317      1.2598468     -57.521629      262.73579     -452.14038    
    167000   167000         160.70656      1758.311       18386.272      16684.857      2576.7331      14108.124      1492.4371      4056.9528     -5939.5866      116.15959     -3792.1093      61948.681     -43774.411     -558.43216      66349.682      40.483646      40.483646      40.483646      1.262993       1124.1492      2746.8858      1403.8979    
    167500   167500         159.87327     -234.33677      16511.625      16738.485      2563.3724      14175.113      1536.8398      4072.3957     -5918.4377      124.88084     -3781.4895      61914.123     -43773.2       -558.17146      66380.671      40.489947      40.489947      40.489947      1.2624033      512.10943     -408.61481     -806.50492    
    168000   168000         162.21972     -932.9227       15867.106      16769.307      2600.9948      14168.312      1520.8731      4146.2685     -5901.4207      113.05238     -3915.0751      61971.45      -43766.836     -558.7627       66310.431      40.475661      40.475661      40.475661      1.2637405     -1266.2356     -1604.2258      71.693292    
    168500   168500         161.34504      304.17075      16981.476      16687.731      2586.9704      14100.761      1514.19        4073.7336     -5936.6151      115.51866     -3839.801       61941.219     -43767.484     -559.54102      66218.194      40.456885      40.456885      40.456885      1.2655008     -973.9501       1188.3886      698.07376    
    169000   169000         158.41277     -696.41888      16002.747      16673.987      2539.9551      14134.032      1493.324       4139.5388     -5892.7573      116.74682     -3882.713       61936.435     -43776.543     -560.63258      66089.266      40.430611      40.430611      40.430611      1.2679696     -731.24613      145.785       -1503.7955    
    169500   169500         156.821        612.88177      17244.158      16652.606      2514.433       14138.173      1506.7995      4143.4338     -5917.0532      102.54047     -3879.014       61954.293     -43772.827     -559.84646      66182.066      40.449526      40.449526      40.449526      1.2661917     -579.96258      1441.3185      977.28933    
    170000   170000         159.96834      456.18002      17159.5        16718.696      2564.8968      14153.799      1498.2968      4104.3928     -5886.9902      115.84169     -3877.4335      61974.08      -43774.388     -559.21154      66257.209      40.464829      40.464829      40.464829      1.2647557     -144.76828      217.14841      1296.1599    
    170500   170500         162.87944      134.84035      16850.829      16720.621      2611.5727      14109.049      1497.0679      4094.6392     -5924.9508      120.36672     -3876.3501      61970.869     -43772.593     -559.5903       66212.363      40.455698      40.455698      40.455698      1.2656123     -98.054802      816.98647     -314.41062    
    171000   171000         157.49219      782.10573      17447.434      16691.271      2525.1948      14166.076      1468.9046      4131.6579     -5926.6589      107.03627     -3849.8123      61999.578     -43764.629     -558.90108      66294.014      40.47232       40.47232       40.47232       1.2640535     -39.519134      1946.697       439.13927    
    171500   171500         158.09457      57.114168      16706.408      16651.194      2534.8531      14116.341      1504.3318      4088.0567     -5917.6115      113.4528      -3871.1339      61971.78      -43772.536     -558.95207      66287.966      40.47109       40.47109       40.47109       1.2641688     -302.94279     -213.83142      688.11671    
    172000   172000         159.88484     -272.76349      16393.41       16656.47       2563.5579      14092.912      1530.8705      4120.3839     -5956.1084      108.53921     -3892.5051      61947.541     -43765.808     -560.29424      66129.175      40.438748      40.438748      40.438748      1.2672044     -69.043164     -91.594325     -657.65298    
    172500   172500         159.85384     -592.86021      16111.707      16684.183      2563.0608      14121.122      1501.1649      4131.2616     -5896.2356      102.6656      -3909.155       61961.013     -43769.592     -559.60318      66210.839      40.455387      40.455387      40.455387      1.2656414     -734.15533     -1170.5187      126.09337    
    173000   173000         161.28234     -237.3528       16506.711      16735.583      2585.9651      14149.618      1533.3774      4184.6986     -5962.1696      112.47187     -3892.2627      61938.136     -43764.634     -560.3864       66118.3        40.436531      40.436531      40.436531      1.2674128     -3.2541413      928.57794     -1637.3822    
    173500   173500         160.09349      29.982516      16779.592      16750.597      2566.9033      14183.694      1498.5139      4104.4899     -5893.9695      111.91649     -3830.2655      61971.255     -43778.246     -558.77172      66309.362      40.475443      40.475443      40.475443      1.2637609      159.8021      -343.47921      273.62466    
    174000   174000         162.03585      73.558657      16816.023      16745.065      2598.0468      14147.018      1533.2036      4173.8892     -5978.7672      101.30176     -3874.3666      61959.391     -43767.634     -560.16679      66144.221      40.441815      40.441815      40.441815      1.2669161     -770.36037      592.33655      398.69979    
    174500   174500         158.64018      731.19762      17370.916      16667.864      2543.6012      14124.262      1554.7461      4081.2348     -5936.9383      109.8266      -3853.5074      61946.125     -43777.224     -561.99456      65929.101      40.397924      40.397924      40.397924      1.27105        946.68709      545.36862      701.53716    
    175000   175000         158.92334     -496.00323      16148.513      16628.056      2548.1414      14079.915      1459.6522      4098.7149     -5916.9488      107.70672     -3861.0648      61958.793     -43766.939     -558.9103       66292.92       40.472098      40.472098      40.472098      1.2640744     -942.21361     -611.54245      65.746374    
    175500   175500         160.27882     -718.5136       15957.513      16653.944      2569.8749      14084.069      1490.7501      4088.8498     -5903.8988      120.37961     -3905.9516      61964.896     -43770.956     -557.49601      66461.096      40.506293      40.506293      40.506293      1.2608757     -591.33382     -632.938       -931.26899    
    176000   176000         162.03671      175.3781       16860.637      16691.51       2598.0605      14093.45       1520.9943      4117.4274     -5931.1292      97.47708      -3901.4223      61957.947     -43767.844     -560.33526      66124.334      40.437761      40.437761      40.437761      1.2672972      24.767043     -153.23576      654.60303    
    176500   176500         160.93142      540.53052      17223.602      16702.76       2580.3385      14122.422      1453.167       4091.207      -5865.9282      117.62377     -3856.7765      61957.289     -43774.161     -560.78902      66070.83       40.426852      40.426852      40.426852      1.2683234     -246.22919      706.2907       1161.53      
    177000   177000         162.73502     -1.9170498      16678.381      16680.23       2609.257       14070.973      1522.528       4095.291      -5955.7459      104.39837     -3880.8293      61956.464     -43771.133     -560.2526       66134.09       40.43975       40.43975       40.43975       1.2671102      814.02806     -944.08298      124.30377    
    177500   177500         157.5484       14.720963      16677.888      16663.702      2526.096       14137.606      1490.9259      4110.1413     -5910.4649      110.68977     -3862.1794      61964.49      -43765.996     -560.71854      66079.135      40.428545      40.428545      40.428545      1.268164      -686.00143     -3.683466       733.84778    
    178000   178000         159.02494     -774.41727      15948.226      16693.275      2549.7705      14143.505      1541.4642      4086.9416     -5903.9689      115.26187     -3862.3093      61932.429     -43766.314     -561.66241      65968.089      40.405886      40.405886      40.405886      1.2702987     -944.99572     -766.284       -611.97208    
    178500   178500         162.23204     -3.5377283      16713.684      16717.1        2601.1923      14115.908      1484.2153      4136.7944     -5939.6853      124.7645      -3841.177       61925.628     -43774.632     -559.5909       66212.291      40.455683      40.455683      40.455683      1.2656137     -936.47474      548.75553      377.10602    
    179000   179000         162.0566      -148.75903      16541.536      16684.584      2598.3794      14086.205      1516.8137      4077.2176     -5910.0388      111.61574     -3896.7664      61960.48      -43773.117     -561.93662      65935.898      40.399313      40.399313      40.399313      1.2709189     -856.63819      562.56308     -152.202      
    179500   179500         163.04819      318.37773      17066.941      16759.175      2614.2783      14144.896      1545.1515      4122.9685     -5912.2531      107.37096     -3891.8853      61942.385     -43768.842     -558.99257      66283.163      40.470112      40.470112      40.470112      1.2642604      406.8308       8.3859489      539.91644    
    180000   180000         160.07422      583.66554      17278.746      16715.366      2566.5943      14148.771      1520.8344      4084.5721     -5919.5124      113.38934     -3859.3899      61974.924     -43766.046     -559.81922      66185.287      40.450182      40.450182      40.450182      1.2661301     -1290.3133      571.46492      2469.845     
    180500   180500         158.01667     -59.801031      16618.899      16676.605      2533.604       14143.001      1541.4797      4140.7434     -5951.8456      118.10258     -3893.6523      61954.146     -43765.973     -559.98205      66166.042      40.446262      40.446262      40.446262      1.2664983     -360.47523     -45.970518      227.04265    
    181000   181000         156.00289     -210.69063      16409.644      16612.907      2501.3156      14111.591      1488.1106      4079.0708     -5881.6201      114.18598     -3905.9243      61981.716     -43763.948     -560.10905      66151.039      40.443204      40.443204      40.443204      1.2667856     -225.96003      9.1716827     -415.28353    
    181500   181500         159.03014     -155.32664      16477.173      16626.448      2549.8538      14076.594      1466.827       4062.0002     -5897.6449      118.13724     -3853.1211      61952.531     -43772.135     -562.271        65896.686      40.391303      40.391303      40.391303      1.2716752     -66.30328      -1081.4226      681.74597    
    182000   182000         160.22663     -366.7207       16357.677      16711.822      2569.0381      14142.784      1541.4422      4128.8308     -5908.7096      112.01899     -3906.4522      61944.655     -43769.002     -559.55086      66217.03       40.456648      40.456648      40.456648      1.2655231     -978.6106      -425.29189      303.74039    
    182500   182500         160.16433     -61.829291      16651.855      16711.698      2568.0392      14143.659      1432.8323      4122.1669     -5895.4446      118.42728     -3868.5277      61995.035     -43760.83      -558.30236      66365.107      40.486783      40.486783      40.486783      1.2626994     -471.28999      172.76946      113.03265    
    183000   183000         160.97789      274.30902      16908.275      16642.994      2581.0836      14061.911      1488.4134      4086.3429     -5916.9845      119.15761     -3901.3536      61955.476     -43769.142     -558.75315      66311.565      40.475892      40.475892      40.475892      1.2637189     -756.11513      845.89179      733.1504     
    183500   183500         160.13609     -388.88926      16320.154      16695.903      2567.5864      14128.316      1513.9725      4104.4353     -5931.3858      121.90655     -3855.9738      61950.505     -43775.144     -559.26023      66251.44       40.463655      40.463655      40.463655      1.2648658     -512.12802     -303.52388     -351.01589    
    184000   184000         160.77025      666.46251      17317.46       16674.873      2577.7544      14097.118      1507.5208      4121.5698     -5960.6147      107.4321      -3830.5224      61924.28      -43772.548     -560.43978      66112.002      40.435247      40.435247      40.435247      1.2675336      801.25289     -235.2087       1433.3434    
    184500   184500         158.97505      594.84083      17226.166      16651.706      2548.9705      14102.735      1509.4299      4083.9422     -5967.9201      109.77982     -3833.6256      61971.75      -43770.621     -559.53271      66219.177      40.457086      40.457086      40.457086      1.2654821      767.89667      438.25188      578.37394    
    185000   185000         159.42951      148.19826      16835.844      16692.877      2556.2573      14136.619      1530.216       4090.9041     -5930.8551      115.20142     -3855.6213      61956.735     -43769.961     -560.13453      66148.03       40.442591      40.442591      40.442591      1.2668432      141.51406     -118.23626      421.31697    
    185500   185500         164.74915     -261.2123       16558.206      16810.431      2641.5512      14168.88       1467.922       4126.7204     -5906.9335      122.03611     -3889.9503      62012.23      -43763.145     -559.61542      66209.39       40.455092      40.455092      40.455092      1.2656691     -1176.1536      1056.9498     -664.43317    
    186000   186000         160.5791      -77.12382       16583.711      16658.406      2574.6895      14083.716      1475.687       4088.9606     -5917.8283      99.547798     -3859.5852      61969.986     -43773.052     -557.9362       66408.66       40.495637      40.495637      40.495637      1.2618713      249.03184     -812.41622      332.01292    
    186500   186500         159.1844       478.8995       17118.584      16654.989      2552.3272      14102.662      1480.0835      4073.9755     -5909.0764      111.92227     -3883.9358      61993.552     -43763.859     -558.20138      66377.112      40.489224      40.489224      40.489224      1.262471       806.47293      552.56415      77.661417    
    187000   187000         159.39203     -76.66347       16546.736      16620.876      2555.6562      14065.22       1521.0543      4095.5535     -5933.3303      106.83543     -3888.2356      61939.216     -43775.874     -558.75802      66310.987      40.475774      40.475774      40.475774      1.26373       -1326.8569      574.03479      522.83175    
    187500   187500         159.32605     -12.98865       16659.63       16672.155      2554.5984      14117.557      1493.8601      4122.1209     -5917.4227      112.48874     -3882.092       61958.621     -43770.019     -560.36557      66120.757      40.437032      40.437032      40.437032      1.2673657     -631.08903      145.37884      446.74425    
    188000   188000         160.27451      449.15165      17157.196      16722.623      2569.8058      14152.817      1522.0278      4111.6153     -5962.7113      114.14082     -3839.2657      61981.663     -43774.652     -558.49074      66342.721      40.48223       40.48223       40.48223       1.2631255     -52.648591      1570.0595     -169.956      
    188500   188500         159.50056      701.59376      17405.77       16729.416      2557.3965      14172.02       1481.5401      4125.5484     -5912.9252      109.12908     -3836.7666      61976.413     -43770.919     -560.52748      66101.658      40.433138      40.433138      40.433138      1.2677319      1038.7555      470.82953      595.19627    
    189000   189000         161.09884      249.16816      16949.066      16709.613      2583.023       14126.59       1521.7876      4146.6532     -5907.7084      108.3466      -3901.6492      61935.508     -43776.348     -562.28597      65894.932      40.390944      40.390944      40.390944      1.271709      -249.07266      1484.7723     -488.19518    
    189500   189500         159.02644     -570.56266      16126.604      16676.16       2549.7946      14126.365      1474.7322      4122.7919     -5885.9767      109.52225     -3882.1065      61958.155     -43770.753     -561.01753      66043.918      40.421362      40.421362      40.421362      1.2688402     -1558.492       20.095134     -173.29112    
    190000   190000         160.4527       251.9971       16951.677      16709.117      2572.6628      14136.454      1568.4542      4095.6882     -5930.2771      120.04925     -3848.2488      61902.893     -43772.105     -561.38639      66000.524      40.412507      40.412507      40.412507      1.2696745     -789.11869      1229.8914      315.2186     
    190500   190500         160.3448       138.7046       16860.15       16725.761      2570.9329      14154.828      1484.1648      4124.5111     -5922.7072      117.41293     -3853.866       61971.446     -43766.134     -557.71649      66434.822      40.500954      40.500954      40.500954      1.2613744     -71.201105      235.15148      252.16343    
    191000   191000         160.94979      113.15681      16778.188      16668.839      2580.6331      14088.206      1542.0957      4098.6338     -5955.5209      101.9524      -3860.6796      61940.358     -43778.634     -559.1799       66260.958      40.465592      40.465592      40.465592      1.2646841      35.392217      1002.3065     -698.22832    
    191500   191500         160.74124     -805.04915      15913.463      16691.292      2577.2892      14114.003      1522.9373      4067.2408     -5913.6524      101.3451      -3849.1978      61956.524     -43771.194     -559.27264      66249.971      40.463356      40.463356      40.463356      1.2648939     -1309.4457     -316.69933     -789.0024     
    192000   192000         160.50142     -204.5224       16535.738      16733.216      2573.444       14159.772      1572.0332      4096.1512     -5911.1041      110.62362     -3862.6802      61929.91      -43775.162     -559.63851      66206.659      40.454536      40.454536      40.454536      1.2657213     -235.21077      45.629563     -423.98599    
    192500   192500         163.06861     -327.88387      16446.946      16762.59       2614.6057      14147.985      1532.5789      4155.9984     -5930.7202      105.32241     -3891.5509      61950.813     -43774.457     -561.31555      66008.854      40.414207      40.414207      40.414207      1.2695143     -1432.3739     -641.86207      1090.5844    
    193000   193000         157.91864      719.68991      17395.583      16703.53       2532.0323      14171.498      1530.0157      4146.8932     -5931.9892      115.67735     -3866.3279      61945.974     -43768.745     -561.94144      65935.333      40.399197      40.399197      40.399197      1.2709298      272.05457      1015.3356      871.67952    
    193500   193500         157.47184     -147.18292      16520.645      16662.638      2524.8685      14137.77       1469.6859      4092.5401     -5877.834       111.65343     -3868.573       61979.087     -43768.79      -560.11134      66150.769      40.443149      40.443149      40.443149      1.2667907      31.165622     -150.52969     -322.18469    
    194000   194000         159.60593     -972.70639      15731.704      16668.163      2559.0859      14109.077      1493.7786      4126.7871     -5900.2104      113.21074     -3908.4968      61961.093     -43777.085     -561.27827      66013.237      40.415102      40.415102      40.415102      1.26943       -368.59592     -1316.8815     -1232.6417    
    194500   194500         159.63951     -81.84505       16639.666      16718.605      2559.6243      14158.981      1508.5873      4084.3868     -5888.7429      117.59552     -3855.9531      61968.899     -43775.792     -560.25716      66133.551      40.43964       40.43964       40.43964       1.2671205      116.0059       0.75319554    -362.29425    
    195000   195000         163.02839     -1542.4682      15219.279      16712.951      2613.961       14098.99       1503.9742      4138.0229     -5916.0297      109.57509     -3914.9957      61947.959     -43769.516     -558.01562      66399.209      40.493716      40.493716      40.493716      1.2620509     -2777.2507     -1312.943      -537.21081    
    195500   195500         157.65298      592.68403      17190.739      16618.204      2527.7727      14090.431      1496.3278      4052.847      -5919.3317      96.672531     -3864.8577      61999.966     -43771.193     -559.37931      66237.337      40.460783      40.460783      40.460783      1.2651351      775.513        971.00115      31.53793     
    196000   196000         159.95149      761.07957      17384.837      16650.247      2564.6266      14085.621      1504.3317      4109.6699     -5935.038       95.911758     -3855.0066      61938.912     -43773.16      -559.84866      66181.806      40.449473      40.449473      40.449473      1.2661966     -102.13084      805.2088       1580.1607    
    196500   196500         160.8479       557.54512      17229.789      16693.004      2578.9995      14114.005      1476.9765      4113.9573     -5897.9054      113.23841     -3885.623       61972.265     -43778.904     -561.26075      66015.299      40.415522      40.415522      40.415522      1.2693903     -327.37988      1490.7587      509.25659    
    197000   197000         159.28108      766.12868      17415.451      16675.982      2553.8774      14122.105      1509.5221      4078.5995     -5930.0273      114.37436     -3829.2361      61956.685     -43777.813     -559.84393      66182.365      40.449587      40.449587      40.449587      1.2661859      1395.3672      385.43978      517.57901    
    197500   197500         160.30718      307.01151      16954.466      16656.999      2570.3297      14086.67       1526.6937      4095.6497     -5954.8728      105.72676     -3853.7419      61943.456     -43776.241     -557.70113      66436.652      40.501326      40.501326      40.501326      1.2613396     -37.330899      648.13539      310.23003    
    198000   198000         159.95953      78.680885      16765.059      16689.108      2564.7554      14124.353      1516.84        4051.6768     -5906.8104      125.03381     -3842.0103      61955.642     -43776.02      -559.7878       66189.002      40.450939      40.450939      40.450939      1.266059      -413.22921      481.79096      167.4809     
    198500   198500         160.04643      420.93448      17118.41       16713.002      2566.1488      14146.853      1533.5669      4066.1737     -5896.0419      118.00903     -3870.2609      61969.368     -43773.962     -561.05722      66039.246      40.420409      40.420409      40.420409      1.26893       -47.436183      1603.4635     -293.22385    
    199000   199000         161.56481      216.1503       16900.426      16692.142      2590.4942      14101.648      1486.9368      4031.0775     -5898.3773      118.51373     -3837.5131      61976.141     -43775.13      -560.77075      66072.982      40.427291      40.427291      40.427291      1.2682821     -205.06173     -199.02905      1052.5417    
    199500   199500         160.55156     -923.46367      15802.715      16694.456      2574.2479      14120.208      1533.4069      4079.8507     -5889.8148      114.77569     -3904.2707      61961.329     -43775.069     -559.58523      66212.962      40.45582       40.45582       40.45582       1.2656008     -312.82206     -482.39228     -1975.1767    
    200000   200000         161.86454      72.2948        16716.657      16646.786      2595.3         14051.486      1490.7354      4073.1535     -5929.7117      107.10899     -3852.4327      61938.499     -43775.867     -559.10384      66269.972      40.467427      40.467427      40.467427      1.2645121      334.16865     -107.7529      -9.5313505    
Loop time of 867.254 on 1 procs for 200000 steps with 6320 atoms

Performance: 19.925 ns/day, 1.205 hours/ns, 230.613 timesteps/s, 1.457 Matom-step/s
100.0% CPU use with 1 MPI tasks x 1 OpenMP threads

MPI task timing breakdown:
Section |  min time  |  avg time  |  max time  |%varavg| %total
---------------------------------------------------------------
Pair    | 325.24     | 325.24     | 325.24     |   0.0 | 37.50
Bond    | 116.97     | 116.97     | 116.97     |   0.0 | 13.49
Kspace  | 238.74     | 238.74     | 238.74     |   0.0 | 27.53
Neigh   | 39.121     | 39.121     | 39.121     |   0.0 |  4.51
Comm    | 4.1279     | 4.1279     | 4.1279     |   0.0 |  0.48
Output  | 0.045496   | 0.045496   | 0.045496   |   0.0 |  0.01
Modify  | 103.02     | 103.02     | 103.02     |   0.0 | 11.88
Other   |            | 39.99      |            |       |  4.61

Nlocal:           6320 ave        6320 max        6320 min
Histogram: 1 0 0 0 0 0 0 0 0 0
Nghost:          17907 ave       17907 max       17907 min
Histogram: 1 0 0 0 0 0 0 0 0 0
Neighs:              0 ave           0 max           0 min
Histogram: 1 0 0 0 0 0 0 0 0 0
FullNghs:  3.83343e+06 ave 3.83343e+06 max 3.83343e+06 min
Histogram: 1 0 0 0 0 0 0 0 0 0

Total # of neighbors = 3833434
Ave neighs/atom = 606.55601
Ave special neighs/atom = 5.5411392
Neighbor list builds = 4419
Dangerous builds = 0
WARNING: No fixes with time integration, atoms won't move
For more information see https://docs.lammps.org/err0028 (src/verlet.cpp:60)
PPPM Kokkos initialization ...
  using 12-bit tables for long-range coulomb
  G vector (1/distance) = 0.33561957
  grid = 45 45 45
  stencil order = 5
  estimated absolute RMS force accuracy = 0.00039973582
  estimated relative force accuracy = 1.2037926e-06
  using double precision cuFFT
  3d grid and FFT values/proc = 140608 91125
Generated 21 of 21 mixed pair_coeff terms from sixthpower/sixthpower mixing rule
Setting up Verlet run ...
  Unit style    : real
  Current step  : 200000
  Time step     : 1
Per MPI rank memory allocation (min/avg/max) = 42.99 | 42.99 | 42.99 Mbytes
   Step          Time           Temp          Press         Enthalpy        TotEng         KinEng         PotEng         E_bond        E_angle        E_dihed        E_impro         E_vdwl         E_coul         E_long         E_tail         Volume           Lx             Ly             Lz          Density          Pxx            Pyy            Pzz      
    200000   200000         137.78594      49.096444      16694.237      16646.786      2595.3         14051.486      1490.7355      4073.1535     -5929.7117      107.10899     -3852.4327      61947.041     -43784.408     -559.10384      66269.972      40.467427      40.467427      40.467427      1.2645121      305.48988     -160.25409      2.0535445    
Loop time of 5.306e-05 on 1 procs for 0 steps with 6320 atoms

101.8% CPU use with 1 MPI tasks x 1 OpenMP threads

MPI task timing breakdown:
Section |  min time  |  avg time  |  max time  |%varavg| %total
---------------------------------------------------------------
Pair    | 0          | 0          | 0          |   0.0 |  0.00
Bond    | 0          | 0          | 0          |   0.0 |  0.00
Kspace  | 0          | 0          | 0          |   0.0 |  0.00
Neigh   | 0          | 0          | 0          |   0.0 |  0.00
Comm    | 0          | 0          | 0          |   0.0 |  0.00
Output  | 0          | 0          | 0          |   0.0 |  0.00
Modify  | 0          | 0          | 0          |   0.0 |  0.00
Other   |            | 5.306e-05  |            |       |100.00

Nlocal:           6320 ave        6320 max        6320 min
Histogram: 1 0 0 0 0 0 0 0 0 0
Nghost:          17981 ave       17981 max       17981 min
Histogram: 1 0 0 0 0 0 0 0 0 0
Neighs:              0 ave           0 max           0 min
Histogram: 1 0 0 0 0 0 0 0 0 0
FullNghs:  3.83598e+06 ave 3.83598e+06 max 3.83598e+06 min
Histogram: 1 0 0 0 0 0 0 0 0 0

Total # of neighbors = 3835982
Ave neighs/atom = 606.95918
Ave special neighs/atom = 5.5411392
Neighbor list builds = 0
Dangerous builds = 0
System init for write_data ...
PPPM Kokkos initialization ...
  using 12-bit tables for long-range coulomb
  G vector (1/distance) = 0.33561957
  grid = 45 45 45
  stencil order = 5
  estimated absolute RMS force accuracy = 0.00039973582
  estimated relative force accuracy = 1.2037926e-06
  using double precision cuFFT
  3d grid and FFT values/proc = 140608 91125
Generated 21 of 21 mixed pair_coeff terms from sixthpower/sixthpower mixing rule
STAGE COMPLETE: Tg step T=160.0K P=1.0atm steps=200000
