LAMMPS (22 Jul 2025 - Update 3)
KOKKOS mode with Kokkos version 4.6.2 is enabled
  will use up to 1 GPU(s) per node
  using 1 OpenMP thread(s) per MPI task
Reading data file ...
  orthogonal box = (3.7193791 3.7193791 3.7193791) to (47.802678 47.802678 47.802678)
  1 by 1 by 1 MPI processor grid
  reading atoms ...
  8000 atoms
  reading velocities ...
  8000 velocities
  scanning bonds ...
  4 = max bonds/atom
  scanning angles ...
  10 = max angles/atom
  scanning dihedrals ...
  16 = max dihedrals/atom
  scanning impropers ...
  7 = max impropers/atom
  orthogonal box = (3.7193791 3.7193791 3.7193791) to (47.802678 47.802678 47.802678)
  1 by 1 by 1 MPI processor grid
  reading bonds ...
  7990 bonds
  reading angles ...
  14820 angles
  reading dihedrals ...
  17070 dihedrals
  reading impropers ...
  9120 impropers
Finding 1-2 1-3 1-4 neighbors ...
  special bond factors lj:    0        0        1       
  special bond factors coul:  0        0        1       
     4 = max # of 1-2 neighbors
     6 = max # of 1-3 neighbors
     8 = max # of special neighbors
  special bonds CPU = 0.004 seconds
  read_data CPU = 0.203 seconds
Finding SHAKE clusters ...
      10 = # of size 2 clusters
    2270 = # of size 3 clusters
      10 = # of size 4 clusters
       0 = # of frozen angles
  find clusters CPU = 0.002 seconds
PPPM Kokkos initialization ...
  using 12-bit tables for long-range coulomb
  G vector (1/distance) = 0.29698882
  grid = 30 30 30
  stencil order = 5
  estimated absolute RMS force accuracy = 0.00040275551
  estimated relative force accuracy = 1.2128863e-06
  using double precision cuFFT
  3d grid and FFT values/proc = 50653 27000
Generated 10 of 10 mixed pair_coeff terms from sixthpower/sixthpower mixing rule
Neighbor list info ...
  update: every = 1 steps, delay = 0 steps, check = yes
  max neighbors/atom: 4000, page size: 100000
  master list distance cutoff = 11.5
  ghost atom cutoff = 11.5
  binsize = 11.5, bins = 4 4 4
  1 neighbor lists, perpetual/occasional/extra = 1 0 0
  (1) pair lj/class2/coul/long/kk, perpetual
      attributes: full, newton off, kokkos_device
      pair build: full/bin/kk/device
      stencil: full/bin/3d
      bin: kk/device
Setting up Verlet run ...
  Unit style    : real
  Current step  : 0
  Time step     : 1
Per MPI rank memory allocation (min/avg/max) = 35.62 | 35.62 | 35.62 Mbytes
   Step          Time           Temp          Press         Enthalpy        TotEng         KinEng         PotEng         E_bond        E_angle        E_dihed        E_impro         E_vdwl         E_coul         E_long         E_tail         Volume           Lx             Ly             Lz          Density          Pxx            Pyy            Pzz      
         0   0              443.03673     -363.29021      8062.5394      8516.4307      8547.4174     -30.986776      1831.0798      7503.9576     -9124.845      -81.619075     -2649.7652      7892.6898     -5402.4847     -486.92927      85668.718      44.083299      44.083299      44.083299      0.97383897     128.60637     -0.14966347    -1218.3273    
       500   500            417.25736     -553.1295       6790.8288      7474.7947      8050.0612     -575.26652      1692.9991      7206.6123     -9132.7591     -81.281437     -2728.1287      7878.6574     -5411.3661     -491.99014      84787.483      43.931623      43.931623      43.931623      0.98396052    -481.8999      -978.58165     -198.90696    
      1000   1000           414.39309      647.9982       8277.4535      7484.7992      7994.8015     -510.00227      1704.1102      7134.6341     -9025.1981     -80.811225     -2724.7068      7891.6629     -5409.6933     -497.34072      83875.308      43.77351       43.77351       43.77351       0.99466145     838.31607      678.25087      427.42767    
      1500   1500           416.91031      354.23135      8100.1722      7660.8709      8043.3657     -382.49482      1692.3164      7394.5068     -9174.2334     -82.307182     -2696.5287      7886.5851     -5402.834      -490.55596      85035.367      43.974394      43.974394      43.974394      0.9810922      1369.9282     -59.658208     -247.57598    
      2000   2000           423.37982     -243.60814      7471.6879      7772.8178      8168.1806     -395.36288      1733.2382      7308.7696     -9159.6151     -86.535065     -2661.4462      7875.6016     -5405.376      -492.15506      84759.072      43.926715      43.926715      43.926715      0.98429034     195.26872     -441.92213     -484.17101    
      2500   2500           418.50364     -937.27271      6512.5847      7683.3471      8074.1054     -390.75837      1745.0832      7311.384      -9190.9044     -80.388422     -2650.8516      7884.279      -5409.3601     -487.0362       85649.907      44.080072      44.080072      44.080072      0.97405284    -1071.7715     -251.93005     -1488.1166    
      3000   3000           420.72812      2.4144657      7511.3408      7508.3311      8117.022      -608.69089      1753.4067      7178.2294     -9278.4402     -81.90872      -2638.8548      7866.1672     -5407.2906     -488.04166      85473.452      44.04978       44.04978       44.04978       0.97606372     847.18558     -1029.3212      189.37901    
      3500   3500           421.50118      1236.3079      8996.6543      7469.1909      8131.9363     -662.74545      1620.6781      7182.8106     -9185.2514     -78.758378     -2684.2607      7879.1275     -5397.0911     -492.40207      84716.552      43.919369      43.919369      43.919369      0.98478436     585.36523      1260.145       1863.4134    
      4000   4000           417.65707     -472.5538       6870.1691      7455.0796      8057.7727     -602.69313      1657.1007      7266.721      -9231.3685     -82.24803      -2693.6831      7884.3232     -5403.5383     -491.50265      84871.579      43.946143      43.946143      43.946143      0.98298555    -137.89357     -919.46342     -360.3044     
      4500   4500           418.84167     -954.78322      6461.7253      7645.2034      8080.627      -435.42359      1681.0445      7324.8749     -9132.395      -80.669314     -2720.8974      7891.1852     -5398.5665     -490.80455      84992.297      43.966968      43.966968      43.966968      0.98158937    -3094.358       722.61837     -492.61006    
      5000   5000           419.65299     -19.999257      7453.8681      7478.609       8096.2797     -617.67071      1682.5437      7142.4841     -9211.2063     -77.821572     -2661.2545      7903.0957     -5395.5118     -491.76938      84825.546      43.938196      43.938196      43.938196      0.983519       1086.0064     -153.97373     -992.03046    
      5500   5500           412.70628     -622.53475      6627.0661      7398.0251      7962.2582     -564.23304      1676.6349      7195.0387     -9169.9957     -82.208505     -2670.8131      7890.7788     -5403.6681     -491.24293      84916.45       43.953886      43.953886      43.953886      0.98246612    -951.30936      446.41861     -1362.7135    
      6000   6000           422.16178      421.47973      8025.1267      7506.9118      8144.6812     -637.76945      1683.7773      7155.7264     -9182.3662     -81.932707     -2704.7331      7889.6038     -5397.845      -494.80124      84305.782      43.848269      43.848269      43.848269      0.98958261     581.14131      677.04451      6.2533688    
      6500   6500           423.15731     -1237.1311      6107.7472      7643.5505      8163.8878     -520.33725      1764.9807      7227.2499     -9233.8976     -87.288287     -2676.2205      7884.8057     -5399.9673     -490.05424      85122.426      43.989396      43.989396      43.989396      0.98008879    -1503.6081     -1733.4311     -474.35413    
      7000   7000           420.13364      341.42059      7923.5829      7504.205       8105.5527     -601.34761      1746.6468      7158.2157     -9201.4314     -82.763284     -2704.3614      7885.4439     -5403.098      -495.27709      84224.783      43.834222      43.834222      43.834222      0.99053428    -565.14835      926.51786      662.89228    
      7500   7500           420.16886     -702.01928      6907.0115      7768.0992      8106.2323     -338.13308      1762.1472      7400.7524     -9054.331      -86.046491     -2839.903       7887.1977     -5407.9499     -495.98173      84105.126      43.813454      43.813454      43.813454      0.99194353    -1531.9927     -90.13653      -483.92858    
      8000   8000           427.79293     -261.19896      7363.4452      7686.5597      8253.3219     -566.76216      1708.5126      7155.818      -9135.6613     -76.815121     -2690.7134      7879.8303     -5407.7332     -491.78922      84822.123      43.937605      43.937605      43.937605      0.98355868     696.47474     -777.61381     -702.45779    
      8500   8500           416.90494     -4.1961197      7578.1607      7583.3615      8043.2621     -459.9006       1740.5743      7093.0238     -9087.3364     -80.366323     -2617.7988      7897.7237     -5405.7209     -490.84041      84986.087      43.965898      43.965898      43.965898      0.9816611      19.211722      342.29682     -374.0969     
      9000   9000           413.83045      488.33543      7968.3856      7367.759       7983.9465     -616.18747      1657.467       7260.0577     -9225.6912     -75.903286     -2731.4328      7898.2191     -5398.9039     -494.62688      84335.502      43.853421      43.853421      43.853421      0.98923388     174.4214       6.2225451      1284.3624    
      9500   9500           418.80774      340.81114      7915.1628      7492.4195      8079.9724     -587.55287      1642.6754      7173.9573     -9110.9733     -78.832855     -2681.0272      7873.4558     -5406.808      -490.4572       85052.489      43.977345      43.977345      43.977345      0.9808947      862.83516     -208.80072      368.39898    
     10000   10000          424.31022      673.72774      8498.3005      7665.2745      8186.1307     -520.85613      1655.5937      7243.5456     -9174.2676     -80.342789     -2659.4427      7895.2676     -5401.21       -492.02813      84780.937      43.930492      43.930492      43.930492      0.98403648     40.89625       691.81555      1288.4714    
     10500   10500          422.46316      427.33493      8128.1224      7606.4258      8150.4956     -544.06983      1697.0251      7249.6467     -9089.8564     -78.835531     -2791.3459      7868.8366     -5399.5404     -498.32706      83709.292      43.744611      43.744611      43.744611      0.9966341      892.09454      479.59052     -89.68026     
     11000   11000          411.07466     -959.96691      6275.185       7464.2358      7930.7797     -466.54387      1738.1906      7166.3832     -9122.8148     -81.817236     -2674.3937      7905.411      -5397.503      -491.15648      84931.397      43.956465      43.956465      43.956465      0.98229322    -991.05975     -908.81902     -980.02195    
     11500   11500          411.39544      118.09129      7561.553       7416.479       7936.9684     -520.4894       1641.7854      7369.2048     -9153.5887     -87.921509     -2772.1836      7885.5665     -5403.3522     -495.21324      84235.643      43.836106      43.836106      43.836106      0.99040659     144.5258       946.68766     -736.93957    
     12000   12000          424.90737      326.09752      8016.5839      7615.1438      8197.6513     -582.50749      1692.1661      7213.3405     -9210.2372     -78.604214     -2705.3288      7904.6631     -5398.507      -494.18634      84410.681      43.866448      43.866448      43.866448      0.98835283    -498.66622      1067.4858      409.47296    
     12500   12500          424.27634     -114.81647      7538.1222      7680.4346      8185.4771     -505.04252      1640.4229      7291.4655     -9126.1893     -80.315671     -2708.1419      7886.0139     -5408.298      -490.82385      84988.955      43.966392      43.966392      43.966392      0.98162797    -227.95378      192.61796     -309.11358    
     13000   13000          420.54305     -309.64374      7152.2203      7533.2076      8113.4514     -580.24383      1691.0848      7312.3754     -9193.6288     -80.310803     -2767.053       7864.5476     -5407.2592     -494.44254      84366.943      43.85887       43.85887       43.85887       0.98886522    -1298.2919     -380.86226      750.22299    
     13500   13500          417.82117      447.88946      8045.809       7498.3069      8060.9387     -562.63187      1626.8207      7261.2944     -9148.3435     -82.428015     -2709.4072      7890.1827     -5400.7509     -497.67868      83818.35       43.7636        43.7636        43.7636        0.99533736     846.1701       1148.6236     -651.12536    
     14000   14000          418.38647     -459.61476      6838.0852      7407.2443      8071.8449     -664.60059      1689.5359      7147.0109     -9177.5563     -79.770733     -2733.7443      7886.378      -5396.454      -491.27457      84910.981      43.952942      43.952942      43.952942      0.9825294      178.17621      484.74632     -2041.7668    
     14500   14500          416.36149     -523.51855      6833.5844      7479.4671      8032.7775     -553.31036      1691.596       7215.263      -9171.4115     -84.660696     -2687.4297      7881.6796     -5398.3471     -493.10846      84595.193      43.898387      43.898387      43.898387      0.98619711    -282.77137     -1504.5389      216.75457    
     15000   15000          420.65318     -443.03547      7087.4606      7633.9616      8115.5761     -481.61449      1687.3299      7348.9026     -9175.7502     -83.065456     -2729.4422      7876.24       -5405.8291     -493.18694      84581.732      43.896058      43.896058      43.896058      0.98635407    -190.53926     -623.09868     -515.46847    
     15500   15500          421.46403      1114.2861      8888.4         7526.8553      8131.2196     -604.36427      1652.8321      7235.39       -9186.9431     -77.859884     -2692.875       7869.4986     -5404.4069     -497.88479      83783.651      43.75756       43.75756       43.75756       0.99574958     2111.9725      405.64912      825.23678    
     16000   16000          420.6847       1096.6392      8876.2127      7525.0755      8116.1842     -591.1087       1616.3131      7360.5708     -9223.6342     -79.273275     -2726.1073      7864.8307     -5403.8086     -493.77416      84481.144      43.87865       43.87865       43.87865       0.98752848     819.87817      1724.9884      745.05112    
     16500   16500          416.17469     -204.09008      7153.1814      7404.549       8029.1734     -624.62445      1648.5318      7283.5451     -9179.055      -80.714916     -2745.8582      7859.7588     -5410.8321     -493.94283      84452.295      43.873655      43.873655      43.873655      0.98786581    -436.19481     -211.3182       35.242769    
     17000   17000          414.43767      854.25366      8407.5034      7361.3279      7995.6615     -634.3336       1597.2041      7278.0193     -9214.4089     -82.075095     -2700.2007      7888.2735     -5401.1458     -496.75964      83973.419      43.790571      43.790571      43.790571      0.99349933     293.1725       1463.6874      805.9011     
     17500   17500          414.0309      -387.97948      6847.1053      7325.6755      7987.8137     -662.13819      1649.5236      7220.3086     -9170.7781     -81.500707     -2733.8053      7867.0528     -5412.9391     -493.20459      84578.706      43.895535      43.895535      43.895535      0.98638936    -278.58856      904.19812     -1789.548     
     18000   18000          422.17781      7.4563903      7610.3825      7601.2217      8144.9904     -543.7687       1637.6079      7278.1698     -9165.6114     -80.782734     -2693.0199      7877.5177     -5397.6502     -495.17677      84241.847      43.837182      43.837182      43.837182      0.99033365    -575.50821      111.58752      486.28987    
     18500   18500          419.66905     -279.10786      7337.9392      7679.8272      8096.5894     -416.76216      1774.0984      7336.23       -9163.076      -83.231763     -2789.9983      7904.9247     -5395.7093     -496.65208      83991.607      43.793733      43.793733      43.793733      0.99328419    -626.77804      277.89408     -488.43962    
     19000   19000          420.27732     -203.3708       7236.6901      7486.4418      8108.3247     -621.88285      1707.6046      7217.1968     -9197.6969     -77.509877     -2790.7724      7908.5536     -5389.2588     -495.3864       84206.2        43.830998      43.830998      43.830998      0.99075289    -1101.4927      74.883248      416.49705    
     19500   19500          414.44477      850.82601      8457.4759      7409.6469      7995.7984     -586.15157      1651.6662      7178.7397     -9179.2672     -83.518786     -2648.5724      7887.4543     -5392.6533     -493.98569      84444.967      43.872386      43.872386      43.872386      0.98795154     2202.8979      537.16753     -187.58745    
     20000   20000          424.76329      445.68659      8335.2784      7779.8727      8194.8717     -414.999        1757.1342      7181.0093     -9133.414      -83.336        -2617.1219      7882.025      -5401.2957     -488.1837       85448.584      44.045508      44.045508      44.045508      0.97634778     764.79966      1405.0111     -832.75096    
     20500   20500          425.8506      -600.70997      6992.1467      7739.3717      8215.8488     -476.47708      1637.899       7386.0934     -9206.422      -81.688849     -2702.8746      7893.593      -5403.077      -489.07722      85292.474      44.018669      44.018669      44.018669      0.97813478    -686.72606     -934.22315     -181.18071    
     21000   21000          415.76468      1433.0539      9205.292       7452.3763      8021.2633     -568.88692      1625.5508      7341.0548     -9253.2256     -82.20003      -2698.4008      7901.3335     -5402.9996     -497.35392      83873.082      43.773123      43.773123      43.773123      0.99468785     926.70813      1064.3612      2308.0925    
     21500   21500          423.58971      330.17497      7990.3997      7582.7319      8172.23       -589.49805      1667.6327      7157.7025     -9207.6891     -80.256237     -2615.5329      7884.6773     -5396.0323     -492.72181      84661.577      43.909867      43.909867      43.909867      0.98542383     70.71051       210.03525      709.77914    
     22000   22000          421.08809      870.90643      8592.9787      7520.7874      8123.9668     -603.17937      1673.6624      7112.1887     -9142.844      -80.230641     -2645.9109      7879.5775     -5399.6224     -494.15506      84416.025      43.867374      43.867374      43.867374      0.98829026     1712.8229     -53.44044       953.33686    
     22500   22500          420.82321      252.11803      7837.2443      7529.9994      8118.8565     -588.85711      1611.7479      7246.2068     -9149.5156     -83.558852     -2709.8311      7894.3737     -5398.2799     -499.20998      83561.242      43.718806      43.718806      43.718806      0.9983999      1401.6275     -348.26791     -297.00548    
     23000   23000          419.15202      62.308617      7600.0249      7523.6447      8086.6146     -562.96985      1698.5956      7197.8455     -9181.3651     -84.150155     -2690.4406      7896.6233     -5400.0783     -496.28542      84053.659      43.804515      43.804515      43.804515      0.99255091    -687.2883       37.953725      836.26043    
     23500   23500          417.87261     -241.70496      7244.1137      7540.9504      8061.9311     -520.98072      1770.1244      7193.2426     -9155.3856     -75.906405     -2720.277       7876.6564     -5409.4352     -495.37278      84208.513      43.831399      43.831399      43.831399      0.99072567    -628.17727     -431.27053      334.33292    
     24000   24000          415.59246      1018.7992      8709.6034      7469.1736      8017.9407     -548.76718      1642.2515      7190.8914     -9034.2125     -82.462459     -2737.3572      7872.507      -5400.3849     -499.66672      83484.86       43.705481      43.705481      43.705481      0.99931336     515.59253      814.62529      1726.1798    
     24500   24500          433.30488     -266.5469       7517.8843      7843.7031      8359.6628     -515.9597       1691.5331      7345.0468     -9156.6536     -80.251831     -2801.1639      7889.374      -5403.8443     -497.693        83815.938      43.76318       43.76318       43.76318       0.99536601     553.04189     -1637.1062      284.42357    
     25000   25000          420.88695      591.16054      8371.3352      7652.5381      8120.0862     -467.5481       1715.4305      7297.05       -9110.1537     -83.89986      -2781.9523      7898.5143     -5402.537      -500.33758      83372.921      43.685939      43.685939      43.685939      1.0006551      1360.9715     -44.192296      456.70243    
     25500   25500          421.96189      3.6411228      7541.7346      7537.2691      8140.8249     -603.55576      1621.449       7372.0322     -9191.7693     -85.304692     -2815.9681      7896.2682     -5400.263      -496.05226      84093.167      43.811377      43.811377      43.811377      0.99208459    -608.40163     -961.10188      1580.4269    
     26000   26000          421.89408     -373.77146      7284.0986      7742.6369      8139.5166     -396.87968      1746.899       7246.0942     -9101.1259     -79.116396     -2716.0781      7905.1902     -5398.7427     -495.90049      84118.905      43.815846      43.815846      43.815846      0.99178105    -1457.6298      1510.2912     -1173.9758    
     26500   26500          417.76838      799.31191      8608.0395      7629.7041      8059.9202     -430.2161       1716.6442      7330.5284     -9163.1297     -78.841577     -2730.7374      7898.589      -5403.2691     -497.04142      83925.815      43.782295      43.782295      43.782295      0.99406286     1485.9622      1256.4305     -344.45701    
     27000   27000          419.55749      258.19228      7828.3101      7510.8831      8094.4371     -583.55409      1669.0134      7251.1058     -9156.5418     -78.815979     -2760.4704      7893.7853     -5401.6304     -494.83838      84299.456      43.847172      43.847172      43.847172      0.98965687     764.91763     -32.999289      42.658481    
     27500   27500          416.40063     -1049.4455      6215.8637      7499.5316      8033.5326     -534.001        1685.3626      7293.726      -9145.9194     -75.362099     -2782.8313      7885.1714     -5394.1481     -497.36046      83871.979      43.772931      43.772931      43.772931      0.99470093    -1709.1199     -1063.0141     -376.20248    
     28000   28000          418.55779     -1142.0946      6007.9186      7413.9069      8075.1503     -661.24336      1649.4079      7270.5166     -9195.567      -79.024774     -2800.4009      7893.0138     -5399.189      -494.17916      84411.909      43.86666       43.86666       43.86666       0.98833846    -359.70461     -2399.4148     -667.1644     
     28500   28500          414.69556     -809.67846      6382.6767      7379.8658      8000.637      -620.77115      1645.3258      7241.3158     -9185.5812     -80.489238     -2720.0429      7875.6992     -5396.9987     -493.96829      84447.942      43.872902      43.872902      43.872902      0.98791674    -1035.313      -760.67648     -633.0459     
     29000   29000          423.67435     -487.38636      7034.2628      7634.199       8173.863      -539.66394      1660.7873      7224.392      -9121.6335     -79.543868     -2732.6352      7906.4039     -5397.4346     -494.23365      84402.602      43.865048      43.865048      43.865048      0.98844743    -586.07242     -977.8994       101.81274    
     29500   29500          422.30787     -639.07461      6791.5438      7576.7275      8147.4997     -570.77214      1717.2986      7184.9526     -9193.2881     -75.543693     -2724.1882      7912.0561     -5392.0595     -495.15859      84244.94       43.837718      43.837718      43.837718      0.99029729    -639.80085     -1840.5736      563.1506     
     30000   30000          423.45882     -102.84387      7615.1304      7742.832       8169.7048     -426.87278      1738.9551      7323.142      -9241.7462     -81.19363      -2688.647       7918.2178     -5395.6008     -489.94359      85141.65       43.992707      43.992707      43.992707      0.9798675      1341.5753     -269.12412     -1380.9828    
     30500   30500          417.57032      571.81378      8096.8234      7393.7877      8056.0991     -662.31145      1669.7732      7265.1224     -9280.2018     -82.462995     -2743.5799      7906.9979     -5397.9602     -494.81315      84303.754      43.847917      43.847917      43.847917      0.98960641    -104.47581      950.91899      868.99815    
     31000   31000          416.28702      1296.623       9020.1379      7423.1976      8031.3406     -608.14296      1674.1227      7141.9906     -9121.4253     -79.204913     -2743.1342      7920.1609     -5400.6527     -493.95691      84449.888      43.873238      43.873238      43.873238      0.98789398     1386.0739      932.75462      1571.0404    
     31500   31500          419.86614      175.28309      7778.9308      7564.1924      8100.3918     -536.19941      1690.7797      7309.5554     -9246.2483     -81.290152     -2733.3228      7922.6804     -5398.3536     -496.58579      84002.818      43.795681      43.795681      43.795681      0.99315163    -1159.4083      1046.5497      638.70788    
     32000   32000          413.99824     -600.04218      6792.6779      7529.5611      7987.1838     -457.62265      1676.9707      7338.8808     -9112.0718     -86.209315     -2756.5554      7885.6972     -5404.3348     -495.38991      84205.602      43.830894      43.830894      43.830894      0.99075991    -407.7408      -882.05403     -510.33171    
     32500   32500          414.497       -410.73604      6894.5055      7403.0154      7996.8061     -593.79068      1706.6831      7173.8664     -9146.22       -75.992496     -2735.6632      7885.3453     -5401.8098     -491.39122      84890.824      43.949464      43.949464      43.949464      0.9827627     -1777.9321     -567.54633      1113.2703    
     33000   33000          415.54783      564.30591      8146.6876      7455.0749      8017.0797     -562.00482      1685.3456      7259.8948     -9150.0442     -79.934229     -2760.0003      7887.8795     -5405.1459     -496.38156      84037.379      43.801687      43.801687      43.801687      0.99274318     2018.0223      517.41158     -842.51618    
     33500   33500          414.73911      476.20636      8057.8775      7475.0347      8001.4771     -526.44246      1692.9757      7232.252      -9139.0498     -81.078914     -2699.9389      7871.2346     -5402.8371     -497.05878      83922.882      43.781785      43.781785      43.781785      0.99409759     2081.9276     -496.64611     -156.6624     
     34000   34000          417.67152     -441.15526      6989.0257      7530.783       8058.0516     -527.26859      1755.5286      7152.9419     -9165.769      -76.882076     -2672.2291      7879.3576     -5400.2166     -495.39392      84204.921      43.830776      43.830776      43.830776      0.99076793    -304.61406      320.97753     -1339.8292    
     34500   34500          423.79688     -464.52603      7127.2028      7696.0598      8176.2269     -480.16713      1675.756       7304.2909     -9163.2227     -82.316874     -2675.3361      7860.8541     -5400.1924     -496.78788      83968.646      43.789742      43.789742      43.789742      0.99355581    -69.145856     -175.64715     -1148.7851    
     35000   35000          426.87803     -594.20201      6949.3988      7682.9332      8235.6709     -552.73768      1698.6965      7280.6208     -9161.5162     -80.102058     -2761.6089      7874.185      -5403.0129     -492.80795      84646.779      43.907308      43.907308      43.907308      0.9855961     -231.94967     -1109.808      -440.84839    
     35500   35500          417.97085      800.87995      8644.7539      7655.9062      8063.8264     -407.92014      1709.2433      7281.7105     -9112.3794     -82.20327      -2677.6418      7873.1515     -5399.801      -492.72211      84661.526      43.909858      43.909858      43.909858      0.98542443     844.0238       635.16538      923.45067    
     36000   36000          416.92218      311.9971       7842.0425      7460.5902      8043.5947     -583.00452      1678.2301      7289.8997     -9165.0078     -81.344282     -2768.0444      7868.991      -5405.7289     -497.59311      83832.765      43.766108      43.766108      43.766108      0.99516622    -557.26864      284.93572      1208.3242    
     36500   36500          416.7789       333.70398      7794.1009      7385.1518      8040.8304     -655.67857      1671.5511      7204.2401     -9130.7227     -79.104309     -2784.3753      7869.9121     -5407.1796     -496.42789      84029.537      43.800324      43.800324      43.800324      0.99283583     248.01866     -610.42131      1363.5146    
     37000   37000          424.19792     -120.16282      7428.5235      7576.5824      8183.964      -607.3816       1632.8656      7243.0118     -9158.8669     -78.380531     -2695.6626      7851.5623     -5401.9113     -493.74131      84486.764      43.879623      43.879623      43.879623      0.98746279    -453.93919     -508.45859      601.90933    
     37500   37500          424.28031      812.97334      8583.176       7587.3216      8185.5536     -598.23196      1700.4777      7332.6462     -9266.3797     -82.478869     -2748.2114      7872.1854     -5406.4713     -496.6432       83993.108      43.793994      43.793994      43.793994      0.99326644     612.64815     -187.2653       2013.5372    
     38000   38000          423.43815     -110.391        7544.7567      7680.154       8169.306      -489.15199      1755.0046      7257.9217     -9148.2097     -79.355047     -2739.7918      7867.4068     -5402.1285     -496.00666      84100.898      43.81272       43.81272       43.81272       0.99199339     301.68185     -1615.9257      983.07085    
     38500   38500          419.05022     -489.27239      6870.4682      7469.7344      8084.6505     -614.91602      1769.578       7303.1185     -9170.3008     -78.61235      -2890.1742      7858.6802     -5407.2054     -496.70091      83983.349      43.792297      43.792297      43.792297      0.99338186     192.98595     -1441.5259     -219.27725    
     39000   39000          409.8336       232.15171      7644.6314      7360.1135      7906.8362     -546.72263      1670.1775      7334.901      -9193.665      -76.891604     -2744.1348      7865.0486     -5402.1584     -496.39375      84035.316      43.801328      43.801328      43.801328      0.99276756     1114.6831     -158.17449     -260.05349    
     39500   39500          421.77933     -169.08474      7237.9473      7446.469       8137.3028     -690.83377      1648.3217      7223.7517     -9204.9481     -82.199731     -2718.3063      7850.9112     -5408.3642     -493.30679      84561.182      43.892503      43.892503      43.892503      0.98659377    -502.25345      249.97661     -254.97738    
     40000   40000          417.59002      23.50702       7523.5641      7494.7494      8056.4791     -561.72971      1774.6453      7231.6659     -9159.1207     -83.463536     -2776.3254      7861.4056     -5410.5369     -496.30444      84050.439      43.803955      43.803955      43.803955      0.99258893     774.56759     -584.21674     -119.82978    
     40500   40500          422.77241      142.84529      7767.4915      7592.6085      8156.462      -563.85345      1695.2887      7223.1709     -9128.2943     -81.760144     -2721.1495      7861.3363     -5412.4454     -496.91543      83947.093      43.785995      43.785995      43.785995      0.9938109     -1023.0572      145.78383      1305.8092    
     41000   41000          423.02072      390.5219       8181.6025      7698.199       8161.2525     -463.0535       1769.3753      7214.7645     -9130.4204     -83.262102     -2705.2615      7875.5967     -5403.8459     -491.47298      84876.702      43.947027      43.947027      43.947027      0.98292621    -403.18144      797.17489      777.57226    
     41500   41500          412.73503     -257.48304      6928.4514      7245.0091      7962.8129     -717.80381      1727.9213      7125.4778     -9167.0409     -75.948847     -2773.3295      7855.6842     -5410.5678     -494.83428      84300.154      43.847293      43.847293      43.847293      0.98964868    -139.70945     -40.50358      -592.23609    
     42000   42000          413.92533     -611.29856      6582.5137      7335.7499      7985.777      -650.02713      1661.1451      7188.0554     -9163.1171     -79.959473     -2733.7949      7876.0106     -5398.3667     -493.72626      84489.341      43.88007       43.88007       43.88007       0.98743267     878.30663     -1216.4633     -1495.739     
     42500   42500          422.42257     -926.12025      6499.8706      7643.8916      8149.7126     -505.82095      1824.4238      7229.9973     -9178.39       -82.413542     -2745.487       7854.5434     -5408.4948     -492.48999      84701.429      43.916755      43.916755      43.916755      0.98496019    -1303.2883     -1351.3339     -123.73858    
     43000   43000          415.58375     -156.40731      7413.1832      7604.9355      8017.7725     -412.837        1740.3269      7399.7842     -9210.9218     -83.606936     -2706.9746      7858.3273     -5409.7722     -496.22709      84063.539      43.806231      43.806231      43.806231      0.99243425     979.76796     -567.90742     -881.08248    
     43500   43500          416.97287      477.6785       8069.0881      7482.821       8044.5726     -561.75156      1704.1123      7312.8505     -9170.4795     -79.614999     -2790.5475      7866.1197     -5404.192      -495.68319      84155.78       43.822248      43.822248      43.822248      0.99134647     488.15117     -358.8406       1303.7249    
     44000   44000          416.4623      -433.87334      6680.823       7212.8064      8034.7224     -821.91597      1631.1398      7047.9651     -9122.4474     -79.274146     -2757.8469      7866.6433     -5408.0958     -496.1682       84073.517      43.807964      43.807964      43.807964      0.99231647    -1527.9297      755.35042     -529.04078    
     44500   44500          421.99928     -511.33474      7072.0423      7701.2176      8141.5462     -440.32859      1707.9479      7329.8977     -9106.347      -85.757839     -2731.8075      7854.8485     -5409.1104     -494.42185      84370.473      43.859482      43.859482      43.859482      0.98882384    -1101.7533      202.93079     -635.18168    
     45000   45000          420.57535     -620.96908      6758.4153      7521.7328      8114.0746     -592.34183      1668.2269      7274.6108     -9127.1896     -82.260488     -2767.6046      7853.53       -5411.655      -494.91291      84286.76       43.844971      43.844971      43.844971      0.98980594     381.27439     -1604.2432     -639.93842    
     45500   45500          422.00435     -135.97184      7346.1493      7513.2214      8141.6439     -628.42255      1689.7951      7291.767      -9201.238      -81.49228      -2791.266       7865.4296     -5401.4179     -495.11861      84251.742      43.838898      43.838898      43.838898      0.99021733    -953.2486       0.59697453     544.73611    
     46000   46000          418.61945      34.472967      7357.7125      7315.6797      8076.3398     -760.66012      1659.1118      7237.6756     -9192.6251     -79.935748     -2841.0754      7863.438      -5407.2493     -498.9464       83605.384      43.726503      43.726503      43.726503      0.99787276    -541.62513      176.37002      468.67401    
     46500   46500          424.57457     -618.05672      6814.5805      7574.1786      8191.2307     -617.05207      1758.4516      7201.9955     -9218.135      -81.86625      -2757.8253      7880.1104     -5399.783      -495.00374      84271.294      43.842289      43.842289      43.842289      0.98998759    -591.24719     -979.50143     -283.42155    
     47000   47000          418.12404     -979.3401       6333.8482      7536.0855      8066.7818     -530.69635      1757.1654      7200.3746     -9154.1199     -83.141629     -2728.3158      7881.3023     -5403.9613     -495.57269      84174.546      43.825505      43.825505      43.825505      0.99112546    -1239.553      -964.77605     -733.69125    
     47500   47500          421.04756     -151.26914      7540.5155      7727.891       8123.1848     -395.29374      1667.5997      7292.4738     -9098.0579     -84.078243     -2638.4056      7867.9058     -5402.7312     -491.13564      84935.001      43.957086      43.957086      43.957086      0.98225154     253.86405     -815.10836      107.4369     
     48000   48000          413.48837      266.93276      7891.5943      7563.1711      7977.3469     -414.17577      1683.6704      7272.2506     -9155.7019     -77.346019     -2605.1132      7870.9278     -5402.8634     -494.46108      84363.78       43.858322      43.858322      43.858322      0.98890229     457.06745     -679.37074      1023.1016    
     48500   48500          416.06467     -255.75094      7156.9003      7472.0261      8027.0509     -555.02489      1728.0326      7218.3376     -9077.3717     -79.817094     -2794.7062      7862.0968     -5411.5969     -493.73896      84487.167      43.879693      43.879693      43.879693      0.98745807    -1039.8648     -58.270151      330.88214    
     49000   49000          421.97415      251.37644      7723.766       7415.9848      8141.0613     -725.07645      1691.0435      7152.033      -9246.4254     -80.769825     -2695.7114      7858.5166     -5403.763      -496.87436      83954.031      43.787201      43.787201      43.787201      0.99372876    -582.39264      1056.1362      280.3858     
     49500   49500          413.86561      157.04427      7622.0211      7429.69        7984.6249     -554.93484      1681.7081      7179.3512     -9107.057      -82.07807      -2703.6697      7880.9273     -5404.1167     -496.74856      83975.293      43.790897      43.790897      43.790897      0.99347716     544.5074      -212.25178      138.8772     
     50000   50000          423.58013      573.06205      8413.923       7708.2745      8172.045      -463.77054      1707.7538      7391.2356     -9225.8008     -76.061485     -2735.5383      7882.7097     -5408.069      -494.05721      84432.743      43.870269      43.870269      43.870269      0.98809457     8.1282997      1668.0216      43.036208    
     50500   50500          430.09445      634.39681      8535.2595      7753.8433      8297.7245     -543.88118      1649.8167      7248.8335     -9200.3286     -84.907053     -2640.698       7887.4635     -5404.0613     -493.90408      84458.921      43.874803      43.874803      43.874803      0.98778832     1763.0991     -47.224497      187.3158     
     51000   51000          423.06535      289.58295      7835.8383      7481.4021      8162.1136     -680.71152      1686.6015      7196.5289     -9144.2874     -81.684598     -2806.5365      7873.3465     -5404.6799     -497.04871      83924.584      43.782081      43.782081      43.782081      0.99407744     519.63349     -456.0669       805.18225    
     51500   51500          423.95489     -847.05615      6596.1579      7641.2593      8179.2754     -538.01607      1686.856       7381.4289     -9170.9037     -82.25512      -2786.986       7843.9237     -5410.0798     -493.08045      84599.999      43.899218      43.899218      43.899218      0.98614109    -1653.2881      286.29471     -1174.1751    
     52000   52000          420.80715      73.413488      7664.5912      7574.4292      8118.5467     -544.11746      1690.9313      7249.2273     -9156.6642     -80.717767     -2722.6643      7870.8266     -5395.0564     -495.35458      84211.608      43.831936      43.831936      43.831936      0.99068926     823.52468      168.13157     -771.41578    
     52500   52500          423.85608     -171.47618      7486.9227      7699.3248      8177.3691     -478.04423      1692.2346      7259.133      -9133.6065     -82.238036     -2692.0883      7876.0403     -5397.5193     -491.14402      84933.552      43.956836      43.956836      43.956836      0.9822683     -860.84759      1123.3646     -776.94554    
     53000   53000          416.81354     -83.877703      7397.0518      7500.434       8041.4986     -541.06465      1622.7803      7357.9992     -9172.2034     -84.293502     -2714.6307      7860.4257     -5411.1422     -493.58849      84512.923      43.884152      43.884152      43.884152      0.98715714    -342.31393      56.012174      34.668648    
     53500   53500          416.27219      910.25686      8631.3698      7516.2996      8031.0545     -514.75494      1687.3875      7256.7588     -9121.5334     -79.119685     -2707.7026      7860.2839     -5410.8296     -496.6218       83996.727      43.794623      43.794623      43.794623      0.99322364     734.22347      1622.9746      373.5725     
     54000   54000          426.80424      303.58966      8043.1429      7669.7744      8234.2472     -564.4728       1750.0237      7214.5098     -9152.7286     -76.350805     -2758.1872      7864.3606     -5406.1002     -494.66755      84328.567      43.852219      43.852219      43.852219      0.98931522    -353.21619     -183.20067      1447.1858    
     54500   54500          421.07026      642.5083       8319.5706      7530.1919      8123.6227     -593.43075      1694.9955      7175.2737     -9148.8982     -77.768481     -2697.5521      7867.2901     -5406.7712     -495.17352      84242.4        43.837278      43.837278      43.837278      0.99032715     521.47114      1505.1891     -99.135316    
     55000   55000          416.5856       955.15299      8647.6757      7474.882       8037.101      -562.21906      1702.8804      7185.9417     -9150.7872     -80.063478     -2689.9774      7873.8117     -5404.0248     -495.4677       84192.382      43.8286        43.8286        43.8286        0.99091549     882.06399      931.01949      1052.3755    
     55500   55500          422.525       -1010.419       6220.4395      7468.7527      8151.6888     -682.9361       1710.512       7156.8292     -9193.3789     -79.722751     -2745.7782      7872.1215     -5403.519      -492.42716      84712.236      43.918623      43.918623      43.918623      0.98483454    -1804.4277     -929.36082     -297.46844    
     56000   56000          423.47597      574.78307      8331.273       7629.6684      8170.0356     -540.36723      1679.2114      7252.7979     -9159.06       -78.063871     -2698.1378      7872.1483     -5409.2632     -498.39716      83697.519      43.74256       43.74256       43.74256       0.9967743      216.24587      1755.6252     -247.52189    
     56500   56500          424.82698     -698.7359       6787.8473      7653.5048      8196.1004     -542.5956       1730.1431      7269.401      -9203.8567     -83.305962     -2732.1887      7881.2612     -5404.0497     -491.05595      84948.783      43.959464      43.959464      43.959464      0.98209218    -356.9133      -653.20138     -1086.093     
     57000   57000          422.85284      402.5636       8080.5535      7580.5171      8158.0138     -577.49667      1629.0895      7230.1186     -9187.8233     -83.705854     -2654.7083      7892.8166     -5403.2839     -489.77536      85170.895      43.997744      43.997744      43.997744      0.97953104     328.36481      142.77086      736.55512    
     57500   57500          415.44809      318.93613      8057.7915      7664.821       8015.1554     -350.33441      1713.4731      7420.801      -9166.7987     -84.374036     -2695.5263      7863.8672     -5401.7767     -493.75071      84485.155      43.879345      43.879345      43.879345      0.98748159     2.4929045      168.4468       785.86868    
     58000   58000          425.20601     -388.71196      7342.8479      7821.3141      8203.4129     -382.09877      1641.5605      7412.3671     -9130.9126     -86.129903     -2683.328       7869.2457     -5404.9016     -494.24315      84400.979      43.864767      43.864767      43.864767      0.98846644    -1006.1592     -358.59637      198.61972    
     58500   58500          421.64721      1263.0948      9184.7678      7628.9238      8134.7537     -505.8299       1666.2764      7266.2617     -9139.2587     -85.40461      -2698.0288      7879.4334     -5395.1092     -493.89419      84460.612      43.875096      43.875096      43.875096      0.98776854     709.46073      2071.4465      1008.3772    
     59000   59000          419.44212     -1441.0515      5819.4423      7580.9182      8092.2114     -511.29326      1707.9022      7196.4014     -9098.3616     -82.742693     -2715.2789      7879.7481     -5398.9617     -497.69907      83814.916      43.763002      43.763002      43.763002      0.99537814    -2735.7757     -1009.2763     -578.10239    
     59500   59500          420.46595      508.61871      8234.6947      7610.9741      8111.9639     -500.98983      1635.9266      7314.7118     -9125.2412     -80.841567     -2723.612       7880.6744     -5402.608      -496.09664      84085.644      43.81007       43.81007       43.81007       0.99217335    -58.802424      712.18428      872.47427    
     60000   60000          419.33633      822.61993      8585.9305      7576.8512      8090.1704     -513.3192       1737.51        7225.9538     -9170.0906     -82.545346     -2703.7141      7881.5729     -5402.0058     -495.95009      84110.491      43.814385      43.814385      43.814385      0.99188025     289.91497      1574.2337      603.71115    
     60500   60500          417.27291      545.43846      8083.4393      7412.3889      8050.3613     -637.97234      1643.738       7147.1792     -9167.7696     -83.646356     -2667.7668      7895.0005     -5404.7073     -494.48676      84359.399      43.857563      43.857563      43.857563      0.98895365     1020.7096      76.186257      539.41949    
     61000   61000          419.74138      92.962435      7676.8476      7561.1311      8097.9849     -536.85382      1664.2593      7252.5956     -9184.8348     -81.570564     -2658.5474      7868.8584     -5397.6144     -488.73814      85351.648      44.028846      44.028846      44.028846      0.97745664     699.04868     -343.25996     -76.901417    
     61500   61500          420.45447      483.11147      8138.7223      7547.1655      8111.7425     -564.57704      1747.3344      7332.6136     -9268.9724     -77.810292     -2762.7142      7874.7197     -5409.7477     -496.83811      83960.157      43.788266      43.788266      43.788266      0.99365626     591.74448      323.68173      533.90822    
     62000   62000          425.40667     -77.203574      7371.8682      7466.0196      8207.2842     -741.26463      1643.1784      7232.0604     -9209.115      -81.728622     -2791.4528      7874.4085     -5408.6156     -498.85539      83620.638      43.729162      43.729162      43.729162      0.99769074    -1650.9274      664.07303      755.24363    
     62500   62500          413.19247     -286.62359      7051.9338      7405.3079      7971.6382     -566.33037      1656.8538      7214.2899     -9122.4068     -80.750291     -2699.7719      7869.2543     -5403.7993     -493.44791      84536.999      43.888318      43.888318      43.888318      0.986876      -470.58247      384.82546     -774.11376    
     63000   63000          418.68416      779.1667       8463.225       7499.5904      8077.5882     -577.99778      1662.4403      7301.5921     -9243.0875     -76.961396     -2655.6667      7846.9222     -5413.2367     -491.90591      84802.002      43.93413       43.93413       43.93413       0.98379206     493.88736      1482.1212      361.49157    
     63500   63500          416.30006      275.87335      8061.7408      7721.1245      8031.5922     -310.46769      1710.7771      7405.9573     -9094.2049     -80.830554     -2720.7897      7875.9438     -5407.3207     -492.72937      84660.28       43.909642      43.909642      43.909642      0.98543893     675.45056      188.63207     -36.462572    
     64000   64000          422.31999     -852.62451      6605.1695      7652.7055      8147.7336     -495.02804      1746.5546      7263.7721     -9178.9595     -81.1106       -2711.4634      7874.5954     -5408.4167     -495.16833      84243.282      43.837431      43.837431      43.837431      0.99031677    -1023.2227     -509.97611     -1024.6747    
     64500   64500          417.72688     -116.5428       7421.3994      7565.2754      8059.1196     -493.84427      1723.0117      7357.1343     -9264.267      -79.533047     -2698.0888      7875.3965     -5407.4979     -492.78913      84650.012      43.907867      43.907867      43.907867      0.98555847    -1557.8961      839.1779       369.08976    
     65000   65000          424.80642      679.7335       8286.1694      7451.3481      8195.7037     -744.35557      1685.4251      7066.6906     -9226.9873     -76.946831     -2668.2763      7881.5895     -5405.8504     -495.34658      84212.968      43.832172      43.832172      43.832172      0.99067326     825.48409      690.63328      523.08313    
     65500   65500          424.397       -99.798594      7570.2948      7693.5071      8187.8048     -494.2977       1638.2357      7398.6844     -9234.8808     -82.987831     -2685.0815      7877.9456     -5406.2132     -492.75889      84655.207      43.908765      43.908765      43.908765      0.98549798     1859.1093     -1184.1036     -974.4015     
     66000   66000          416.71512     -1215.1578      6099.7441      7604.4255      8039.5999     -435.17438      1763.8424      7332.7005     -9164.5196     -80.590997     -2728.3165      7851.9713     -5410.2614     -491.3061       84905.532      43.952002      43.952002      43.952002      0.98259246    -1424.0595     -2772.2681      550.85409    
     66500   66500          415.12137      479.82796      8052.6317      7458.4867      8008.852      -550.3653       1628.0476      7255.4273     -9210.258      -77.01572      -2619.8452      7876.3113     -5403.0327     -491.3117       84904.563      43.951835      43.951835      43.951835      0.98260367     512.62089     -344.6852       1271.5482    
     67000   67000          416.19773     -492.77114      6923.8178      7533.2843      8029.6181     -496.33382      1720.535       7244.8459     -9142.0878     -78.012897     -2690.4258      7854.9158     -5406.104      -491.88041      84806.398      43.93489       43.93489       43.93489       0.98374106    -7.4128401     -688.01265     -782.88794    
     67500   67500          414.74504      1112.8082      8684.0076      7324.8102      8001.5915     -676.7813       1684.1185      7033.0702     -9129.0083     -77.143972     -2645.5768      7871.365      -5413.606      -498.08312      83750.291      43.751751      43.751751      43.751751      0.99614622     1531.9722      1217.3916      589.06084    
     68000   68000          414.85823     -178.84256      7320.0691      7541.0561      8003.7753     -462.71922      1738.2723      7233.0477     -9206.9121     -81.351192     -2615.1464      7878.5064     -5409.1359     -492.3435       84726.63       43.92111       43.92111       43.92111       0.98466722    -1595.2474     -703.41757      1762.1373    
     68500   68500          419.92591     -666.72716      6747.0671      7572.8141      8101.5451     -528.73099      1723.9387      7241.9216     -9219.9469     -82.184658     -2678.1839      7888.7398     -5403.0157     -491.20772      84922.537      43.954936      43.954936      43.954936      0.98239571    -283.21186     -493.76786     -1223.2018    
     69000   69000          427.47816      328.73894      8125.1803      7717.9269      8247.2491     -529.32217      1699.5919      7234.2252     -9205.5186     -78.198436     -2651.4872      7879.375      -5407.3102     -491.07802      84944.966      43.958806      43.958806      43.958806      0.9821363      251.15382      497.44844      237.61456    
     69500   69500          425.57257     -886.29988      6662.5382      7762.3809      8210.4849     -448.104        1736.6124      7349.0165     -9217.7848     -83.172532     -2690.4536      7865.9714     -5408.2933     -490.2461       85089.113      43.983657      43.983657      43.983657      0.9804725     -1635.4202     -1004.0617     -19.41764     
     70000   70000          419.41142      1215.4965      9135.738       7623.7815      8091.6191     -467.83753      1732.1023      7201.9817     -9176.374      -79.644812     -2610.8307      7869.2458     -5404.3178     -489.07837      85292.273      44.018634      44.018634      44.018634      0.97813709    -601.07101      2447.3416      1800.2189    
     70500   70500          419.10988     -1704.2046      5462.7164      7568.4273      8085.8015     -517.3742       1760.2977      7187.2839     -9115.6515     -81.866586     -2723.3917      7864.7191     -5408.7652     -492.36482      84722.962      43.920476      43.920476      43.920476      0.98470986    -1586.9314     -2200.4673     -1325.215     
     71000   71000          413.50281     -560.39201      6922.969       7617.5568      7977.6255     -360.06868      1741.6035      7207.9159     -9072.5369     -83.771928     -2634.5083      7884.6778     -5403.4488     -490.82743      84988.335      43.966285      43.966285      43.966285      0.98163513    -562.03857     -379.90668     -739.23078    
     71500   71500          415.95314      1244.6422      9041.5852      7502.6235      8024.8992     -522.27564      1657.4625      7279.1397     -9164.5539     -81.279089     -2670.9177      7866.7336     -5408.8607     -492.01775      84782.726      43.930801      43.930801      43.930801      0.98401573     849.85005      1866.6214      1017.4552    
     72000   72000          417.62803      221.98162      7860.9036      7585.787       8057.2125     -471.42556      1640.5228      7256.2615     -9154.734      -82.963849     -2592.6422      7866.9129     -5404.7828     -490.86737      84981.42       43.965093      43.965093      43.965093      0.98171501     404.6272       116.64111      144.67654    
     72500   72500          428.48002     -95.976262      7665.4913      7784.7401      8266.5778     -481.83763      1660.4633      7325.3968     -9206.3176     -85.265827     -2643.1307      7873.1805     -5406.1641     -489.63651      85195.048      44.001902      44.001902      44.001902      0.97925334     1477.3475     -621.52486     -1143.7514    
     73000   73000          418.08541     -771.89287      6640.0861      7591.4763      8066.0366     -474.56027      1684.4732      7358.1591     -9191.1999     -87.348779     -2698.6318      7866.6381     -5406.6501     -493.58551      84513.434      43.88424       43.88424       43.88424       0.98715118    -1104.5508     -84.527618     -1126.6002    
     73500   73500          419.77499      100.94673      7631.9883      7507.1567      8098.6334     -591.4767       1665.4142      7209.5055     -9196.2118     -77.640203     -2647.8089      7866.3384     -5411.074      -491.96209      84792.317      43.932458      43.932458      43.932458      0.98390442     1068.7156      365.64683     -1131.5223    
     74000   74000          416.54138     -555.50923      6729.4519      7414.2318      8036.2479     -622.01607      1684.1833      7231.7312     -9208.8349     -74.57866      -2736.2589      7888.3375     -5406.5956     -493.51949      84524.739      43.886197      43.886197      43.886197      0.98701914    -654.92248     -1289.6799      278.0747     
     74500   74500          410.06125      196.44083      7585.1738      7341.448       7911.2281     -569.78011      1645.8851      7240.0593     -9163.2097     -84.197103     -2682.0415      7880.1669     -5406.443      -490.33673      85073.386      43.980947      43.980947      43.980947      0.98065375     530.56614     -152.31913      211.07549    
     75000   75000          416.22787     -146.48126      7299.4596      7480.4722      8030.1996     -549.72739      1679.4622      7375.322      -9277.2876     -82.13875      -2711.5393      7876.0432     -5409.5891     -492.30843      84732.665      43.922153      43.922153      43.922153      0.98459709    -268.86422      233.47059     -404.05015    
     75500   75500          429.57562     -22.053163      7612.8105      7639.9603      8287.715      -647.75468      1706.7528      7279.1587     -9271.9526     -83.373842     -2729.931       7861.8589     -5410.2677     -494.16112      84414.989      43.867194      43.867194      43.867194      0.98830239     832.27849     -705.6243      -192.81368    
     76000   76000          412.96032      544.10622      8365.1898      7690.9581      7967.1593     -276.20121      1717.8045      7391.2854     -9150.5177     -82.695236     -2616.9027      7877.1366     -5412.3121     -490.95145      84966.866      43.962583      43.962583      43.962583      0.98188317     640.03842      16.9666        975.31365    
     76500   76500          425.99434     -910.65449      6727.6025      7855.8207      8218.622      -362.80128      1768.6401      7248.2407     -9102.5309     -81.988811     -2670.0658      7882.2778     -5407.3744     -491.04868      84950.041      43.959681      43.959681      43.959681      0.98207763    -1043.9853     -1836.588       148.60983    
     77000   77000          421.69346      1287.937       9327.104       7759.1864      8135.646      -376.45954      1650.8233      7450.3876     -9124.7989     -86.138749     -2757.0573      7895.4401     -5405.1155     -499.73         83474.287      43.703636      43.703636      43.703636      0.99943992     1097.8712      1942.3225      823.61724    
     77500   77500          412.86297     -968.3841       6309.4253      7507.5864      7965.2811     -457.69475      1761.9546      7303.5061     -9245.6255     -81.173749     -2658.9373      7872.6567     -5410.0757     -491.6958       84838.238      43.940387      43.940387      43.940387      0.98337185    -1438.2919     -34.383709     -1432.4767    
     78000   78000          422.91119      255.17043      7916.9652      7600.4969      8159.1395     -558.64264      1692.6551      7172.5614     -9185.2277     -76.345992     -2647.8669      7888.1778     -5402.5962     -490.52841      85040.143      43.975217      43.975217      43.975217      0.98103711     241.09341      588.54862     -64.13074     
     78500   78500          414.22395     -395.93959      6988.8781      7479.3444      7991.5383     -512.19391      1663.2         7235.7158     -9133.7858     -80.842557     -2677.9604      7885.3795     -5403.9004     -491.11569      84938.451      43.957682      43.957682      43.957682      0.98221164    -268.80943     -347.62986     -571.37948    
     79000   79000          425.85018      51.415351      7775.2932      7712.1763      8215.8407     -503.66432      1701.0765      7313.1337     -9185.1803     -77.631803     -2738.0297      7887.2243     -5404.257      -495.57767      84173.699      43.825358      43.825358      43.825358      0.99113544    -120.04614      434.57863     -160.28643    
     79500   79500          421.78128     -411.85189      7110.6112      7613.143       8137.3403     -524.19727      1680.0368      7299.3058     -9200.8751     -81.102173     -2703.0348      7884.528      -5403.0559     -498.58769      83665.535      43.736987      43.736987      43.736987      0.99715535    -566.70692     -1052.9528      384.10403    
     80000   80000          421.93242     -698.55539      6700.4666      7559.852       8140.2562     -580.40421      1734.8207      7160.1233     -9187.1165     -77.248408     -2684.5407      7878.1674     -5404.6099     -494.51207      84355.081      43.856814      43.856814      43.856814      0.98900428    -1556.7887     -1040.729       501.85149    
     80500   80500          422.22498     -542.10049      7008.4925      7682.9805      8145.9006     -462.92012      1685.1229      7281.1183     -9196.9686     -77.399507     -2630.5982      7875.4502     -5399.6452     -488.95581      85313.652      44.022312      44.022312      44.022312      0.97789197    -182.32631     -798.21778     -645.75738    
     81000   81000          420.34289     -16.957872      7539.9556      7560.9384      8109.5897     -548.65135      1731.8541      7234.5781     -9244.3988     -81.00902      -2665.8353      7873.8138     -5397.6543     -491.66911      84842.845      43.941183      43.941183      43.941183      0.98331846    -101.78291     -217.07216      267.98146    
     81500   81500          416.01987     -300.70371      7138.2629      7507.106       8026.1866     -519.08054      1682.467       7364.8932     -9218.5672     -80.863195     -2771.6797      7899.5907     -5394.9214     -495.97658      84105.999      43.813605      43.813605      43.813605      0.99193323    -2016.612       1696.3767     -581.87584    
     82000   82000          417.17346     -959.99882      6200.5769      7389.7704      8048.4426     -658.67216      1689.4014      7150.23       -9163.5552     -80.771141     -2737.4518      7887.0288     -5403.5544     -491.11386      84938.766      43.957736      43.957736      43.957736      0.982208      -213.83763     -1825.1483     -841.01052    
     82500   82500          422.5645       714.82903      8525.8257      7641.3372      8152.4509     -511.11371      1700.115       7181.7186     -9133.7475     -76.875574     -2673.2736      7886.5456     -5395.5963     -491.67031      84842.637      43.941147      43.941147      43.941147      0.98332087     21.474041      1883.9446      239.06846    
     83000   83000          420.43258      648.58975      8341.2078      7543.4575      8111.3201     -567.86262      1677.8016      7300.15       -9254.3351     -84.732906     -2691.1363      7881.6484     -5397.2583     -494.61484      84337.554      43.853777      43.853777      43.853777      0.98920981     1155.8868     -1168.6201      1958.5025    
     83500   83500          418.95904      502.65865      8221.6153      7603.9391      8082.8915     -478.95235      1687.1091      7309.038      -9180.6801     -80.500404     -2710.9039      7895.017      -5398.0319     -495.08106      84258.132      43.840006      43.840006      43.840006      0.99014224     213.96624      992.94617      301.06355    
     84000   84000          426.11884     -181.58342      7384.2659      7606.2413      8221.0239     -614.78262      1677.8823      7222.9994     -9138.6653     -81.360359     -2770.9093      7880.5493     -5405.2787     -497.6629       83821.008      43.764062      43.764062      43.764062      0.9953058      167.30113      166.36272     -878.4141     
     84500   84500          410.87164      483.51766      7877.055       7285.0259      7926.8628     -641.83689      1712.7405      7242.0526     -9207.0701     -78.694686     -2779.408       7873.5963     -5405.0535     -496.85917      83956.598      43.787647      43.787647      43.787647      0.99369838     349.29539      40.790421      1060.4672    
     85000   85000          415.41535      747.02644      8381.8878      7459.6983      8014.5237     -554.82545      1665.6255      7204.7999     -9162.1532     -82.008087     -2669.1269      7888.376      -5400.3387     -492.81037      84646.364      43.907236      43.907236      43.907236      0.98560094    -471.59381      497.64873      2215.0244    
     85500   85500          422.07656      101.47522      7754.0788      7629.1332      8143.037      -513.90384      1678.4641      7347.689      -9220.3773     -82.305359     -2704.8197      7866.5196     -5399.0742     -494.08641      84427.753      43.869405      43.869405      43.869405      0.98815297    -970.9861       216.80108      1058.6107    
     86000   86000          412.95823     -539.71459      6738.5572      7406.5464      7967.119      -560.57253      1648.9524      7373.8328     -9213.9952     -78.789883     -2740.8096      7854.5454     -5404.3085     -491.53982      84865.16       43.945035      43.945035      43.945035      0.98305989    -454.57725     -696.98277     -467.58375    
     86500   86500          418.52939      243.29131      7782.4609      7484.5137      8074.6022     -590.08855      1662.9974      7285.9191     -9124.6491     -81.950205     -2795.4186      7863.7852     -5400.7723     -496.76532      83972.46       43.790405      43.790405      43.790405      0.99351068     239.55192     -170.86859      661.19061    
     87000   87000          415.84978      140.84849      7642.2522      7470.4947      8022.905      -552.41037      1642.8851      7285.0406     -9126.3528     -78.777545     -2745.7995      7873.3911     -5402.7974     -498.88507      83615.663      43.728295      43.728295      43.728295      0.99775009    -282.86223      1287.833      -582.42529    
     87500   87500          423.48633      196.73697      7667.4305      7426.0563      8170.2355     -744.1792       1667.3846      7193.9253     -9297.4852     -76.329653     -2683.7872      7858.9481     -5406.8353     -495.86019      84125.741      43.817033      43.817033      43.817033      0.99170045     729.59365     -166.34366      26.960913    
     88000   88000          424.84168     -7.9229808      7719.6147      7729.3583      8196.384      -467.02564      1676.1413      7501.0744     -9248.0863     -83.538195     -2763.9972      7859.6057     -5408.2252     -494.68875      84324.953      43.851592      43.851592      43.851592      0.98935763    -267.53407      1199.4322     -955.66706    
     88500   88500          423.39407      260.4632       8071.1182      7751.0879      8168.4556     -417.36766      1715.7129      7372.5122     -9199.7575     -79.302983     -2697.2789      7875.0779     -5404.3313     -495.13011      84249.786      43.838559      43.838559      43.838559      0.99024032    -777.79834      1008.6808      550.50715    
     89000   89000          418.96612      244.06199      7748.1356      7449.7367      8083.028      -633.29129      1705.9148      7267.3326     -9246.3804     -83.01155      -2748.2264      7876.1324     -5405.0528     -497.58457      83834.203      43.766358      43.766358      43.766358      0.99514915    -764.96934      900.13805      597.01725    
     89500   89500          421.94245      153.14836      7760.8163      7572.316       8140.4498     -568.13377      1725.8258      7311.2451     -9252.4359     -84.343408     -2726.2321      7865.3333     -5407.5266     -494.27006      84396.384      43.863971      43.863971      43.863971      0.98852025     1719.3906      369.83874     -1629.7842    
     90000   90000          424.28547     -63.37504       7546.3766      7624.8541      8185.653      -560.79892      1688.1594      7332.6601     -9267.705      -78.555247     -2699.3992      7869.5869     -5405.5458     -491.28892      84908.5        43.952514      43.952514      43.952514      0.98255811     171.80406     -118.09179     -243.83739    
     90500   90500          420.20411      489.21965      8084.9909      7489.2701      8106.9123     -617.64222      1745.8418      7244.4589     -9221.4045     -79.963651     -2765.4983      7866.692      -5407.7684     -499.60311      83495.489      43.707336      43.707336      43.707336      0.99918614    -94.400776      1128.5723      433.48743    
     91000   91000          417.70586     -362.4665       7044.4453      7492.4594      8058.714      -566.25465      1659.0226      7329.0907     -9207.2972     -77.679803     -2745.9898      7881.0384     -5404.4395     -492.1985       84751.591      43.925423      43.925423      43.925423      0.98437722    -225.46574     -506.33107     -355.60267    
     91500   91500          414.80987     -538.74644      6685.3201      7346.0516      8002.8424     -656.79076      1689.1112      7294.8299     -9201.8332     -80.565308     -2803.4569      7859.1346     -5414.0111     -496.04763      84093.952      43.811513      43.811513      43.811513      0.99207534    -642.6018       238.66756     -1212.3051    
     92000   92000          415.90386     -791.86219      6509.1514      7485.3965      8023.9485     -538.55193      1718.9674      7303.3058     -9191.4375     -79.910426     -2762.2112      7873.4349     -5400.7009     -493.46317      84534.385      43.887866      43.887866      43.887866      0.98690652    -395.37141     -820.80264     -1159.4125    
     92500   92500          416.63029      238.01987      7914.1144      7620.5628      8037.9633     -417.40051      1758.2777      7251.9059     -9133.5728     -84.254433     -2671.8502      7862.9821     -5400.8888     -493.27926      84565.902      43.89332       43.89332       43.89332       0.9865387      393.87908     -193.96825      514.14877    
     93000   93000          416.51165      180.50034      7770.2896      7548.3089      8035.6743     -487.36543      1763.4017      7347.3357     -9239.4933     -81.341763     -2728.1742      7859.2531     -5408.3466     -494.68272      84325.982      43.851771      43.851771      43.851771      0.98934556     565.24194     -515.96401      492.22309    
     93500   93500          414.15935      1027.3395      8476.4638      7213.1079      7990.292      -777.18402      1567.5819      7264.9873     -9203.8856     -81.611272     -2787.808       7875.1989     -5411.6473     -494.71187      84321.013      43.850909      43.850909      43.850909      0.98940386     1382.5707     -79.151052      1778.5988    
     94000   94000          422.27505     -482.01079      7001.811       7594.8638      8146.8664     -552.0026       1764.5309      7049.5918     -9120.6219     -80.505368     -2661.9303      7899.3292     -5402.397      -494.45575      84364.69       43.858479      43.858479      43.858479      0.98889163     746.14496     -1907.0294     -285.14792    
     94500   94500          429.36485      296.89787      8099.541       7733.5973      8283.6486     -550.05136      1652.6693      7337.9204     -9234.0316     -82.034478     -2704.6809      7882.2052     -5402.0993     -493.5791       84514.53       43.88443       43.88443       43.88443       0.98713837     1127.1441     -373.97197      137.52145    
     95000   95000          422.94799     -883.76727      6358.9151      7444.2786      8159.8495     -715.57091      1682.8725      7211.1465     -9268.5286     -77.232909     -2738.4365      7874.4672     -5399.859      -495.36662      84209.562      43.831581      43.831581      43.831581      0.99071333    -718.07266     -212.80322     -1720.4259    
     95500   95500          419.93046      90.47419       7638.8017      7528.2314      8101.6327     -573.40134      1676.5328      7269.2059     -9140.496      -84.336042     -2792.2402      7894.595      -5396.6628     -497.79456      83798.839      43.760204      43.760204      43.760204      0.99556911     166.73446      492.89315     -388.20504    
     96000   96000          424.4548       107.96384      7697.7686      7565.6392      8188.9199     -623.28073      1664.3415      7245.56       -9193.0618     -79.904509     -2757.9308      7898.9133     -5401.1986     -497.09926      83916.049      43.780597      43.780597      43.780597      0.99417855     699.08126     -1114.3306      739.14085    
     96500   96500          422.0444      -59.182903      7453.6399      7525.8988      8142.4166     -616.51773      1639.6971      7273.7718     -9142.6846     -84.598227     -2779.2443      7875.4558     -5398.9152     -498.27499      83718.041      43.746135      43.746135      43.746135      0.99652996     572.21264      360.20557     -1109.9669    
     97000   97000          424.5875       160.76211      7715.0057      7518.2541      8191.4801     -673.22602      1681.9995      7187.0625     -9172.2346     -79.145333     -2794.6829      7901.174      -5397.3992     -497.0835       83918.709      43.781059      43.781059      43.781059      0.99414703     429.12013     -78.027789      131.19399    
     97500   97500          416.3689       907.4241       8508.8758      7404.4494      8032.9203     -628.47091      1661.7807      7286.7833     -9163.9456     -80.105345     -2783.0557      7861.294      -5411.2222     -499.84753      83454.661      43.700211      43.700211      43.700211      0.99967497     3413.0412      843.7542      -1534.5231    
     98000   98000          418.39005      314.27443      7675.0247      7288.1236      8071.914      -783.7904       1658.3217      7129.3635     -9254.0231     -77.843977     -2712.4344      7875.2214     -5402.3956     -494.16627      84414.11       43.867042      43.867042      43.867042      0.98831268     1317.2965      677.92252     -1052.3957    
     98500   98500          424.02634     -222.47768      7248.8227      7522.3095      8180.6538     -658.34431      1665.6316      7228.91       -9207.1707     -76.506132     -2726.0149      7861.8618     -5405.0561     -494.89617      84289.611      43.845465      43.845465      43.845465      0.98977246    -134.09038     -253.38723     -279.95542    
     99000   99000          416.60649      256.2376       7817.9921      7506.3452      8037.5041     -531.15895      1707.3376      7235.9845     -9087.8326     -78.386085     -2771.0408      7868.8593     -5406.0807     -500.20033      83395.798      43.689934      43.689934      43.689934      1.0003806      8.9220857      653.76694      106.02377    
     99500   99500          420.10286     -153.86424      7241.4844      7428.6978      8104.9589     -676.26114      1639.2791      7285.3357     -9172.1794     -79.996721     -2810.5532      7864.2489     -5402.3956     -499.99413      83430.191      43.695939      43.695939      43.695939      0.99996817    -1329.1831     -19.922458      887.51283    
    100000   100000         417.66063      171.72093      7548.6585      7340.3322      8057.8414     -717.50918      1656.225       7261.2468     -9177.7956     -77.723049     -2866.2835      7888.5197     -5401.6984     -501.46787      83185.003      43.653092      43.653092      43.653092      1.0029156      1001.9171     -751.98849      265.23417    
    100500   100500         431.19366     -841.09516      6788.0483      7819.4853      8318.9315     -499.44615      1681.7951      7254.8569     -9120.1392     -79.787059     -2709.841       7874.0491     -5400.38       -496.09685      84085.609      43.810064      43.810064      43.810064      0.99217376    -1575.8785     -1156.1802      208.77322    
    101000   101000         425.40385      263.83578      7864.8354      7542.5703      8207.2298     -664.65951      1665.7799      7230.5393     -9178.0587     -79.806859     -2773.1489      7875.0122     -5404.9764     -498.06315      83753.649      43.752336      43.752336      43.752336      0.99610628    -145.17427      485.17622      451.5054     
    101500   101500         420.46968      296.69703      7830.5855      7469.0041      8112.0358     -643.03171      1723.533       7182.6802     -9208.3107     -84.595381     -2729.0449      7879.194      -5406.4879     -499.19608      83563.569      43.719212      43.719212      43.719212      0.9983721      273.96799     -64.693196      680.81628    
    102000   102000         417.22824      207.57581      7674.4356      7420.0292      8049.4994     -629.47026      1744.5439      7255.8248     -9254.6509     -77.214727     -2760.8295      7870.549      -5407.6927     -496.37822      84037.945      43.801785      43.801785      43.801785      0.9927365      802.92238      847.00786     -1027.2028    
    102500   102500         416.10084      114.38144      7643.9321      7503.0643      8027.7488     -524.68448      1681.5898      7310.5684     -9164.5572     -81.538585     -2727.2255      7866.6118     -5410.1332     -493.97837      84446.219      43.872603      43.872603      43.872603      0.9879369     -51.993621      1185.2215     -790.08357    
    103000   103000         430.50555     -873.64994      6653.3631      7735.1904      8305.6559     -570.46552      1732.3108      7189.2612     -9150.7601     -81.497199     -2719.0572      7866.6779     -5407.401      -491.29637      84907.214      43.952292      43.952292      43.952292      0.982573      -300.29357      619.4993      -2940.1555    
    103500   103500         426.58765      755.26082      8650.3441      7724.9864      8230.0686     -505.08221      1669.0089      7382.5        -9192.2564     -83.321251     -2732.6521      7863.4299     -5411.7913     -496.53671      84011.122      43.797124      43.797124      43.797124      0.99305346    -118.79728      1475.932       908.6477     
    104000   104000         424.74108     -387.40748      7164.8278      7640.9471      8194.4432     -553.49603      1681.3523      7283.6356     -9154.5449     -81.190361     -2728.2418      7855.4401     -5409.9471     -495.01255      84269.794      43.842029      43.842029      43.842029      0.99000521     332.73418     -1589.9836      95.026949    
    104500   104500         421.01871      133.82975      7789.7807      7624.1407      8122.6281     -498.48736      1690.3767      7151.594      -9102.7251     -80.055073     -2614.3195      7865.5027     -5408.861      -491.53175      84866.554      43.945275      43.945275      43.945275      0.98304375     110.8877       726.21758     -435.61605    
    105000   105000         412.63814      342.91821      7698.8838      7274.0413      7960.9436     -686.90223      1643.3919      7091.4155     -9182.165      -76.058525     -2631.1495      7877.3262     -5409.6628     -491.05109      84949.624      43.959609      43.959609      43.959609      0.98208246    -285.72593      40.14149       1274.3391    
    105500   105500         416.592       -204.34016      7342.6853      7595.7139      8037.2245     -441.51063      1724.7286      7375.6283     -9164.279      -78.160045     -2730.8712      7848.3783     -5416.9355     -491.30172      84906.288      43.952133      43.952133      43.952133      0.98258371    -462.75211     -549.68189      399.41352    
    106000   106000         418.17916     -129.20831      7520.9539      7681.1613      8067.8453     -386.684        1714.0316      7350.6288     -9159.9481     -81.591418     -2655.1746      7857.4598     -5412.0901     -490.65023      85019.029      43.971578      43.971578      43.971578      0.98128074    -325.92262     -779.38015      717.67785    
    106500   106500         423.0286      -106.61849      7524.8755      7657.046       8161.4045     -504.35851      1652.5276      7283.2053     -9125.8968     -81.752382     -2682.8951      7862.7994     -5412.3466     -490.75177      85001.437      43.968544      43.968544      43.968544      0.98148383     836.27131      226.15325     -1382.28      
    107000   107000         416.97466     -213.06352      7369.4974      7633.7911      8044.6072     -410.8161       1711.7847      7362.5283     -9155.6229     -80.063537     -2714.2585      7870.7247     -5405.909      -490.44055      85055.378      43.977843      43.977843      43.977843      0.98086139     111.997       -506.8286      -244.35895    
    107500   107500         412.12785     -228.09975      7267.5828      7549.0176      7951.0987     -402.08108      1705.2874      7343.3967     -9140.1465     -75.858979     -2686.4927      7856.5184     -5404.7854     -493.07285      84601.303      43.899444      43.899444      43.899444      0.98612589     1461.9712     -1798.8763     -347.3942     
    108000   108000         419.08882      180.92156      7775.359       7551.4271      8085.3952     -533.96814      1657.5496      7316.4663     -9166.7775     -80.044355     -2725.6172      7867.9052     -5403.4503     -491.5168       84869.136      43.945721      43.945721      43.945721      0.98301384     1726.8513      84.655592     -1268.7422    
    108500   108500         421.59882      84.929658      7660.6102      7555.026       8133.8201     -578.7941       1686.6332      7274.6218     -9198.5337     -77.979129     -2719.76        7862.9165     -5406.6929     -489.35549      85243.972      44.010323      44.010323      44.010323      0.97869132     954.98683     -257.70867     -442.48918    
    109000   109000         415.39497      119.89607      7690.6094      7543.6061      8014.1306     -470.52444      1765.6132      7206.5377     -9093.2208     -78.419762     -2734.7468      7871.6495     -5407.9375     -496.18328      84070.961      43.80752       43.80752       43.80752       0.99234663     42.437396     -612.90727      930.15809    
    109500   109500         417.36345      152.6412       7568.1479      7381.2869      8052.108      -670.82106      1637.0162      7232.2646     -9135.0028     -78.05897      -2805.7659      7881.5654     -5402.8396     -496.95524      83940.369      43.784826      43.784826      43.784826      0.99389051     848.51082     -1705.8338      1315.2466    
    110000   110000         414.08035      660.26415      8351.909       7537.4945      7988.7679     -451.27341      1639.565       7319.7832     -9201.0854     -76.973129     -2642.9178      7906.4524     -5396.0978     -493.21497      84576.926      43.895227      43.895227      43.895227      0.98641012     423.5899       1067.5433      489.65923    
    110500   110500         419.20766     -813.18652      6677.0307      7683.9244      8087.6879     -403.76355      1727.3278      7257.1351     -9145.7857     -79.387145     -2629.5152      7873.6182     -5407.1565     -491.32695      84901.929      43.95138       43.95138       43.95138       0.98263415    -1857.0529      369.2693      -951.77595    
    111000   111000         421.6035      -648.61415      7001.8118      7795.7251      8133.9105     -338.18542      1781.0011      7390.2557     -9222.3278     -82.373572     -2714.5305      7906.2184     -5396.4288     -497.02405      83928.747      43.782805      43.782805      43.782805      0.99402813     471.50329     -1607.2359     -810.10983    
    111500   111500         412.2341      -61.602953      7369.0545      7444.9759      7953.1486     -508.17267      1725.8506      7148.9838     -9133.5239     -75.408354     -2670.8713      7897.9432     -5401.1467     -493.62978      84505.854      43.882928      43.882928      43.882928      0.98723972     2171.6483     -1427.4682     -928.98896    
    112000   112000         431.76056      450.13524      8225.5219      7668.6737      8329.8685     -661.19475      1663.9234      7158.6458     -9180.7426     -79.725855     -2691.8968      7874.9991     -5406.3979     -491.77926      84823.841      43.937901      43.937901      43.937901      0.98353877     1340.1188     -769.79316      780.08011    
    112500   112500         418.31631      1444.8047      9413.9223      7637.2738      8070.4913     -433.2175       1635.3313      7382.2492     -9147.4467     -82.48808      -2672.7767      7862.2677     -5410.3542     -494.73389      84317.26       43.850259      43.850259      43.850259      0.9894479      2715.071       1885.5994     -266.25643    
    113000   113000         417.42856     -896.02534      6402.2039      7510.4482      8053.3642     -542.91602      1717.1198      7195.9531     -9200.9995     -76.046153     -2634.2338      7866.1876     -5410.8971     -491.86827      84808.492      43.935251      43.935251      43.935251      0.98371677    -31.802059     -1243.7949     -1412.4791    
    113500   113500         419.90924     -1502.6406      5635.3564      7497.5944      8101.2233     -603.62894      1672.9975      7170.6473     -9045.5065     -83.556112     -2757.2761      7850.3355     -5411.2706     -490.88977      84977.541      43.964424      43.964424      43.964424      0.98175982    -1796.5944     -2362.3754     -348.95212    
    114000   114000         414.04224      20.428062      7529.1874      7504.1051      7988.0326     -483.9275       1659.8138      7386.7947     -9168.5207     -80.907841     -2709.9404      7841.2887     -5412.4559     -495.47699      84190.803      43.828326      43.828326      43.828326      0.99093407     551.32395     -694.42731      204.38755    
    114500   114500         419.47789     -294.47476      7081.6455      7443.373       8092.9015     -649.52855      1628.8698      7298.3485     -9167.318      -78.429014     -2767.6515      7847.9662     -5411.3145     -495.25702      84228.198      43.834814      43.834814      43.834814      0.99049413    -127.1787       44.607901     -800.85348    
    115000   115000         425.21727     -58.363125      7554.3225      7626.4641      8203.6301     -577.166        1651.8584      7362.6379     -9209.9761     -81.724401     -2756.8038      7865.3645     -5408.5226     -492.172        84756.155      43.926211      43.926211      43.926211      0.98432422     529.26777     -884.83652      180.47938    
    115500   115500         429.29178      189.01507      8060.5897      7825.8061      8282.2388     -456.43267      1648.2525      7344.4433     -9222.7063     -78.366126     -2605.9865      7867.7649     -5409.8345     -489.77052      85171.738      43.997889      43.997889      43.997889      0.97952135    -1394.6355      1966.7449     -5.0642099    
    116000   116000         417.98333     -34.021165      7688.7552      7730.8249      8064.0672     -333.2423       1697.1655      7411.9965     -9139.2833     -74.86938      -2686.3348      7868.6603     -5410.5773     -491.97648      84789.837      43.93203       43.93203       43.93203       0.9839332     -260.79878     -129.74734      288.48263    
    116500   116500         419.51906     -896.46768      6421.2949      7525.8945      8093.6957     -567.80123      1662.0823      7297.9766     -9165.6269     -84.076958     -2742.3692      7871.8973     -5407.6843     -493.73485      84487.871      43.879815      43.879815      43.879815      0.98744985    -163.6385      -1698.5268     -827.23774    
    117000   117000         419.91616      453.64812      8126.6363      7566.2072      8101.3569     -535.14977      1671.6453      7288.9626     -9151.4509     -78.844551     -2731.6928      7873.8925     -5407.662      -492.45031      84708.253      43.917935      43.917935      43.917935      0.98488084     940.64217      422.6318      -2.3296083    
    117500   117500         416.18028     -1029.9506      6279.2174      7551.3912      8029.2813     -477.89007      1718.4297      7303.5772     -9130.6437     -79.238701     -2762.087       7879.6414     -5407.569      -492.53146      84694.298      43.915523      43.915523      43.915523      0.98504312    -867.37448     -886.37409     -1336.1032    
    118000   118000         431.55757      417.78963      8297.2369      7785.1971      8325.9522     -540.7551       1699.9124      7289.9688     -9194.8235     -82.37146      -2720.2205      7876.4907     -5409.7115     -496.38421      84036.931      43.801609      43.801609      43.801609      0.99274848     686.8612       806.17456     -239.66687    
    118500   118500         427.68614     -360.08915      7347.2357      7793.4279      8251.2615     -457.83359      1688.0789      7388.5121     -9227.7365     -78.715694     -2709.8368      7882.3001     -5400.4356     -490.96671      84964.225      43.962127      43.962127      43.962127      0.98191369    -537.8585      -628.08087      85.671936    
    119000   119000         424.70214     -83.515514      7630.6416      7734.3329      8193.6918     -459.35889      1679.4981      7376.0923     -9186.0301     -80.616935     -2710.9838      7871.0168     -5408.3354     -489.99203      85133.234      43.991258      43.991258      43.991258      0.97996436     318.46867     -319.09876     -249.91645    
    119500   119500         417.72875     -216.91567      7331.1853      7599.3346      8059.1557     -459.82115      1686.3811      7434.979      -9197.8679     -81.62014      -2748.2621      7857.6039     -5411.0349     -492.12831      84763.679      43.927511      43.927511      43.927511      0.98423684    -213.89995      278.98106     -715.82813    
    120000   120000         419.07934      107.52082      7673.3602      7540.6267      8085.2124     -544.58571      1664.8981      7211.0676     -9160.3049     -83.409948     -2668.2752      7889.1576     -5397.719      -492.80579      84647.151      43.907372      43.907372      43.907372      0.98559177     1026.467      -863.12177      159.21722    
    120500   120500         409.35556      483.92955      8043.6631      7445.0171      7897.6135     -452.59637      1634.2963      7340.1514     -9183.656      -81.385748     -2663.9536      7900.4842     -5398.5329     -491.78588      84822.699      43.937704      43.937704      43.937704      0.983552       412.83834     -474.2828       1513.2331    
    121000   121000         421.42064      437.06314      8209.9221      7670.6136      8130.3826     -459.76906      1680.6141      7312.3049     -9180.1944     -80.369842     -2682.2171      7891.0777     -5400.9844     -493.02723      84609.131      43.900798      43.900798      43.900798      0.98603465     225.16339     -293.09869      1379.1247    
    121500   121500         424.45701     -1259.6474      6211.517       7769.8885      8188.9626     -419.07409      1789.7118      7175.143      -9102.766      -82.045619     -2681.3645      7885.2094     -5402.9621     -491.74736      84829.343      43.938852      43.938852      43.938852      0.98347496    -2277.1144     -681.41614     -820.41164    
    122000   122000         421.30428      77.377711      7667.3122      7573.0944      8128.1376     -555.04322      1663.6746      7314.3277     -9167.9478     -82.912771     -2784.1613      7902.188      -5400.2116     -499.62819      83491.298      43.706605      43.706605      43.706605      0.9992363      89.084017     -203.57892      346.62804    
    122500   122500         422.99314     -35.2122        7456.7202      7500.3854      8160.7204     -660.33503      1627.6461      7029.7127     -9080.4716     -77.70262      -2646.5991      7889.6282     -5402.5486     -490.59332      85028.892      43.973278      43.973278      43.973278      0.98116692    -637.35929      709.86386     -178.14117    
    123000   123000         422.76469     -86.732991      7533.6636      7641.1218      8156.313      -515.1912       1683.0012      7257.3979     -9130.5715     -78.474106     -2725.8813      7881.7651     -5402.4286     -491.03065      84953.161      43.960219      43.960219      43.960219      0.98204157     174.69221     -944.18121      509.29004    
    123500   123500         418.62158      315.20197      8010.0954      7623.3873      8076.3809     -452.99355      1709.2725      7209.3414     -9111.5414     -79.282015     -2666.531       7887.5055     -5401.7586     -495.8722       84123.703      43.816679      43.816679      43.816679      0.99172447     309.93527      384.90451      250.76613    
    124000   124000         426.41201     -733.82232      6765.9385      7675.3063      8226.68       -551.37372      1694.7674      7189.7286     -9154.582      -75.340369     -2680.4377      7881.9812     -5407.4909     -490.92528      84971.396      43.963364      43.963364      43.963364      0.98183083     981.36394     -2266.865      -915.96588    
    124500   124500         413.25795     -662.49474      6677.4937      7505.655       7972.9014     -467.24643      1702.1442      7269.341      -9177.009      -83.37744      -2668.4972      7891.6395     -5401.4875     -486.66662      85714.951      44.091228      44.091228      44.091228      0.97331369    -1102.1403     -1094.5969      209.25296    
    125000   125000         410.1461      -533.41571      6780.9668      7439.9287      7912.8652     -472.93644      1662.1199      7203.2862     -9100.422      -76.56593      -2642.7202      7885.4391     -5404.0734     -492.45838      84706.865      43.917695      43.917695      43.917695      0.98489698    -1442.8365     -739.95681      582.54621    
    125500   125500         416.52676      1190.4986      9147.2052      7670.8995      8035.9659     -365.06642      1715.4859      7214.8        -9057.7844     -79.669418     -2638.66        7881.5285     -5400.767      -490.58765      85029.873      43.973447      43.973447      43.973447      0.98115559     1675.2111      919.2966       976.98807    
    126000   126000         415.28778     -33.764957      7475.9934      7517.8716      8012.0626     -494.19097      1697.5233      7268.6901     -9167.0738     -74.508526     -2694.5996      7873.1705     -5397.393      -490.50332      85044.492      43.975967      43.975967      43.975967      0.98098693    -1190.2417      634.62607      454.32072    
    126500   126500         416.85806      708.3453       8589.8068      7709.6585      8042.3575     -332.69899      1673.7502      7391.6495     -9168.1761     -87.589201     -2641.6245      7892.6336     -5393.3425     -489.61332      85199.083      44.002597      44.002597      44.002597      0.97920696     127.59996      593.66126      1403.7747    
    127000   127000         414.19789     -607.24765      6826.7792      7583.7702      7991.0355     -407.26531      1647.7969      7393.2706     -9170.3883     -82.259478     -2673.8466      7881.0264     -5402.8648     -488.02174      85476.942      44.05038       44.05038       44.05038       0.97602387    -509.13278     -489.25056     -823.35962    
    127500   127500         418.4438       249.38596      7928.1892      7619.4257      8072.951      -453.5253       1710.37        7189.8605     -9136.2075     -75.732425     -2626.5838      7886.2931     -5401.5252     -491.37164      84894.208      43.950048      43.950048      43.950048      0.98272353     132.53811     -195.07378      810.69356    
    128000   128000         416.94829     -582.53894      6732.2666      7450.1276      8044.0985     -593.97084      1659.5742      7240.1664     -9220.1479     -77.754154     -2691.4128      7895.1478     -5399.5444     -493.68352      84496.655      43.881336      43.881336      43.881336      0.9873472      343.26233     -1927.4088     -163.47032    
    128500   128500         414.40837     -462.84461      6942.441       7511.6793      7995.0963     -483.417        1746.9376      7185.2426     -9146.3343     -76.850811     -2683.3048      7895.4512     -5404.5585     -494.6581       84330.179      43.852498      43.852498      43.852498      0.98929632    -1409.0723     -708.10862      728.64713    
    129000   129000         414.37469     -576.24332      6814.748       7532.0591      7994.4464     -462.38734      1719.255       7178.8496     -9182.1933     -80.14065      -2595.9774      7896.1569     -5398.3374     -488.72259      85354.364      44.029313      44.029313      44.029313      0.97742554    -686.3675      -281.55958     -760.80288    
    129500   129500         421.90894     -10.11871       7676.9801      7689.5705      8139.8033     -450.23277      1644.4431      7334.9215     -9212.6867     -78.714353     -2640.5968      7898.561      -5396.1606     -488.93489      85317.302      44.02294       44.02294       44.02294       0.97785013    -1019.9999      241.82589      747.81787    
    130000   130000         420.16032     -70.550509      7604.5145      7691.4851      8106.0675     -414.58245      1685.5275      7284.1762     -9139.8503     -79.805854     -2661.2787      7900.0006     -5403.3519     -493.50528      84527.171      43.886618      43.886618      43.886618      0.98699074    -159.60879     -729.14041      677.09767    
    130500   130500         419.15044      120.12069      7854.2255      7704.8799      8086.5841     -381.70418      1675.2442      7260.3334     -9107.8397     -78.628739     -2595.6957      7874.9606     -5410.0782     -489.31596      85250.859      44.011508      44.011508      44.011508      0.97861226    -391.32589     -230.39633      982.08428    
    131000   131000         408.2967       719.13304      8256.3709      7371.5132      7877.1851     -505.67198      1680.6481      7267.3518     -9151.6274     -79.40397      -2694.2856      7878.3869     -5406.7418     -494.42432      84370.053      43.859409      43.859409      43.859409      0.98882876     405.01357      994.02335      758.36221    
    131500   131500         419.31339     -114.15577      7343.4436      7483.7164      8089.7278     -606.01134      1709.6172      7239.7115     -9253.5476     -75.264716     -2712.2034      7888.4104     -5402.7346     -495.09491      84255.776      43.839598      43.839598      43.839598      0.99016992    -793.55731      1414.1635     -963.07352    
    132000   132000         414.58753      417.30197      8082.7922      7566.9759      7998.5528     -431.57684      1734.6821      7213.3772     -9091.1267     -78.002551     -2681.08        7881.337      -5410.7639     -492.17484      84755.665      43.926127      43.926127      43.926127      0.9843299      358.86414     -41.339495      934.38127    
    132500   132500         415.90927     -480.0847       7018.8205      7614.2384      8024.0528     -409.81441      1729.4394      7253.8475     -9156.3173     -82.424911     -2635.6125      7888.9017     -5407.6483     -490.52373      85040.953      43.975357      43.975357      43.975357      0.98102776    -1394.2286      661.65397     -707.67945    
    133000   133000         421.30424      945.839        8789.7251      7625.8424      8128.1369     -502.29444      1676.9424      7199.0241     -9175.364      -75.81876      -2602.4044      7878.5216     -5403.1954     -494.39271      84375.447      43.860344      43.860344      43.860344      0.98876555     276.64725      1696.6662      864.20353    
    133500   133500         420.33951     -150.0653       7422.4707      7607.1867      8109.5245     -502.33785      1658.6367      7201.2279     -9160.1369     -75.356979     -2622.4696      7896.8244     -5401.0634     -494.2422       84401.142      43.864795      43.864795      43.864795      0.98846454    -674.09811      349.47531     -125.57311    
    134000   134000         426.98948     -502.1523       7146.6501      7770.4845      8237.8211     -467.33662      1685.0885      7365.1371     -9248.0141     -77.268837     -2687.7663      7896.0983     -5400.6112     -489.70007      85183.989      43.999998      43.999998      43.999998      0.97938047    -535.0299       476.75505     -1448.182     
    134500   134500         420.47562      263.97073      7893.5245      7568.3226      8112.1504     -543.82786      1674.7033      7246.0315     -9194.2119     -80.222262     -2679.945       7893.5799     -5403.7635     -493.81777      84473.683      43.877359      43.877359      43.877359      0.9876157      593.6356      -282.88959      481.16618    
    135000   135000         425.86599      258.94636      7990.0247      7671.3691      8216.1458     -544.77675      1731.5226      7192.9844     -9154.8638     -82.132263     -2729.1837      7899.6079     -5402.712      -494.37017      84379.294      43.86101       43.86101       43.86101       0.98872047     1147.0133      306.66242     -676.83668    
    135500   135500         416.13687     -535.40893      6903.4718      7561.3428      8028.4439     -467.10103      1729.6261      7317.9858     -9208.7771     -78.047035     -2713.3716      7890.7522     -5405.2694     -495.11818      84251.815      43.838911      43.838911      43.838911      0.99021648    -159.08209     -461.66729     -985.4774     
    136000   136000         418.42036      528.14576      8325.2062      7675.673       8072.4987     -396.82572      1662.5354      7405.2201     -9188.7173     -82.164423     -2693.7811      7900.3253     -5400.2437     -494.67103      84327.974      43.852116      43.852116      43.852116      0.98932218     836.75747      744.62923      3.0505855    
    136500   136500         419.54452      315.27449      8044.7715      7654.8388      8094.187      -439.34825      1685.4254      7307.5531     -9210.3422     -79.553908     -2637.2864      7893.4051     -5398.5493     -491.88446      84805.699      43.934769      43.934769      43.934769      0.98374916     916.2508       845.91661     -816.34393    
    137000   137000         417.47428     -223.46704      7152.8163      7429.6889      8054.2462     -624.55731      1692.8308      7084.1462     -9154.8014     -76.931374     -2658.3107      7888.3402     -5399.831      -491.01813      84955.327      43.960593      43.960593      43.960593      0.98201653    -222.57867     -847.16676      399.34431    
    137500   137500         419.95599     -329.27017      7163.0715      7571.2082      8102.1253     -530.91713      1670.9902      7211.4224     -9133.2671     -78.634835     -2698.2545      7898.7448     -5401.9181     -490.80704      84991.865      43.966894      43.966894      43.966894      0.98159437    -1090.3307      95.889892      6.6303224    
    138000   138000         423.91969      518.93278      8314.5882      7675.1941      8178.5962     -503.4021       1642.2765      7315.2963     -9226.9658     -86.58875      -2654.9501      7901.2634     -5393.7337     -493.74934      84485.39       43.879386      43.879386      43.879386      0.98747885     102.6742       59.935537      1394.1886    
    138500   138500         421.71333      35.96808       7863.2579      7819.0465      8136.0293     -316.98284      1791.1908      7410.2854     -9190.9654     -83.587972     -2753.9274      7902.7487     -5392.727      -494.93275      84283.381      43.844385      43.844385      43.844385      0.98984562    -144.58195     -384.16945      636.65564    
    139000   139000         416.69274     -365.88599      7219.0334      7671.5822      8039.1681     -367.58584      1758.0853      7258.1012     -9152.4884     -75.471075     -2647.7538      7892.0542     -5400.1134     -491.8632       84809.366      43.935402      43.935402      43.935402      0.98370663    -1108.3613     -590.37466      601.07795    
    139500   139500         419.11839     -822.67514      6613.1388      7624.4822      8085.9658     -461.4836       1704.7062      7210.0389     -9086.2291     -81.590641     -2731.4123      7915.2347     -5392.2314     -494.873        84293.558      43.84615       43.84615       43.84615       0.98972611    -1049.4336     -738.22137     -680.37045    
    140000   140000         412.37605      386.03807      8033.9385      7559.2793      7955.887      -396.60767      1684.3124      7243.7788     -9044.2711     -80.850102     -2728.0555      7920.0434     -5391.5657     -494.78021      84309.366      43.84889       43.84889       43.84889       0.98954054     528.264        24.788832      605.06139    
    140500   140500         421.13925     -822.84458      6530.2869      7543.8123      8124.9538     -581.1415       1731.944       7092.0952     -9186.4947     -79.814739     -2638.2593      7894.5436     -5395.1555     -493.90929      84458.031      43.874649      43.874649      43.874649      0.98779873    -783.14517      663.31202     -2348.7006    
    141000   141000         417.54318     -1205.2339      6167.8664      7676.3714      8055.5755     -379.20408      1692.053       7315.1262     -9161.2652     -83.34102      -2640.7271      7894.4        -5395.45       -486.05856      85822.18       44.109606      44.109606      44.109606      0.9720976     -2251.2248     -364.82959     -999.64717    
    141500   141500         420.59315     -206.27806      7419.6871      7674.8851      8114.4179     -439.5328       1663.6769      7322.1982     -9202.7188     -84.809065     -2650.7931      7909.1036     -5396.1905     -491.74487      84829.773      43.938926      43.938926      43.938926      0.98346998     401.80643      353.05242     -1373.693     
    142000   142000         422.90271      1414.6154      9373.9442      7618.0607      8158.9759     -540.91519      1631.3832      7309.6191     -9266.5442     -79.59769      -2634.0469      7898.9009     -5400.6296     -490.12483      85110.166      43.987284      43.987284      43.987284      0.98022997     2497.585       784.20972      962.05139    
    142500   142500         412.21883      221.30791      7731.7234      7457.385       7952.8538     -495.4688       1693.8389      7180.8983     -9167.3687     -79.772916     -2635.1583      7906.5988     -5394.5049     -490.76591      84998.988      43.968122      43.968122      43.968122      0.98151211     842.50284      690.72076     -869.29987    
    143000   143000         415.65268     -1113.4703      6361.4478      7735.8271      8019.1026     -283.27541      1785.7897      7357.9638     -9150.6592     -80.796748     -2718.2606      7910.7231     -5388.0354     -492.87414      84635.413      43.905343      43.905343      43.905343      0.98572847    -875.85569     -1065.0964     -1399.4587    
    143500   143500         425.82572      127.46054      7897.0781      7739.7077      8215.3689     -475.66124      1711.0561      7162.4572     -9085.7047     -81.523078     -2676.7406      7894.7895     -5399.9956     -492.73885      84658.649      43.90936       43.90936       43.90936       0.98545791    -463.9287       359.37017      486.94016    
    144000   144000         417.66943     -293.78114      7255.8477      7618.437       8058.0112     -439.57417      1681.666       7306.9836     -9137.4207     -80.8091       -2696.0707      7887.0863     -5401.0096     -492.91612      84628.203      43.904096      43.904096      43.904096      0.98581244    -356.58448     -308.61848     -216.14047    
    144500   144500         416.81491      119.31664      7767.5796      7620.4636      8041.5251     -421.06151      1753.8783      7186.0522     -9070.0445     -81.560065     -2713.8981      7905.091      -5400.5803     -493.4068       84544.043      43.889537      43.889537      43.889537      0.98679378    -801.17511      398.2976       760.82744    
    145000   145000         424.26683      1284.7604      9359.9844      7778.3187      8185.2936     -406.97486      1664.8413      7347.3186     -9166.7756     -83.111469     -2685.861       7905.8941     -5389.2808     -494.16445      84414.421      43.867096      43.867096      43.867096      0.98830904     955.20058      516.10764      2382.973     
    145500   145500         419.55024      903.09965      8692.4386      7586.5697      8094.2973     -507.72751      1702.8354      7231.4966     -9189.4813     -79.991688     -2687.3686      7906.9106     -5392.1285     -496.81659      83963.794      43.788898      43.788898      43.788898      0.99361321    -43.916193      1704.035       1049.1801    
    146000   146000         417.36713     -811.22756      6526.2238      7532.1451      8052.179      -520.03387      1681.6147      7237.0841     -9171.5313     -81.831166     -2699.6284      7906.8665     -5392.6083     -490.61715      85024.761      43.972566      43.972566      43.972566      0.98121459     292.61894     -1369.8523     -1356.4493    
    146500   146500         422.14178     -275.7394       7243.34        7583.6497      8144.2954     -560.64566      1647.0586      7354.123      -9267.3608     -84.949855     -2700.8648      7891.1979     -5399.8497     -492.93366      84625.193      43.903575      43.903575      43.903575      0.98584751    -889.46002     -630.25941      692.50121    
    147000   147000         421.53915     -1135.6995      6158.6846      7553.9587      8132.6689     -578.71022      1693.9381      7279.6834     -9187.737      -79.516358     -2778.488       7893.3073     -5399.8977     -495.18549      84240.363      43.836924      43.836924      43.836924      0.99035109    -2020.1348      384.54115     -1771.5047    
    147500   147500         425.32397      166.26271      7848.5942      7643.9721      8205.6886     -561.71652      1705.1153      7212.9158     -9182.2819     -83.191476     -2681.2054      7871.5452     -5404.6141     -494.31801      84388.198      43.862553      43.862553      43.862553      0.98861615    -208.72707      1181.8125     -474.29729    
    148000   148000         428.84688     -1380.0234      6018.21        7724.6775      8273.6555     -548.97802      1742.8407      7188.4663     -9145.9553     -75.466422     -2743.2555      7887.1278     -5402.7356     -491.98566      84788.256      43.931756      43.931756      43.931756      0.98395155    -1844.3752     -699.57344     -1596.1214    
    148500   148500         422.61283      414.1225       8032.7334      7523.6243      8153.3831     -629.75884      1630.2016      7254.4852     -9169.5988     -78.825924     -2741.9286      7874.5661     -5398.6584     -494.85955      84295.848      43.846547      43.846547      43.846547      0.98969922     728.60253     -223.58432      737.34929    
    149000   149000         422.69265     -575.94161      6759.0763      7462.6881      8154.9232     -692.2351       1634.6181      7208.2735     -9184.113      -78.296702     -2755.4296      7881.1179     -5398.4053     -497.97704      83768.13       43.754858      43.754858      43.754858      0.99593408     977.12882     -1874.1032     -830.85044    
    149500   149500         414.65615     -575.47135      6713.2567      7419.4125      7999.8767     -580.46425      1688.2109      7274.5865     -9221.1626     -81.726399     -2729.342       7887.2399     -5398.2707     -495.77796      84139.694      43.819455      43.819455      43.819455      0.991536      -1707.4744     -92.953009      74.013374    
    150000   150000         427.88436     -838.2269       6594.7353      7624.814       8255.0857     -630.2717       1635.4875      7196.8497     -9140.552      -81.437717     -2723.3451      7884.0344     -5401.3084     -495.05699      84262.23       43.840717      43.840717      43.840717      0.99009408    -342.26485     -1977.386      -195.0298     
    150500   150500         431.11358      98.551725      7779.6642      7658.1271      8317.3865     -659.25945      1674.8597      7080.4187     -9136.5866     -79.994697     -2681.0988      7884.1173     -5400.9752     -493.30931      84560.751      43.892428      43.892428      43.892428      0.9865988     -809.42275      548.08634      556.99159    
    151000   151000         421.29341     -264.92993      7282.4618      7609.7957      8127.928      -518.13228      1721.1775      7184.0892     -9187.2218     -80.694583     -2633.4229      7880.7905     -5402.8502     -492.38409      84719.646      43.919903      43.919903      43.919903      0.9847484     -648.26845      142.98604     -289.50739    
    151500   151500         414.76552     -532.31626      6841.6971      7502.2189      8001.9867     -499.76785      1666.5734      7314.5519     -9171.4181     -81.272154     -2704.8936      7883.373      -5406.6822     -490.28277      85082.749      43.98256       43.98256       43.98256       0.98054584    -358.13157     -481.26134     -757.55587    
    152000   152000         414.48917      484.92039      8091.7394      7494.8166      7996.6552     -501.83863      1660.6965      7306.7382     -9167.0329     -78.861829     -2698.922       7877.4838     -5401.9404     -494.21542      84405.715      43.865588      43.865588      43.865588      0.98841098     503.05865      918.01508      33.687455    
    152500   152500         414.89828      473.92896      8091.0441      7509.2541      8004.5481     -495.29397      1724.1116      7241.0197     -9156.2435     -77.829402     -2705.3423      7889.8189     -5410.829      -495.57685      84173.839      43.825382      43.825382      43.825382      0.99113379    -343.67876      1089.5762      675.88945    
    153000   153000         414.52848     -1388.3016      5771.5759      7487.6281      7997.4135     -509.7854       1692.2851      7280.3429     -9117.553      -78.45273      -2784.066       7897.7182     -5400.0598     -492.17253      84756.063      43.926196      43.926196      43.926196      0.98432528    -461.44187     -1566.4111     -2137.0519    
    153500   153500         418.91116      575.41504      8141.1085      7439.503       8081.9676     -642.46454      1641.7976      7095.6358     -9106.2821     -80.142099     -2671.7842      7883.6713     -5405.3609     -498.94458      83605.69       43.726557      43.726557      43.726557      0.9978691      29.664939      1189.3045      507.27566    
    154000   154000         422.54963      332.99454      8045.9466      7633.8408      8152.1639     -518.32311      1680.7394      7295.9847     -9126.5193     -81.860236     -2745.3051      7865.6711     -5407.0337     -491.57791      84858.585      43.9439        43.9439        43.9439        0.98313607     1393.2547     -69.05737      -325.21366    
    154500   154500         419.86872     -75.402222      7379.985       7472.8084      8100.4416     -627.63318      1620.6705      7392.4956     -9239.5976     -83.057955     -2787.6621      7871.2025     -5401.6841     -494.18616      84410.712      43.866453      43.866453      43.866453      0.98835247    -1304.6804      816.76294      261.71077    
    155000   155000         422.49927      571.49241      8054.1291      7349.383       8151.1923     -801.80929      1623.0029      7119.4737     -9201.3961     -80.636588     -2737.4974      7879.2737     -5404.0295     -493.33492      84556.361      43.891669      43.891669      43.891669      0.98665002     314.93325      371.82484      1027.7192    
    155500   155500         429.35143     -108.14536      7618.9728      7751.8881      8283.3897     -531.50157      1761.8841      7236.1921     -9185.0825     -81.334409     -2741.8722      7877.8648     -5399.1534     -494.99077      84273.502      43.842672      43.842672      43.842672      0.98996166     373.01071     -441.90356     -255.54325    
    156000   156000         424.00292      835.23031      8540.7449      7514.8233      8180.2019     -665.37855      1638.8259      7320.7428     -9187.6632     -83.404057     -2815.3302      7863.7589     -5402.3086     -495.28606      84223.258      43.833957      43.833957      43.833957      0.99055222     1476.7022      776.38266      252.60608    
    156500   156500         420.29062     -147.15039      7345.7118      7527.0822      8108.5813     -581.49908      1680.4535      7247.9606     -9178.2599     -83.619322     -2733.2308      7886.0703     -5400.8735     -493.58158      84514.106      43.884356      43.884356      43.884356      0.98714333     468.95969     -507.24078     -403.17009    
    157000   157000         416.2673       316.32008      7980.2283      7592.9055      8030.9602     -438.05471      1710.9126      7414.6364     -9247.5315     -84.536023     -2715.7546      7883.9087     -5399.6902     -496.84144      83959.595      43.788168      43.788168      43.788168      0.99366291     936.55288      777.90968     -765.50234    
    157500   157500         423.94781     -304.538        7370.7         7746.292       8179.1388     -432.84678      1767.9046      7297.2205     -9231.7664     -83.312518     -2676.0565      7891.6252     -5398.4616     -493.27504      84566.626      43.893445      43.893445      43.893445      0.98653025    -1346.2896      134.79673      297.8789     
    158000   158000         418.78737      355.81514      8169.9859      7727.3604      8079.5794     -352.21902      1670.903       7435.2445     -9217.7649     -84.556725     -2635.0752      7880.7767     -5401.7464     -489.04861      85297.463      44.019527      44.019527      44.019527      0.97807757     471.76255      741.06116     -145.37829    
    158500   158500         420.05093     -200.95164      7257.9139      7505.2422      8103.9569     -598.71477      1715.2313      7248.9405     -9235.981      -80.020341     -2714.3574      7871.3767     -5403.9045     -494.29         84392.979      43.863381      43.863381      43.863381      0.98856014     118.85391      221.58509     -943.29391    
    159000   159000         415.22814      576.81668      8113.4786      7402.1591      8010.912      -608.75293      1698.555       7220.449      -9155.0778     -83.676886     -2771.3791      7884.5181     -5402.1412     -493.3295       84557.29       43.89183       43.89183       43.89183       0.98663918     999.10948      459.34775      271.9928     
    159500   159500         420.32373     -21.776819      7552.2334      7578.9823      8109.22       -530.23775      1666.5053      7370.0703     -9227.711      -82.048242     -2737.838       7882.7647     -5401.9808     -495.2828       84223.813      43.834053      43.834053      43.834053      0.9905457     -137.10247      136.71516     -64.943146    
    160000   160000         425.1456       158.45959      7866.1829      7672.4041      8202.2474     -529.84332      1705.2335      7307.1009     -9184.8914     -82.186904     -2739.5651      7867.0183     -5402.5526     -497.48096      83851.663      43.769397      43.769397      43.769397      0.99494193     1225.4482     -46.382161     -703.68722    
    160500   160500         419.08623     -709.93533      6673.1975      7550.9297      8085.3453     -534.41563      1676.1574      7268.6057     -9176.7667     -79.216321     -2699.7851      7881.4374     -5404.8481     -492.06309      84774.913      43.929452      43.929452      43.929452      0.98410641    -411.88032     -859.99711     -857.92858    
    161000   161000         423.28179      1590.64        9389.4179      7440.4899      8166.2892     -725.79933      1627.2724      7114.6475     -9245.851      -78.953283     -2621.4108      7884.2903     -5405.7945     -496.52387      84013.294      43.797502      43.797502      43.797502      0.99302779     1904.0903      1289.7855      1578.0441    
    161500   161500         424.1991      -286.46971      7431.8774      7787.3341      8183.9869     -396.65275      1772.333       7295.3709     -9164.1658     -83.423065     -2674.9121      7861.9178     -5403.7734     -490.29335      85080.913      43.982244      43.982244      43.982244      0.980567       49.083487      9.1524477     -917.64507    
    162000   162000         424.01368     -593.49915      6910.2031      7638.1076      8180.4096     -542.30198      1743.3135      7270.6663     -9180.7169     -77.340215     -2757.2432      7866.4296     -5407.4111     -496.03203      84096.597      43.811973      43.811973      43.811973      0.99204413    -636.28032      13.999188     -1158.2163    
    162500   162500         417.4162       321.97182      7973.1196      7577.0508      8053.1256     -476.07481      1716.9861      7318.934      -9134.9001     -80.335184     -2747.7653      7856.3212     -5405.3155     -494.55117      84348.411      43.855658      43.855658      43.855658      0.98908248     520.58861      491.76223     -46.435391    
    163000   163000         418.70759     -257.17954      7075.8563      7391.4079      8078.0402     -686.63233      1710.1221      7222.2834     -9191.8152     -78.205076     -2805.9219      7858.9786     -5402.0743     -495.82689      84131.39       43.818014      43.818014      43.818014      0.99163386     670.51494     -650.2226      -791.83095    
    163500   163500         421.20838      630.17584      8283.3219      7514.9529      8126.2874     -611.33455      1696.6244      7191.6646     -9117.8841     -80.80405      -2754.5235      7858.6569     -5405.0689     -498.94874      83604.992      43.726435      43.726435      43.726435      0.99787744     853.3001       1078.8437     -41.616222    
    164000   164000         419.75521      260.10861      7907.0985      7589.9575      8098.2517     -508.29412      1714.9868      7321.6192     -9183.4652     -81.488695     -2739.1533      7863.0909     -5403.8838     -498.96083      83602.967      43.726082      43.726082      43.726082      0.99790162     1171.0439     -209.88415     -180.83391    
    164500   164500         414.19794     -911.66268      6087.3257      7211.609       7991.0364     -779.42737      1667.4841      7088.2432     -9131.1111     -82.539588     -2770.8671      7854.8594     -5405.4963     -493.31287      84560.141      43.892323      43.892323      43.892323      0.98660592    -632.97974     -1331.1401     -770.86814    
    165000   165000         415.27258      707.9124       8242.0993      7373.1466      8011.7693     -638.62261      1703.751       7210.5643     -9220.891      -80.068328     -2703.1018      7857.8332     -5406.71       -495.61841      84166.78       43.824157      43.824157      43.824157      0.9912169     -88.988977      755.67827      1457.0479    
    165500   165500         421.74057     -448.0949       7080.4613      7631.5128      8136.5548     -505.04203      1709.1482      7444.6267     -9236.3677     -84.871332     -2789.8297      7863.1512     -5410.8994     -494.69994      84323.046      43.851262      43.851262      43.851262      0.98938       -329.066       -375.93911     -639.27958    
    166000   166000         421.57325     -352.86574      6930.174       7363.4552      8133.3269     -769.87173      1680.6831      7178.1673     -9236.606      -77.405192     -2789.1945      7881.1631     -5406.6796     -495.45442      84194.639      43.828992      43.828992      43.828992      0.99088893    -247.66787     -253.43189     -557.49746    
    166500   166500         415.77597      230.15907      7622.541       7340.8729      8021.4811     -680.60812      1699.2944      7196.4245     -9161.8828     -77.399356     -2794.0236      7868.3082     -5411.3294     -497.11226      83913.855      43.780215      43.780215      43.780215      0.99420454    -595.43091      440.01768      845.89043    
    167000   167000         429.53838     -923.36946      6718.0481      7850.9619      8286.9964     -436.03448      1769.3371      7410.4741     -9215.2489     -84.455184     -2764.0541      7858.0659     -5410.1533     -495.84126      84128.952      43.817591      43.817591      43.817591      0.9916626     -1612.5783     -1678.6854      521.15529    
    167500   167500         421.70797      152.60259      7636.4003      7451.438       8135.9259     -684.48792      1729.8793      7173.1559     -9159.3883     -77.437766     -2806.0421      7865.2337     -5409.8887     -501.92947      83108.501      43.639706      43.639706      43.639706      1.0038388     -437.50982     -260.59034      1155.9079    
    168000   168000         417.21648     -458.4435       6852.8941      7413.8174      8049.2726     -635.45519      1655.48        7297.2942     -9190.0255     -83.505758     -2793.7383      7879.2882     -5400.2481     -497.21751      83896.091      43.777126      43.777126      43.777126      0.99441505    -744.04147     -620.7632      -10.525823    
    168500   168500         421.63169     -281.01807      7133.256       7479.0504      8134.4543     -655.40387      1722.2507      7367.4771     -9306.5027     -82.559479     -2810.1695      7861.7521     -5407.6521     -494.40209      84373.846      43.860066      43.860066      43.860066      0.98878431    -602.71169      5.5316074     -245.87413    
    169000   169000         416.70646      84.409595      7478.6619      7375.2898      8039.4328     -664.14304      1637.0015      7267.2756     -9156.1268     -80.672548     -2787.9896      7862.2914     -5405.9226     -496.76631      83972.293      43.790376      43.790376      43.790376      0.99351265    -144.35852     -796.7509       1194.3382    
    169500   169500         409.42937     -523.27743      6682.7018      7327.7343      7899.0374     -571.30311      1739.9841      7226.5773     -9173.025      -81.245044     -2750.9041      7869.8398     -5402.5301     -493.53105      84522.758      43.885854      43.885854      43.885854      0.98704228    -1339.2178      388.50737     -619.12188    
    170000   170000         412.35626      693.10249      8060.3795      7219.8049      7955.5052     -735.70031      1640.9013      7223.1417     -9197.2104     -80.972802     -2803.3923      7880.78       -5398.9478     -501.63201      83157.783      43.64833       43.64833       43.64833       1.0032439     -810.39545      2170.1211      719.58182    
    170500   170500         419.9394       837.95931      8668.655       7640.8691      8101.8053     -460.93626      1641.6741      7507.7515     -9240.3878     -82.834555     -2758.0616      7874.2735     -5403.3513     -496.00299      84101.521      43.812828      43.812828      43.812828      0.99198604     2693.4479     -1453.925       1274.3551    
    171000   171000         418.11748      290.46324      7859.9721      7504.5202      8066.6554     -562.13517      1669.4806      7329.4052     -9153.1229     -81.667198     -2786.8957      7866.4754     -5405.8106     -497.13503      83910.01       43.779546      43.779546      43.779546      0.99425009     406.42902      1481.7048     -1016.7442    
    171500   171500         422.40865      637.59844      8269.3566      7485.2907      8149.444      -664.15334      1647.3394      7209.5412     -9178.0166     -82.523884     -2736.2         7879.8511     -5404.1446     -494.71909      84319.783      43.850696      43.850696      43.850696      0.98941829     385.851       -347.97619      1874.9205    
    172000   172000         426.68294      48.068554      7664.1428      7605.4345      8231.907      -626.47244      1637.6845      7338.5398     -9184.9062     -86.686519     -2807.0205      7876.2323     -5400.3158     -498.11021      83745.735      43.750958      43.750958      43.750958      0.99620041    -373.46655      1012.1714     -494.49921    
    172500   172500         418.59457     -128.98568      7483.5309      7641.6596      8075.8598     -434.20018      1715.2156      7254.8421     -9093.9216     -82.032447     -2706.8255      7877.7479     -5399.2262     -496.2433       84060.794      43.805754      43.805754      43.805754      0.99246666     97.693488     -992.73442      508.0839     
    173000   173000         420.27613      133.07464      7850.6344      7686.5847      8108.3018     -421.71711      1726.0993      7307.121      -9159.4835     -82.747027     -2712.7634      7894.8285     -5394.772      -493.4963       84528.71       43.886884      43.886884      43.886884      0.98697277    -150.40034     -756.69801      1306.3223    
    173500   173500         420.16152      1127.1112      8939.4772      7553.5403      8106.0905     -552.55021      1624.7894      7232.1248     -9158.963      -77.458834     -2642.4692      7874.3049     -5404.8782     -494.75175      84314.215      43.849731      43.849731      43.849731      0.98948363     2227.2011      2083.1582     -929.0257     
    174000   174000         420.6788       440.66599      8042.2096      7501.2853      8116.0704     -614.78507      1652.8004      7265.0063     -9203.4909     -84.157034     -2697.8063      7860.2255     -5407.363      -495.60662      84168.783      43.824505      43.824505      43.824505      0.99119332    -123.35696      1382.046       63.308889    
    174500   174500         411.90662     -668.56336      6596.3729      7423.1216      7946.8304     -523.70877      1731.1388      7202.2549     -9172.1367     -82.092807     -2685.9626      7885.6543     -5402.5646     -491.96369      84792.042      43.93241       43.93241       43.93241       0.98390762    -874.51339     -424.37451     -706.80218    
    175000   175000         420.19775      69.00775       7534.7148      7449.9833      8106.7896     -656.80627      1679.7869      7268.088      -9232.6262     -75.21289      -2756.1923      7865.6386     -5406.2884     -495.46964      84192.053      43.828543      43.828543      43.828543      0.99091937    -342.32479      736.26242     -186.91437    
    175500   175500         421.7439       319.27455      7934.2972      7541.877       8136.6192     -594.74222      1669.3818      7227.0333     -9161.9511     -85.50415      -2723.8608      7880.6083     -5400.4495     -494.96783      84277.408      43.843349      43.843349      43.843349      0.98991577     68.826213      1006.2305     -117.23307    
    176000   176000         424.40068      924.70234      8686.5813      7560.1242      8187.8759     -627.75171      1675.8005      7177.5029     -9131.2674     -78.79672      -2752.0132      7885.0533     -5404.0311     -499.40324      83528.904      43.713166      43.713166      43.713166      0.99878642    -139.85984      1794.2167      1119.7502    
    176500   176500         422.50777     -631.2496       6861.8301      7641.2902      8151.3564     -510.06618      1732.4311      7334.1675     -9233.8325     -79.711712     -2734.5815      7874.0908     -5402.6299     -492.68715      84667.533      43.910896      43.910896      43.910896      0.98535451    -1194.8376     -557.15208     -141.75911    
    177000   177000         413.7196       382.24631      8064.7498      7593.2508      7981.8079     -388.55712      1767.6058      7385.8552     -9216.4272     -80.086237     -2724.174       7884.2206     -5405.5512     -493.20396      84578.813      43.895553      43.895553      43.895553      0.98638811     630.44323     -180.85178      697.14747    
    177500   177500         424.00227     -122.60352      7517.5831      7668.7895      8180.1894     -511.3999       1712.6703      7330.4748     -9225.7883     -83.339183     -2743.0439      7900.7302     -5403.1038     -493.28345      84565.183      43.893195      43.893195      43.893195      0.98654709    -1133.5399      1252.7932     -487.06388    
    178000   178000         426.93003      600.52725      8380.3413      7644.0396      8236.6741     -592.63451      1705.4292      7215.3709     -9179.1253     -80.929273     -2698.4472      7855.3861     -5410.3188     -496.18193      84071.191      43.80756       43.80756       43.80756       0.99234392     29.945646      1257.0409      514.59517    
    178500   178500         413.71878     -741.99865      6445.8297      7363.5161      7981.7921     -618.27597      1741.0061      7211.5309     -9237.4482     -83.1567       -2724.6063      7880.8349     -5406.4367     -491.89551      84803.794      43.93444       43.93444       43.93444       0.98377126    -593.34876     -1179.3768     -453.27043    
    179000   179000         416.79037      147.2197       7519.1958      7338.7905      8041.0517     -702.2612       1720.9847      7116.7707     -9178.4848     -76.177731     -2746.1537      7865.8035     -5405.0039     -496.4559       84024.796      43.7995        43.7995        43.7995        0.99289185    -422.98164     -9.0990429      873.73978    
    179500   179500         419.18196     -969.09894      6208.7244      7403.1895      8087.1922     -684.00271      1749.6207      7114.7052     -9216.5102     -76.357399     -2722.2811      7871.9436     -5405.1234     -493.58132      84514.151      43.884364      43.884364      43.884364      0.9871428     -840.44413     -2554.0172      487.16453    
    180000   180000         420.0026       734.71425      8400.2046      7498.2473      8103.0246     -604.77739      1658.9399      7232.6388     -9174.6454     -76.830124     -2707.352       7871.7278     -5409.2565     -495.56027      84176.655      43.825871      43.825871      43.825871      0.99110063    -472.08484      1268.6838      1407.5438    
    180500   180500         420.57269      553.2962       8192.43        7514.6671      8114.0232     -599.35613      1654.1834      7221.2575     -9144.1216     -83.858999     -2712.1588      7870.7625     -5405.4201     -496.64255      83993.218      43.794013      43.794013      43.794013      0.99326514     2333.9105     -840.13593      166.11402    
    181000   181000         427.58692      407.42412      8143.6782      7641.3933      8249.3474     -607.95413      1698.1024      7229.888      -9225.3273     -78.792999     -2711.0103      7883.962      -5404.776      -493.46986      84533.239      43.887668      43.887668      43.887668      0.98691989     201.34248      337.07485      683.85502    
    181500   181500         424.78252     -433.41776      7154.5727      7688.688       8195.2426     -506.55461      1746.0531      7297.809      -9212.1455     -79.613398     -2731.5035      7881.0383     -5408.1926     -493.66883      84499.169      43.881771      43.881771      43.881771      0.98731782    -936.7152      -1390.0038      1026.4657    
    182000   182000         422.61952      292.67636      8040.5849      7681.021       8153.5123     -472.49131      1718.8331      7371.8347     -9174.6946     -84.548353     -2771.4294      7874.7075     -5407.1943     -495.19414      84238.892      43.836669      43.836669      43.836669      0.99036839     729.15044     -67.174804      216.05346    
    182500   182500         419.8568       759.07319      8405.4773      7468.4367      8100.2116     -631.77496      1648.9416      7270.9448     -9214.7338     -82.692799     -2717.4741      7869.311      -5406.0715     -492.82106      84644.528      43.906919      43.906919      43.906919      0.98562231    -268.52783      2203.2172      342.53023    
    183000   183000         420.02493      754.93047      8459.119       7535.4514      8103.4554     -568.00394      1645.6268      7192.2794     -9112.7925     -81.051996     -2711.2276      7903.4954     -5404.3336     -497.22767      83894.378      43.776828      43.776828      43.776828      0.99443535     422.89007      1302.7132      539.18815    
    183500   183500         419.84556      1291.2858      9255.9981      7669.4026      8099.9949     -430.59234      1663.7697      7415.0891     -9190.289      -84.15386      -2714.1104      7884.0453     -5404.9432     -495.1311       84249.618      43.83853       43.83853       43.83853       0.9902423      634.65559      1507.4124      1731.7895    
    184000   184000         416.14512     -362.74899      7062.389       7504.9484      8028.603      -523.65464      1760.2877      7253.1867     -9139.3682     -78.147613     -2804.839       7887.7436     -5402.5177     -498.6533       83654.526      43.735069      43.735069      43.735069      0.99728657     1270.8828     -571.40207     -1787.7277    
    184500   184500         421.96351     -332.46807      7052.6208      7458.6114      8140.8561     -682.24469      1676.5773      7249.2583     -9210.0298     -81.273234     -2798.3529      7882.8684     -5401.2928     -498.19343      83731.746      43.748522      43.748522      43.748522      0.99636684    -915.49589      685.96757     -767.87589    
    185000   185000         418.06123     -39.477318      7256.4276      7304.7587      8065.5702     -760.81152      1666.2311      7088.2634     -9185.1007     -77.500301     -2761.6972      7905.5175     -5396.5253     -496.91857      83946.563      43.785903      43.785903      43.785903      0.99381717    -564.27125      14.981914      430.85738    
    185500   185500         415.25366      205.07888      7637.8019      7388.4217      8011.4042     -622.98251      1680.628       7290.1857     -9191.1151     -77.460584     -2815.8014      7887.3214     -5396.7405     -500.2914       83380.617      43.687283      43.687283      43.687283      1.0005627      752.79327     -167.74763      30.191005    
    186000   186000         421.75369     -68.453811      7516.3489      7601.291       8136.8081     -535.51713      1615.2365      7432.8691     -9250.805      -78.551209     -2706.7455      7864.8947     -5412.4157     -490.27423      85084.23       43.982815      43.982815      43.982815      0.98052877    -12.696259     -1224.1395      1031.4744    
    186500   186500         420.33188      623.10878      8447.4879      7680.3678      8109.3773     -429.00955      1709.0778      7370.5109     -9165.9315     -83.064136     -2731.0735      7879.947      -5408.4761     -494.15654      84415.771      43.86733       43.86733       43.86733       0.98829323     0.93590895     1428.0061      440.38432    
    187000   187000         419.34271     -797.57181      6486.1301      7474.2885      8090.2934     -616.00491      1686.1498      7199.3264     -9162.2995     -73.901287     -2739.2966      7881.7405     -5407.7242     -491.02914      84953.422      43.960264      43.960264      43.960264      0.98203856    -194.05494     -1526.3091     -672.35137    
    187500   187500         415.40608     -714.96579      6526.4799      7409.8515      8014.3448     -604.4933       1680.4929      7247.0025     -9208.8614     -80.587129     -2701.9447      7865.7816     -5406.377      -492.38619      84719.284      43.919841      43.919841      43.919841      0.9847526     -1241.319      -463.48962     -440.08872    
    188000   188000         418.31053      743.62861      8429.6922      7518.2894      8070.3799     -552.09042      1686.8795      7143.0195     -9084.7382     -81.960653     -2689.6876      7885.8864     -5411.4895     -496.37486      84038.514      43.801884      43.801884      43.801884      0.99272978    -369.23455      530.00346      2070.1169    
    188500   188500         420.50469     -202.46476      7287.1054      7536.3593      8112.7113     -576.35198      1692.4588      7293.9165     -9189.0047     -83.167642     -2750.8516      7869.4438     -5409.1472     -494.16451      84414.41       43.867094      43.867094      43.867094      0.98830917    -1089.7686     -128.46053      610.83481    
    189000   189000         417.26746     -6.9448664      7518.828       7527.3154      8050.2562     -522.9408       1607.5152      7401.6261     -9224.3545     -83.48359      -2689.227       7867.5199     -5402.537      -497.80082      83797.785      43.76002       43.76002       43.76002       0.99558164     1380.0926     -564.65886     -836.26839    
    189500   189500         418.87547      576.45488      8375.1408      7670.686       8081.2791     -410.5931       1670.2511      7294.7933     -9105.6397     -80.170316     -2698.2321      7910.5306     -5402.126      -497.82448      83793.802      43.759327      43.759327      43.759327      0.99562895    -809.03175      1662.4753      875.92107    
    190000   190000         421.01837      858.03198      8726.3197      7674.9036      8122.6217     -447.71809      1700.8695      7209.4359     -9057.7824     -81.398532     -2725.6017      7909.0658     -5402.3067     -496.46988      84022.43       43.799089      43.799089      43.799089      0.99291981     1623.123       173.63003      777.34296    
    190500   190500         413.59061      299.06925      7787.9295      7419.3998      7979.3194     -559.91967      1655.4264      7212.0758     -9159.2193     -82.627335     -2672.0373      7890.7602     -5404.2982     -493.70021      84493.798      43.880841      43.880841      43.880841      0.98738059     1115.5653      178.48703     -396.84454    
    191000   191000         420.3533      -340.75008      7114.3128      7534.5956      8109.7906     -575.19506      1740.1082      7117.7929     -9171.8864     -81.113787     -2682.9871      7905.5535     -5402.6624     -493.24012      84572.612      43.894481      43.894481      43.894481      0.98646043    -321.87154     -1059.7702      359.39154    
    191500   191500         421.10706      529.2855       8345.1976      7693.0481      8124.3326     -431.28456      1695.6105      7304.9726     -9117.0848     -81.244708     -2715.0272      7885.0956     -5403.6066     -493.74972      84485.326      43.879375      43.879375      43.879375      0.98747959    -467.62348      749.57285      1305.9071    
    192000   192000         422.81791     -717.39007      6883.1109      7766.5127      8157.3399     -390.82723      1727.4056      7334.6334     -9088.6349     -83.067888     -2748.9143      7873.4212     -5405.6703     -494.03887      84435.878      43.870812      43.870812      43.870812      0.98805789    -589.01341     -422.6551      -1140.5017    
    192500   192500         417.7727      -477.63419      7020.5848      7608.3737      8060.0035     -451.62988      1666.0409      7320.1902     -9128.1113     -83.3142       -2723.7579      7892.8844     -5395.562      -494.35401      84382.052      43.861488      43.861488      43.861488      0.98868816    -264.81999     -1581.6051      413.52251    
    193000   193000         417.17927     -214.64129      7252.6085      7517.9444      8048.5546     -530.61026      1722.4         7281.5826     -9234.5581     -78.964932     -2690.6238      7867.638      -5398.084      -492.13177      84763.083      43.927408      43.927408      43.927408      0.98424376    -453.09663      374.93934     -565.76659    
    193500   193500         430.61004      147.79343      8002.8894      7820.5532      8307.6718     -487.11867      1667.5009      7209.448      -9121.5772     -82.741259     -2632.703       7876.792      -5403.8381     -493.11279      84594.452      43.898259      43.898259      43.898259      0.98620576    -35.329478     -102.68686      581.39662    
    194000   194000         422.25631     -761.24082      6686.907       7631.3361      8146.505      -515.16885      1698.7706      7214.7968     -9153.1333     -80.657929     -2685.7791      7889.6083     -5398.7743     -490.36192      85069.015      43.980193      43.980193      43.980193      0.98070414    -1177.3208     -2192.9477      1086.546     
    194500   194500         424.21699     -676.75914      6824.1479      7652.686       8184.3319     -531.6459       1706.9042      7222.9897     -9156.7724     -82.077656     -2708.0694      7887.5222     -5402.1426     -496.91906      83946.479      43.785888      43.785888      43.785888      0.99381816    -388.54358     -1447.1409     -194.59298    
    195000   195000         420.46565     -158.8697       7376.9915      7571.7742      8111.9582     -540.18399      1710.0355      7232.5774     -9174.6761     -80.912055     -2729.0917      7898.8792     -5396.9962     -496.19757      84068.541      43.8071        43.8071        43.8071        0.9923752      1186.3378     -671.59344     -991.35344    
    195500   195500         414.04146     -593.66534      6874.004       7608.7829      7988.0176     -379.23471      1702.879       7394.4441     -9204.9152     -80.049325     -2696.6618      7902.8341     -5397.7657     -491.52889      84867.048      43.945361      43.945361      43.945361      0.98303803     1203.5292     -1751.9847     -1232.5405    
    196000   196000         417.25873     -98.361183      7489.2997      7610.8136      8050.0876     -439.27398      1717.0513      7282.0629     -9189.2195     -84.875472     -2682.1241      7916.002      -5398.1711     -492.44944      84708.404      43.917961      43.917961      43.917961      0.98487909     941.74159     -1029.9661     -206.85905    
    196500   196500         421.24906     -226.54683      7402.6752      7680.3287      8127.0723     -446.74355      1640.5963      7320.6376     -9134.6973     -86.132538     -2685.925       7901.4412     -5402.6638     -496.38523      84036.758      43.801579      43.801579      43.801579      0.99275052    -1848.3318      374.16258      794.52876    
    197000   197000         421.04741     -444.36578      7178.6278      7726.4765      8123.1819     -396.70538      1760.8025      7217.1327     -9108.4601     -79.807255     -2678.1758      7892.8497     -5401.0472     -493.45091      84536.486      43.88823       43.88823       43.88823       0.98688199     602.52451     -1277.2639     -658.35795    
    197500   197500         423.41711      229.24669      8011.4532      7727.6897      8168.9        -441.21021      1725.9794      7195.8684     -9093.5303     -81.972229     -2664.6423      7879.8656     -5402.7787     -491.48545      84874.548      43.946655      43.946655      43.946655      0.98295116     1857.3458     -833.74988     -335.85587    
    198000   198000         411.95166      242.16494      7609.013       7312.2926      7947.6995     -635.40692      1645.363       7297.1158     -9200.6678     -74.717719     -2785.7181      7882.6169     -5399.399      -496.50984      84015.668      43.797914      43.797914      43.797914      0.99299972     463.51828     -1156.6948      1419.6714    
    198500   198500         418.5432      -399.15307      7169.0655      7659.0078      8074.8687     -415.86097      1753.2591      7291.081      -9156.2618     -78.815073     -2723.6579      7895.6333     -5397.0996     -495.63111      84164.623      43.823783      43.823783      43.823783      0.99124231    -1487.2782     -268.80079      558.61981    
    199000   199000         423.32293     -17.017325      7515.7254      7536.6122      8167.083      -630.47084      1694.2776      7165.283      -9157.8795     -84.535286     -2711.1039      7866.3759     -5402.8886     -495.65972      84159.765      43.822939      43.822939      43.822939      0.99129953     832.90897      104.72432     -988.68527    
    199500   199500         420.02023      11.375144      7762.4848      7748.3371      8103.3646     -355.02752      1687.7398      7246.0805     -9103.4527     -75.76919      -2609.9784      7899.1378     -5398.7852     -489.14304      85280.996      44.016694      44.016694      44.016694      0.97826643     228.74696      242.32356     -436.94509    
    200000   200000         419.86512     -648.28141      6834.6579      7641.2927      8100.3722     -459.07951      1659.436       7318.0197     -9187.1638     -85.339305     -2665.0615      7890.9581     -5389.9287     -488.93447      85317.376      44.022952      44.022952      44.022952      0.97784929     48.245944     -1691.2074     -301.88283    
Loop time of 444.204 on 1 procs for 200000 steps with 8000 atoms

Performance: 38.901 ns/day, 0.617 hours/ns, 450.244 timesteps/s, 3.602 Matom-step/s
100.0% CPU use with 1 MPI tasks x 1 OpenMP threads

MPI task timing breakdown:
Section |  min time  |  avg time  |  max time  |%varavg| %total
---------------------------------------------------------------
Pair    | 51.232     | 51.232     | 51.232     |   0.0 | 11.53
Bond    | 43.536     | 43.536     | 43.536     |   0.0 |  9.80
Kspace  | 185.05     | 185.05     | 185.05     |   0.0 | 41.66
Neigh   | 39.37      | 39.37      | 39.37      |   0.0 |  8.86
Comm    | 6.1778     | 6.1778     | 6.1778     |   0.0 |  1.39
Output  | 0.04105    | 0.04105    | 0.04105    |   0.0 |  0.01
Modify  | 110.37     | 110.37     | 110.37     |   0.0 | 24.85
Other   |            | 8.427      |            |       |  1.90

Nlocal:           8000 ave        8000 max        8000 min
Histogram: 1 0 0 0 0 0 0 0 0 0
Nghost:          20047 ave       20047 max       20047 min
Histogram: 1 0 0 0 0 0 0 0 0 0
Neighs:              0 ave           0 max           0 min
Histogram: 1 0 0 0 0 0 0 0 0 0
FullNghs:   4.7793e+06 ave  4.7793e+06 max  4.7793e+06 min
Histogram: 1 0 0 0 0 0 0 0 0 0

Total # of neighbors = 4779302
Ave neighs/atom = 597.41275
Ave special neighs/atom = 5.7025
Neighbor list builds = 7519
Dangerous builds = 0
WARNING: No fixes with time integration, atoms won't move
For more information see https://docs.lammps.org/err0028 (src/verlet.cpp:60)
PPPM Kokkos initialization ...
  using 12-bit tables for long-range coulomb
  G vector (1/distance) = 0.2970973
  grid = 30 30 30
  stencil order = 5
  estimated absolute RMS force accuracy = 0.00040113806
  estimated relative force accuracy = 1.2080154e-06
  using double precision cuFFT
  3d grid and FFT values/proc = 50653 27000
Generated 10 of 10 mixed pair_coeff terms from sixthpower/sixthpower mixing rule
Setting up Verlet run ...
  Unit style    : real
  Current step  : 200000
  Time step     : 1
Per MPI rank memory allocation (min/avg/max) = 34.68 | 34.68 | 34.68 Mbytes
   Step          Time           Temp          Press         Enthalpy        TotEng         KinEng         PotEng         E_bond        E_angle        E_dihed        E_impro         E_vdwl         E_coul         E_long         E_tail         Volume           Lx             Ly             Lz          Density          Pxx            Pyy            Pzz      
    200000   200000         339.73084      3250.5961      11685.901      7641.2932      8100.3722     -459.07908      1659.4362      7318.0197     -9187.1638     -85.339305     -2665.0615      7892.7706     -5391.741      -488.93447      85317.376      44.022952      44.022952      44.022952      0.97784929     3884.6899      2337.1692      3529.9292    
Loop time of 3.8453e-05 on 1 procs for 0 steps with 8000 atoms

101.4% CPU use with 1 MPI tasks x 1 OpenMP threads

MPI task timing breakdown:
Section |  min time  |  avg time  |  max time  |%varavg| %total
---------------------------------------------------------------
Pair    | 0          | 0          | 0          |   0.0 |  0.00
Bond    | 0          | 0          | 0          |   0.0 |  0.00
Kspace  | 0          | 0          | 0          |   0.0 |  0.00
Neigh   | 0          | 0          | 0          |   0.0 |  0.00
Comm    | 0          | 0          | 0          |   0.0 |  0.00
Output  | 0          | 0          | 0          |   0.0 |  0.00
Modify  | 0          | 0          | 0          |   0.0 |  0.00
Other   |            | 3.845e-05  |            |       |100.00

Nlocal:           8000 ave        8000 max        8000 min
Histogram: 1 0 0 0 0 0 0 0 0 0
Nghost:          20061 ave       20061 max       20061 min
Histogram: 1 0 0 0 0 0 0 0 0 0
Neighs:              0 ave           0 max           0 min
Histogram: 1 0 0 0 0 0 0 0 0 0
FullNghs:  4.78003e+06 ave 4.78003e+06 max 4.78003e+06 min
Histogram: 1 0 0 0 0 0 0 0 0 0

Total # of neighbors = 4780034
Ave neighs/atom = 597.50425
Ave special neighs/atom = 5.7025
Neighbor list builds = 0
Dangerous builds = 0
System init for write_data ...
PPPM Kokkos initialization ...
  using 12-bit tables for long-range coulomb
  G vector (1/distance) = 0.2970973
  grid = 30 30 30
  stencil order = 5
  estimated absolute RMS force accuracy = 0.00040113806
  estimated relative force accuracy = 1.2080154e-06
  using double precision cuFFT
  3d grid and FFT values/proc = 50653 27000
Generated 10 of 10 mixed pair_coeff terms from sixthpower/sixthpower mixing rule
STAGE COMPLETE: Tg step T=420.0K P=1.0atm steps=200000
