LAMMPS (22 Jul 2025 - Update 3)
KOKKOS mode with Kokkos version 4.6.2 is enabled
  will use up to 1 GPU(s) per node
  using 1 OpenMP thread(s) per MPI task
Reading data file ...
  orthogonal box = (4.1175075 4.1175075 4.1175075) to (47.40455 47.40455 47.40455)
  1 by 1 by 1 MPI processor grid
  reading atoms ...
  8000 atoms
  reading velocities ...
  8000 velocities
  scanning bonds ...
  4 = max bonds/atom
  scanning angles ...
  10 = max angles/atom
  scanning dihedrals ...
  16 = max dihedrals/atom
  scanning impropers ...
  7 = max impropers/atom
  orthogonal box = (4.1175075 4.1175075 4.1175075) to (47.40455 47.40455 47.40455)
  1 by 1 by 1 MPI processor grid
  reading bonds ...
  7990 bonds
  reading angles ...
  14820 angles
  reading dihedrals ...
  17070 dihedrals
  reading impropers ...
  9120 impropers
Finding 1-2 1-3 1-4 neighbors ...
  special bond factors lj:    0        0        1       
  special bond factors coul:  0        0        1       
     4 = max # of 1-2 neighbors
     6 = max # of 1-3 neighbors
     8 = max # of special neighbors
  special bonds CPU = 0.003 seconds
  read_data CPU = 0.196 seconds
PPPM Kokkos initialization ...
  using 12-bit tables for long-range coulomb
  G vector (1/distance) = 0.29841281
  grid = 30 30 30
  stencil order = 5
  estimated absolute RMS force accuracy = 0.00038186518
  estimated relative force accuracy = 1.1499756e-06
  using double precision cuFFT
  3d grid and FFT values/proc = 50653 27000
Generated 10 of 10 mixed pair_coeff terms from sixthpower/sixthpower mixing rule
Neighbor list info ...
  update: every = 1 steps, delay = 0 steps, check = yes
  max neighbors/atom: 4000, page size: 100000
  master list distance cutoff = 11.5
  ghost atom cutoff = 11.5
  binsize = 11.5, bins = 4 4 4
  1 neighbor lists, perpetual/occasional/extra = 1 0 0
  (1) pair lj/class2/coul/long/kk, perpetual
      attributes: full, newton off, kokkos_device
      pair build: full/bin/kk/device
      stencil: full/bin/3d
      bin: kk/device
Setting up Verlet run ...
  Unit style    : real
  Current step  : 0
  Time step     : 1
Per MPI rank memory allocation (min/avg/max) = 34.7 | 34.7 | 34.7 Mbytes
   Step          Time           Temp          Press         Enthalpy        TotEng         KinEng         PotEng         E_bond        E_angle        E_dihed        E_impro         E_vdwl         E_coul         E_long         E_tail         Volume           Lx             Ly             Lz          Density          Pxx            Pyy            Pzz      
         0   0              348.01302     -320.38916      7013.8544      7392.8442      8297.8482     -905.00405      3161.0369      6234.5247     -9471.5077     -70.694433     -3140.2644      7829.792      -5447.8911     -514.29749      81109.876      43.287042      43.287042      43.287042      1.0285743     -142.42505     -695.22653     -123.51591    
      1000   1000           348.57352      355.56477      8104.4413      7682.3711      8311.2125     -628.84144      3216.3873      6381.6437     -9466.0178     -71.922147     -3094.447       7847.9399     -5442.4254     -512.5049       81393.574      43.337452      43.337452      43.337452      1.0249892      851.0402       703.54973     -487.89561    
      2000   2000           346.01257      343.9807       7849.7024      7440.9166      8250.1506     -809.23404      3123.2724      6244.8664     -9474.2351     -68.240692     -3050.883       7862.2367     -5446.2508     -511.92017      81486.544      43.353946      43.353946      43.353946      1.0238198      395.0344       239.11938      397.78832    
      3000   3000           348.30947     -159.99345      7222.979       7412.3106      8304.9168     -892.60622      3093.0731      6231.1349     -9489.0979     -66.266775     -3094.0654      7867.2463     -5434.6304     -514.09488      81141.843      43.292728      43.292728      43.292728      1.0281691     -481.04681      947.1181      -946.05165    
      4000   4000           355.09291     -1064.8545      6527.8124      7800.5891      8466.6576     -666.06843      3248.2179      6290.282      -9554.795      -70.931336     -3024.2071      7883.6893     -5438.3242     -508.98157      81957.006      43.437221      43.437221      43.437221      1.0179427     -1531.5885     -1501.5296     -161.4453     
      5000   5000           352.86298      213.40928      7879.1836      7625.8371      8413.4884     -787.65122      3199.21        6284.4321     -9463.4046     -69.505225     -3153.6801      7857.8856     -5442.589      -512.4629       81400.245      43.338636      43.338636      43.338636      1.0249052      2258.8974     -251.51787     -1367.1517    
      6000   6000           347.27644     -0.37610705     7388.5566      7388.9993      8280.2857     -891.28636      3113.1092      6286.6544     -9496.2659     -72.697435     -3131.1512      7853.9215     -5444.8569     -516.87477      80705.44       43.214975      43.214975      43.214975      1.0337288     -814.26115      1442.6286     -629.49579    
      7000   7000           354.7167       138.6661       7763.7472      7599.3292      8457.6874     -858.35822      3056.8381      6290.2615     -9461.4324     -65.366709     -3069.2764      7835.0963     -5444.4786     -513.07984      81302.368      43.321259      43.321259      43.321259      1.0261391      1127.4451     -672.16864     -39.278167    
      8000   8000           347.16229      123.69199      7595.1391      7448.0627      8277.564      -829.50132      3115.2306      6340.4316     -9467.483      -69.123704     -3138.0166      7836.2285     -5446.7686     -511.63786      81531.508      43.361919      43.361919      43.361919      1.0232552      198.40254      782.26795     -609.59452    
      9000   9000           350.33986      1034.9643      8901.3632      7670.7988      8353.3282     -682.52947      3176.1898      6378.2161     -9525.8589     -70.641264     -3037.4401      7839.6536     -5442.6487     -511.66422      81527.306      43.361174      43.361174      43.361174      1.0233079      1184.63        9.3717592      1910.8912    
     10000   10000          343.99785      572.661        8200.1869      7521.203       8202.1126     -680.90958      3157.7976      6347.7082     -9484.6798     -68.104847     -3048.0301      7857.7119     -5443.3126     -513.10025      81299.134      43.320684      43.320684      43.320684      1.0261799     -76.521373      802.67426      991.83011    
     11000   11000          351.90157     -917.71666      6501.6051      7583.9242      8390.5649     -806.6407       3157.7489      6326.9895     -9481.7735     -71.648671     -3144.47        7850.2384     -5443.7254     -515.84275      80866.903      43.243775      43.243775      43.243775      1.0316648     -564.86069     -838.3762      -1349.9131    
     12000   12000          344.43207      799.10803      8276.5269      7330.1184      8212.4659     -882.3475       3089.5031      6243.4288     -9484.1165     -70.3447       -3069.7557      7851.6267     -5442.6891     -513.67791      81207.709      43.304439      43.304439      43.304439      1.0273352     -851.10281      2230.7964      1017.6305    
     13000   13000          348.76816     -958.14378      6493.6387      7629.4175      8315.8535     -686.43601      3159.3717      6353.6626     -9441.6307     -71.095216     -3084.1177      7836.9561     -5439.5827     -513.2169       81280.654      43.317402      43.317402      43.317402      1.0264132     -756.81061     -1572.2036     -545.41709    
     14000   14000          348.10003     -1195.4533      5916.2212      7322.9689      8299.9229     -976.954        3104.48        6320.0967     -9490.082      -66.99418      -3219.3182      7823.1398     -5448.2762     -516.98796      80687.77       43.211821      43.211821      43.211821      1.0339552     -1433.3195     -891.18513     -1261.8553    
     15000   15000          348.78731      351.76202      7949.8992      7532.8442      8316.31       -783.46577      3100.404       6330.7983     -9511.5338     -70.59302      -3037.0225      7847.1243     -5442.643      -513.12089      81295.863      43.320103      43.320103      43.320103      1.0262212      651.35827     -352.96188      756.88967    
     16000   16000          351.50439     -468.2896       7097.8853      7656.2216      8381.0949     -724.8733       3169.7769      6263.7247     -9396.4093     -69.288148     -3100.656       7850.406      -5442.4274     -510.24966      81753.323      43.401207      43.401207      43.401207      1.0204788      876.27092     -360.41298     -1920.7267    
     17000   17000          349.76448     -385.59355      7004.8252      7462.8965      8339.6092     -876.71264      3051.4972      6367.4681     -9479.905      -71.696744     -3138.4085      7841.5171     -5447.1848     -512.107        81456.816      43.348673      43.348673      43.348673      1.0241934      587.51581     -987.03591     -757.26056    
     18000   18000          352.85753      173.05752      7876.3242      7669.2925      8413.3583     -744.06583      3107.0318      6337.9986     -9475.9807     -73.17937      -3057.7268      7858.0532     -5440.2625     -508.53116      82029.596      43.450041      43.450041      43.450041      1.0170419      736.29143      51.665327     -268.7842     
     19000   19000          347.22697      835.36846      8434.9059      7449.9949      8279.1061     -829.11123      3060.9639      6415.2452     -9508.6061     -72.348887     -3139.2622      7856.9327     -5442.0359     -515.99455      80843.113      43.239535      43.239535      43.239535      1.0319684      608.61566      1382.4486      515.04117    
     20000   20000          349.71385     -597.50296      6809.621       7515.2871      8338.4021     -823.11503      3139.511       6295.1573     -9479.227      -69.260275     -3120.3637      7857.3325     -5446.2649     -515.11579      80981.028      43.264109      43.264109      43.264109      1.0302109     -61.548025     -446.6277      -1284.3332    
     21000   21000          349.07707     -1158.6754      6095.9351      7470.571       8323.2189     -852.64791      3098.4212      6320.1317     -9528.3912     -69.910978     -3080.6423      7849.2024     -5441.4587     -512.78837      81348.581      43.329465      43.329465      43.329465      1.0255561     -1477.9425     -792.17389     -1205.9098    
     22000   22000          351.44188     -354.38263      7230.1804      7651.5128      8379.6044     -728.09159      3164.0095      6289.3361     -9431.3383     -68.728036     -3086.047       7849.0748     -5444.3986     -511.69545      81522.331      43.360292      43.360292      43.360292      1.0233703     -947.45731     -544.09634      428.40577    
     23000   23000          346.43223      256.10379      7689.4945      7385.3345      8260.1567     -874.82223      3114.4419      6301.0708     -9544.0031     -70.552992     -3079.1552      7845.1359     -5441.7596     -512.24532      81434.821      43.344771      43.344771      43.344771      1.0244701      699.47191     -589.67484      658.51432    
     24000   24000          345.96337     -899.83778      6408.3837      7476.5693      8248.9775     -772.40813      3137.6731      6332.5821     -9523.1348     -68.370783     -3058.5548      7846.7622     -5439.3652     -512.48543      81396.666      43.338001      43.338001      43.338001      1.0249503      547.85388     -2356.6293     -890.73792    
     25000   25000          343.68903     -163.90774      6991.354       7185.8366      8194.7493     -1008.9127      3080.7808      6249.4795     -9553.9509     -70.468634     -3126.1156      7854.7392     -5443.3771     -512.72285      81358.975      43.33131       43.33131       43.33131       1.0254251     -1848.3303      508.18527      848.42177    
     26000   26000          352.46194      1366.1619      9083.9417      7470.6192      8403.926      -933.30684      3061.1703      6243.6207     -9535.8143     -67.673581     -3046.7832      7850.6707     -5438.4975     -515.1634       80973.542      43.262776      43.262776      43.262776      1.0303061      1988.474      -2.4720959      2112.4837    
     27000   27000          348.60867      379.66476      7867.2774      7417.8781      8312.0507     -894.17264      3074.4673      6324.9972     -9492.7949     -71.796355     -3113.9731      7833.0391     -5448.112      -513.96311      81162.645      43.296428      43.296428      43.296428      1.0279056     -454.98417      1174.5642      419.41421    
     28000   28000          345.44439      1299.2317      8901.6139      7358.7227      8236.6031     -877.88042      3021.9819      6227.7716     -9454.4777     -66.446142     -3009.6646      7849.9145     -5446.96       -512.28938      81427.816      43.343528      43.343528      43.343528      1.0245582      1985.551       198.88758      1713.2567    
     29000   29000          351.75863     -1297.2068      6084.1869      7627.8301      8387.1567     -759.32661      3095.3388      6329.8553     -9435.7988     -70.118729     -3089.9639      7851.8491     -5440.4884     -511.24174      81594.678      43.373115      43.373115      43.373115      1.0224629     -1392.0506     -1712.0574     -787.51225    
     30000   30000          350.3901       280.9683       7888.5446      7554.0499      8354.5262     -800.4763       3049.874       6395.7409     -9479.1533     -71.125916     -3086.3355      7844.667      -5454.1434     -511.01323      81631.167      43.379579      43.379579      43.379579      1.0220059      704.30214     -246.84038      385.44314    
     31000   31000          346.6391       575.82042      7990.8893      7305.3864      8265.0891     -959.70273      3023.0483      6261.4667     -9528.4215     -69.573008     -3056.1354      7855.1739     -5445.2618     -511.0246       81629.35       43.379257      43.379257      43.379257      1.0220287      1720.8617      1390.8857     -1384.2861    
     32000   32000          349.24273      1095.5534      8810.7496      7511.8446      8327.1689     -815.32429      3098.4125      6350.5615     -9512.4071     -71.717705     -3070.4888      7836.0914     -5445.7761     -513.12152      81295.764      43.320086      43.320086      43.320086      1.0262224      2949.0197      903.6706      -566.03002    
     33000   33000          348.67849      679.46853      8159.8761      7360.9698      8313.7155     -952.74566      3116.4302      6240.8177     -9525.9903     -66.415322     -3127.1277      7852.7131     -5443.1733     -517.41324      80621.451      43.199979      43.199979      43.199979      1.0348057      320.32592      399.16634      1318.9133    
     34000   34000          347.96742     -483.48886      6798.1177      7372.2384      8296.7611     -924.52271      3090.3633      6303.9372     -9554.6283     -71.987737     -3103.3162      7851.7575     -5440.6484     -512.32704      81421.831      43.342466      43.342466      43.342466      1.0246335     -955.36061      715.99356     -1211.0995    
     35000   35000          348.39371     -863.90851      6418.1093      7443.6024      8306.9252     -863.32272      3143.6636      6306.651      -9510.0783     -71.580388     -3135.6202      7847.5638     -5443.9221     -512.50605      81393.391      43.33742       43.33742       43.33742       1.0249915     -957.50306     -1559.9219     -74.300551    
     36000   36000          345.29718      965.8217       8461.2163      7321.3556      8233.0931     -911.73747      3020.649       6398.3634     -9574.5582     -71.928744     -3082.5647      7848.4644     -5450.1627     -515.47688      80924.301      43.254004      43.254004      43.254004      1.030933       616.96498      1677.1304      603.36966    
     37000   37000          343.14154      845.99505      8201.5382      7203.8869      8181.6951     -977.80817      3049.0262      6258.2889     -9491.3981     -69.743615     -3121.4101      7839.2774     -5441.8488     -515.88523      80860.245      43.242589      43.242589      43.242589      1.0317497     -136.12343      523.04897      2151.0596    
     38000   38000          348.10154     -1113.7845      6097.477       7409.4485      8299.959      -890.51043      3125.5083      6390.4223     -9508.9676     -72.694149     -3219.4906      7839.7767     -5445.0655     -516.46488      80769.492      43.226405      43.226405      43.226405      1.032909      -1916.2736     -2197.2444      772.16451    
     39000   39000          345.01025     -494.50373      6857.7959      7443.0213      8226.2517     -783.23036      3116.8333      6456.4147     -9566.5794     -69.143155     -3105.6353      7831.9079     -5447.0284     -514.05594      81147.989      43.293821      43.293821      43.293821      1.0280912     -1844.4327     -252.93016      613.85169    
     40000   40000          343.66948     -72.285207      7161.431       7246.0874      8194.2832     -948.19584      3078.2767      6339.1942     -9487.1048     -69.2586       -3198.0702      7837.3534     -5448.5866     -519.46227      80303.437      43.143103      43.143103      43.143103      1.0389037     -995.80032     -824.14571      1603.0904    
     41000   41000          345.87396      432.39433      7772.6876      7266.1875      8246.8457     -980.65824      3067.6275      6304.1477     -9519.1105     -68.93006      -3153.9991      7835.7479     -5446.1417     -519.35517      80319.997      43.146068      43.146068      43.146068      1.0386895      264.77775      1126.6434     -94.238194    
     42000   42000          341.07682     -1668.3284      5184.117       7151.2848      8132.4651     -981.18026      3102.6288      6251.1098     -9514.4409     -70.889115     -3150.6615      7841.7223     -5440.6497     -515.94591      80850.734      43.240893      43.240893      43.240893      1.0318711     -6.8250653     -1989.8845     -3008.2758    
     43000   43000          344.43606      98.717351      7381.3282      7264.2226      8212.5612     -948.33852      3085.4942      6336.2797     -9589.1824     -71.71856      -3114.04        7846.044      -5441.2154     -512.83757      81340.775      43.328079      43.328079      43.328079      1.0256545      0.72878014    -550.63994      846.06321    
     44000   44000          348.33446      2274.7598      10049.94       7390.0202      8305.5125     -915.4923       3114.3337      6184.1138     -9510.155      -67.911005     -3057.4334      7864.5905     -5443.0309     -520.2727       80178.349      43.12069       43.12069       43.12069       1.0405245      2610.6584      1659.4186      2554.2026    
     45000   45000          343.68019      102.32782      7270.4483      7150.247       8194.5384     -1044.2914      3054.4935      6257.9996     -9618.1471     -68.110644     -3080.7113      7854.2115     -5444.0269     -517.90313      80545.189      43.186353      43.186353      43.186353      1.0357855     -246.46103      544.89602      8.5484698    
     46000   46000          343.36207     -40.921881      7034.2607      7082.0932      8186.9535     -1104.8602      3134.0057      6138.171      -9544.8603     -67.025917     -3151.4173      7833.2278     -5446.9613     -520.4708       80147.831      43.115218      43.115218      43.115218      1.0409207     -110.83196      1517.7294     -1529.6631    
     47000   47000          346.03605      186.67882      7526.0787      7307.1645      8250.7103     -943.54585      3120.4697      6250.0897     -9491.9357     -70.950137     -3162.9552      7850.5261     -5438.7903     -518.78225      80408.699      43.161946      43.161946      43.161946      1.0375437      816.57641     -53.151548     -203.38841    
     48000   48000          344.18444      437.11454      7609.6332      7094.911       8206.5616     -1111.6506      3051.8051      6247.6966     -9608.472      -68.665094     -3129.2441      7840.7692     -5445.5402     -516.63808      80742.414      43.221574      43.221574      43.221574      1.0332554      582.08118      1311.447      -582.18457    
     49000   49000          341.50043     -284.36872      6773.898       7110.6513      8142.5654     -1031.9141      3093.6591      6239.4847     -9588.1444     -68.628703     -3127.4546      7856.7582     -5437.5884     -513.72889      81199.649      43.303007      43.303007      43.303007      1.0274371     -722.79238     -206.74242      76.428632    
     50000   50000          345.31432      224.8888       7703.7153      7438.3935      8233.5019     -795.10838      3187.3218      6313.6479     -9520.1069     -70.931792     -3127.3454      7859.9545     -5437.6485     -515.6546       80896.409      43.249034      43.249034      43.249034      1.0312885      1651.0933      286.13883     -1262.5657    
     51000   51000          346.39629     -371.16034      6852.2066      7287.8819      8259.2997     -971.41779      3109.5933      6228.3115     -9483.1786     -67.192902     -3166.3176      7849.7553     -5442.3887     -518.27781      80486.96       43.175944      43.175944      43.175944      1.0365348      624.08292     -581.72892     -1155.835     
     52000   52000          347.10315     -728.41503      6651.8055      7509.8356      8276.1538     -766.31816      3183.6037      6376.1568     -9548.0958     -68.400282     -3108.5202      7845.2582     -5446.3205     -516.46437      80769.572      43.226419      43.226419      43.226419      1.032908      -89.390253     -578.46885     -1517.386     
     53000   53000          345.24173      44.084977      7319.2911      7267.2697      8231.771      -964.50129      3136.4721      6158.9757     -9473.906      -68.541957     -3134.8439      7859.8564     -5442.5136     -515.5524       80912.447      43.251892      43.251892      43.251892      1.0310841     -116.70532     -543.17777      792.13801    
     54000   54000          343.14022      987.13404      8355.4242      7192.8857      8181.6638     -988.77814      3086.6081      6243.8989     -9543.8894     -70.204482     -3097.4033      7841.0883     -5448.8763     -516.57434      80752.377      43.223352      43.223352      43.223352      1.0331279      147.01038      1439.1295      1375.2622    
     55000   55000          350.15773     -467.94231      6888.1035      7441.092       8348.9856     -907.89361      3086.0965      6273.3662     -9480.598      -70.122878     -3128.3176      7854.849      -5443.1669     -514.80208      81030.375      43.272895      43.272895      43.272895      1.0295835     -489.55541     -898.37031     -15.901204    
     56000   56000          340.8941       564.66529      7818.6375      7154.8598      8128.1082     -973.24846      3100.4505      6283.6342     -9548.1983     -71.058694     -3141.4579      7846.1467     -5442.765      -517.52635      80603.83       43.196832      43.196832      43.196832      1.0350319      259.48402      845.74396      588.7679     
     57000   57000          346.82635     -23.635811      7323.5534      7351.2946      8269.5539     -918.25933      3100.2822      6414.6719     -9579.4986     -64.424531     -3196.9166      7849.7989     -5442.1726     -518.33314      80478.37       43.174408      43.174408      43.174408      1.0366454      170.48207      423.73566     -665.12517    
     58000   58000          343.48906     -627.4458       6526.0628      7265.0603      8189.9812     -924.92089      3122.2362      6327.5368     -9509.7284     -70.624666     -3182.4255      7834.5382     -5446.4535     -516.53208      80758.984      43.22453       43.22453       43.22453       1.0330434     -196.26637      919.63501     -2605.7061    
     59000   59000          344.76216     -714.97419      6412.4857      7260.2935      8220.3364     -960.04288      3063.7171      6383.5611     -9557.6458     -67.731988     -3194.1911      7852.648      -5440.4003     -513.04681      81307.602      43.322188      43.322188      43.322188      1.026073      -16.18714      -2076.7917     -51.943729    
     60000   60000          343.3375      -801.15931      6191.0778      7133.3066      8186.3674     -1053.0608      3082.0191      6146.0194     -9450.4278     -66.183522     -3160.7751      7840.2633     -5443.9762     -517.28103      80642.056      43.203659      43.203659      43.203659      1.0345413     -709.70079     -1412.2731     -281.50407    
     61000   61000          346.886        1509.971       9017.9082      7236.6029      8270.9762     -1034.3734      3063.4949      6317.2824     -9565.6747     -68.309548     -3162.1408      7827.6225     -5446.6481     -515.69659      80889.822      43.24786       43.24786       43.24786       1.0313725      687.57605      1387.7065      2454.6303    
     62000   62000          347.29191      549.4338       7866.2249      7215.6023      8280.6545     -1065.0523      3045.1919      6229.607      -9540.9703     -71.016561     -3113.3495      7832.2053     -5446.7202     -513.74811      81196.611      43.302467      43.302467      43.302467      1.0274756      256.97415      239.98936      1151.3379    
     63000   63000          339.21868      480.1449       7530.6719      6968.6511      8088.1604     -1119.5093      3049.8286      6241.0491     -9511.3085     -68.112781     -3241.6757      7853.5437     -5442.8336     -519.73743      80260.922      43.135488      43.135488      43.135488      1.039454      -482.73543      54.711563      1868.4586    
     64000   64000          340.97978      497.43757      7876.0547      7285.7181      8130.1513     -844.43312      3132.557       6319.798      -9538.0281     -68.430448     -3119.1783      7863.4511     -5434.6023     -512.62872      81373.915      43.333963      43.333963      43.333963      1.0252368     -141.81134     -63.000394      1697.1245    
     65000   65000          339.76521     -654.92177      6355.7845      7133.189       8101.1918     -968.00279      3088.3665      6245.2274     -9521.5289     -70.055223     -3115.2459      7845.2452     -5440.0117     -512.51484      81391.997      43.337172      43.337172      43.337172      1.0250091     -94.316768     -1331.3903     -539.05823    
     66000   66000          343.13197     -1733.5547      5206.5713      7252.3889      8181.467      -929.07813      3103.3334      6317.5744     -9509.4883     -68.80037      -3160.2368      7835.3626     -5446.8231     -515.50713      80919.551      43.253158      43.253158      43.253158      1.0309936     -1494.6597     -2222.4279     -1483.5763    
     67000   67000          341.69437      6.8768536      7103.4127      7095.2717      8147.1897     -1051.9179      2991.9328      6278.4582     -9551.9337     -71.786857     -3097.6212      7845.4501     -5446.4173     -513.90067      81172.507      43.298181      43.298181      43.298181      1.0277807     -987.08842      664.90217      342.81681    
     68000   68000          341.65563     -74.86279       7107.8283      7196.0735      8146.2658     -950.19226      3110.0671      6233.0432     -9540.6343     -70.035048     -3067.4785      7831.8511     -5447.0058     -516.1062       80825.624      43.236416      43.236416      43.236416      1.0321917      504.26993     -272.21618     -456.64212    
     69000   69000          340.84683     -1374.2154      5685.8886      7305.2036      8126.9812     -821.77756      3197.6993      6303.3485     -9513.0551     -71.522543     -3136.6299      7844.5085     -5446.1263     -516.28261      80798.006      43.231491      43.231491      43.231491      1.0325445     -1319.533      -469.47027     -2333.6429    
     70000   70000          342.00439      462.99971      7636.0604      7088.3235      8154.5814     -1066.2579      3002.2687      6251.4932     -9567.5684     -67.502971     -3072.6366      7833.6823     -5445.9942     -514.24811      81117.665      43.288428      43.288428      43.288428      1.0284756      1383.3235     -889.72541      895.401      
     71000   71000          351.38655      357.32792      7834.4279      7411.6536      8378.285      -966.63138      3098.0854      6198.5799     -9509.6355     -66.600782     -3094.3682      7847.3702     -5440.0624     -514.18855      81127.061      43.290099      43.290099      43.290099      1.0283564      300.93757      851.35268     -80.306496    
     72000   72000          343.03639     -149.6136       7019.0643      7195.9261      8179.1879     -983.26187      3055.5173      6307.8882     -9579.4332     -70.315231     -3092.1551      7839.8686     -5444.6323     -514.63718      81056.34       43.277516      43.277516      43.277516      1.0292537     -1080.9019     -192.61008      824.67121    
     73000   73000          339.73912     -93.597241      7025.9313      7136.4077      8100.5695     -964.1618       3169.9818      6215.1311     -9517.3393     -70.362027     -3147.7426      7835.4105     -5449.2412     -515.41539      80933.954      43.255724      43.255724      43.255724      1.0308101      329.41345     -1409.5516      799.34642    
     74000   74000          344.22909     -508.42724      6699.7206      7298.9189      8207.6262     -908.70735      3177.934       6234.5834     -9513.901      -68.184919     -3115.8483      7827.5565     -5450.8471     -516.20514      80810.132      43.233654      43.233654      43.233654      1.0323895     -211.13965     -2515.8168      1201.6747    
     75000   75000          344.29746     -426.27668      6601.3576      7104.8727      8209.2563     -1104.3836      3093.966       6168.1704     -9591.1817     -68.453749     -3108.6524      7847.8594     -5446.0915     -515.04256      80992.541      43.266159      43.266159      43.266159      1.0300644     -718.72742      132.21029     -692.31292    
     76000   76000          342.63304      642.77075      7892.2215      7132.3097      8169.5708     -1037.2611      3068.5447      6159.7112     -9509.3487     -69.306886     -3087.7024      7843.7345     -5442.8936     -514.58476      81064.595      43.278986      43.278986      43.278986      1.0291489      10.619867      330.93123      1586.7612    
     77000   77000          348.99442      475.90891      7789.2579      7227.6636      8321.2483     -1093.5847      2974.8496      6279.0632     -9544.1171     -72.967997     -3113.5761      7831.1314     -5447.9677     -515.54329      80913.875      43.252147      43.252147      43.252147      1.0310659      659.53175      991.75119     -223.5562     
     78000   78000          342.51837      37.870801      7095.0277      7050.302       8166.8367     -1116.5346      3043.3097      6175.4657     -9496.5692     -70.920482     -3174.0981      7844.3326     -5438.055      -515.12354      80979.809      43.263892      43.263892      43.263892      1.0302264     -1151.8615      1090.5907      174.88324    
     79000   79000          347.36855     -306.19025      6877.1201      7238.9437      8282.4819     -1043.5382      3113.8423      6165.3644     -9532.5939     -65.765593     -3141.8797      7854.0152     -5436.5208     -514.82369      81026.974      43.272289      43.272289      43.272289      1.0296267     -1219.7964      388.36939     -87.143742    
     80000   80000          343.95461      268.5962       7303.5357      6985.6582      8201.0816     -1215.4234      3075.68        6122.5048     -9584.6679     -68.676288     -3164.1703      7844.5088     -5440.6024     -514.04844      81149.173      43.294032      43.294032      43.294032      1.0280762      672.85641     -159.46566      292.39785    
     81000   81000          343.94437     -752.16809      6279.3805      7173.6407      8200.8375     -1027.1968      3047.4863      6183.5079     -9464.1227     -69.833895     -3116.087       7842.0275     -5450.1749     -511.69956      81521.677      43.360176      43.360176      43.360176      1.0233786     -760.95491     -551.89266     -943.65672    
     82000   82000          346.22755      416.98492      7649.9773      7153.2487      8255.2764     -1102.0277      3010.9758      6235.5062     -9612.5689     -68.089926     -3060.6598      7841.5825     -5448.7735     -510.69924      81681.355      43.388468      43.388468      43.388468      1.021378       698.11627     -738.4335       1291.272     
     83000   83000          343.49731      1710.8762      8893.9939      6879.7443      8190.178      -1310.4337      2943.8994      6106.9542     -9582.1648     -68.601703     -3105.1486      7843.0379     -5448.41       -516.73671      80727.002      43.218824      43.218824      43.218824      1.0334527      1030.6119      997.83466      3104.182     
     84000   84000          339.73695     -540.15936      6349.6852      6990.695       8100.5178     -1109.8228      3104.7331      6200.3926     -9591.9525     -69.499182     -3136.037       7832.3029     -5449.7627     -512.65035      81370.482      43.333353      43.333353      43.333353      1.0252801      282.51827     -1046.429      -856.5674     
     85000   85000          344.42534      7.5625179      7140.1624      7131.2637      8212.3054     -1081.0417      3111.9598      6233.5277     -9616.1584     -72.178081     -3150.8196      7858.7425     -5446.1154     -517.01744      80683.17       43.211         43.211         43.211         1.0340141     -175.40047     -172.36302      370.45104    
     86000   86000          344.21285     -772.315        6203.9165      7115.9076      8207.239      -1091.3314      3067.4531      6241.4281     -9585.2912     -72.299254     -3142.0253      7849.0637     -5449.6604     -515.19056      80969.274      43.262015      43.262015      43.262015      1.0303604     -1081.4809      570.96335     -1806.4275    
     87000   87000          341.03263      327.00714      7444.0891      7055.8692      8131.4114     -1075.5422      3071.5361      6228.4191     -9601.7176     -66.07073      -3113.3955      7848.6413     -5442.9549     -512.44051      81403.801      43.339267      43.339267      43.339267      1.0248604     -140.66564      466.87921      654.80786    
     88000   88000          340.29752      1419.6419      8565.4472      6891.9002      8113.8839     -1221.9837      3028.9293      6070.2308     -9554.754      -63.060776     -3111.4328      7851.7713     -5443.6675     -516.06558      80831.985      43.23755       43.23755       43.23755       1.0321104      2323.9039      2257.4039     -322.38223    
     89000   89000          340.85417     -919.06261      5946.0908      7035.9261      8127.1563     -1091.2302      3034.7195      6204.4092     -9548.4632     -68.284633     -3095.0999      7828.3094     -5446.8204     -513.03649      81309.238      43.322479      43.322479      43.322479      1.0260524     -2262.3606      721.42568     -1216.2529    
     90000   90000          339.45846      416.72357      7531.8523      7038.3697      8093.8777     -1055.5079      3075.5319      6216.4189     -9566.0673     -68.425343     -3103.7206      7834.3421     -5443.5875     -513.73631      81198.477      43.302798      43.302798      43.302798      1.027452      -134.43422      1024.2782      360.32675    
     91000   91000          340.74797      320.5473       7383.2849      7003.3395      8124.624      -1121.2845      2972.9175      6256.7479     -9558.4984     -67.829864     -3122.6112      7843.0709     -5445.0814     -513.25706      81274.295      43.316272      43.316272      43.316272      1.0264935      505.06012      469.38481     -12.803041    
     92000   92000          341.44256     -621.98794      6363.0135      7093.0993      8141.1855     -1048.0862      3084.9237      6181.0005     -9511.791      -67.035126     -3117.7403      7829.9419     -5447.3858     -518.28908      80485.21       43.175631      43.175631      43.175631      1.0365573     -1153.4432     -466.15263     -246.36801    
     93000   93000          337.36719     -596.23491      6349.9491      7054.5182      8044.0144     -989.49618      3094.0883      6337.6352     -9607.98       -70.418908     -3136.1962      7835.4955     -5442.12       -514.82288      81027.102      43.272312      43.272312      43.272312      1.0296251     -494.55911     -144.93812     -1149.2075    
     94000   94000          341.13215      624.56761      7738.2637      7001.1881      8133.7842     -1132.5962      3059.5331      6124.9768     -9542.7687     -63.948802     -3102.2377      7836.5422     -5444.693      -515.50328      80920.155      43.253266      43.253266      43.253266      1.0309859      686.26644     -381.94199      1569.3784    
     95000   95000          336.6734       452.42862      7467.5299      6935.4672      8027.472      -1092.0047      2963.6241      6259.3703     -9538.9024     -68.996864     -3105.8695      7843.2498     -5444.4802     -517.31051      80637.461      43.202838      43.202838      43.202838      1.0346002      642.22578      1864.9555     -1149.8954    
     96000   96000          337.46226     -889.05805      5895.271       6939.5128      8046.2812     -1106.7685      3038.5995      6215.926      -9584.2566     -69.387412     -3120.0436      7851.8255     -5439.4319     -517.95627      80536.927      43.184877      43.184877      43.184877      1.0358917     -834.22001     -214.52767     -1618.4265    
     97000   97000          340.54588      296.35869      7420.3844      7070.162       8119.8055     -1049.6435      3028.0217      6202.6734     -9548.2706     -68.386601     -3076.0295      7857.3344     -5444.9864     -514.79904      81030.854      43.27298       43.27298       43.27298       1.0295774     -819.5404       761.09532      947.52115    
     98000   98000          337.61774      269.78171      7090.2377      6772.1071      8049.9884     -1277.8813      2978.9411      6046.0131     -9537.2775     -67.926607     -3103.9402      7852.1261     -5445.8174     -515.90659      80856.897      43.241992      43.241992      43.241992      1.0317924      1279.2098     -148.23647     -321.62816    
     99000   99000          335.26155     -638.284        6268.1249      7020.0628      7993.8086     -973.74584      3162.8494      6186.1719     -9527.2318     -68.926741     -3137.1032      7853.1302     -5442.6356     -516.41166      80777.816      43.22789       43.22789       43.22789       1.0328026     -1992.144       64.841096      12.450879    
    100000   100000         337.81276      43.819345      6874.7408      6823.1341      8054.6384     -1231.5043      2977.8896      6105.3769     -9497.1983     -66.31122      -3157.4437      7846.4747     -5440.2923     -516.56367      80754.045      43.223649      43.223649      43.223649      1.0331066      152.70537     -219.25264      198.0053     
    101000   101000         346.45054     -153.22937      7057.5133      7238.2743      8260.5932     -1022.3189      3068.5274      6293.8923     -9557.2007     -71.326401     -3148.0118      7837.6628     -5445.8624     -515.70493      80888.514      43.247627      43.247627      43.247627      1.0313891     -1403.1802     -332.92812      1276.4202    
    102000   102000         341.90615      1000.4629      8159.8916      6974.3289      8152.2391     -1177.9102      2982.3832      6231.0332     -9608.6458     -70.0745       -3120.3339      7843.814      -5436.0865     -513.38183      81254.543      43.312763      43.312763      43.312763      1.026743      -365.39333      609.57069      2757.2113    
    103000   103000         337.37447     -919.62025      5696.107       6779.6539      8044.188      -1264.5342      2958.78        6185.6427     -9547.4935     -68.597188     -3187.6423      7839.7079     -5444.9317     -516.32704      80791.053      43.230251      43.230251      43.230251      1.0326333     -1222.9357     -410.70533     -1125.2197    
    104000   104000         339.11159     -563.05366      6334.9647      6998.0989      8085.607      -1087.5082      3034.0489      6277.0491     -9556.5097     -69.650058     -3185.3028      7854.5681     -5441.7117     -516.55008      80756.17       43.224028      43.224028      43.224028      1.0330794     -750.9421       299.6359      -1237.8548    
    105000   105000         339.90567     -345.04275      6515.6234      6925.4314      8104.5407     -1179.1093      2997.1958      6056.1848     -9514.0747     -65.162146     -3053.3555      7839.8553     -5439.7529     -512.21994      81438.856      43.345487      43.345487      43.345487      1.0244193      466.7818      -1200.5769     -301.33314    
    106000   106000         337.99062     -86.358628      6841.5596      6943.5025      8058.8793     -1115.3768      3013.2762      6195.7864     -9523.7261     -70.382956     -3114.2292      7831.3922     -5447.4933     -515.36233      80942.287      43.257209      43.257209      43.257209      1.030704       232.23699      192.76916     -684.08203    
    107000   107000         337.13084     -24.574437      6968.881       6998.034       8038.379      -1040.345       3070.7526      6241.5268     -9557.1161     -69.562205     -3116.8127      7836.813      -5445.9465     -512.81934      81343.667      43.328593      43.328593      43.328593      1.0256181      794.853       -445.37832     -423.19799    
    108000   108000         340.07805      611.62982      7609.1615      6887.3718      8108.6508     -1221.279       2983.4965      6153.2672     -9560.6868     -72.97829      -3110.7883      7834.2566     -5447.846      -515.51583      80918.186      43.252915      43.252915      43.252915      1.0310109      206.20472      1458.8334      169.85134    
    109000   109000         339.07433      530.96006      7721.7701      7095.3082      8084.7187     -989.41044      3046.4758      6307.1884     -9535.1239     -69.995158     -3120.5914      7827.4134     -5444.7777     -515.62174      80901.566      43.249953      43.249953      43.249953      1.0312228     -400.45812      1103.1921      890.14623    
    110000   110000         339.12301      931.72863      7938.5848      6843.8914      8085.8795     -1241.9881      2974.2648      6176.21       -9550.8244     -67.639884     -3159.0837      7829.5809     -5444.4958     -517.7987       80561.433      43.189257      43.189257      43.189257      1.0355766     -678.08162      1959.6196      1513.6479    
    111000   111000         342.16829      133.58246      7033.1226      6876.0327      8158.4895     -1282.4569      3005.2429      6084.3483     -9536.5686     -65.511045     -3138.9191      7821.7126     -5452.762      -517.32676      80634.928      43.202386      43.202386      43.202386      1.0346327     -889.09788      879.67544      410.16983    
    112000   112000         337.12638     -401.34254      6399.6368      6870.487       8038.2727     -1167.7856      3041.4948      6153.9072     -9528.9191     -66.306209     -3134.6819      7820.1513     -5453.4317     -518.55696      80443.634      43.168195      43.168195      43.168195      1.0370931      254.29474     -755.5058      -702.81655    
    113000   113000         338.68569     -597.15339      6182.489       6887.6624      8075.452      -1187.7896      3060.6798      6108.1057     -9530.3382     -68.905        -3151.7922      7846.5595     -5452.0991     -515.17411      80971.86       43.262476      43.262476      43.262476      1.0303275     -1378.8261     -79.868244     -332.76583    
    114000   114000         338.38762      129.06448      6953.761       6802.0359      8068.3451     -1266.3092      3071.5023      6154.9206     -9601.3576     -67.829717     -3198.897       7826.1527     -5450.8005     -517.50362      80607.369      43.197464      43.197464      43.197464      1.0349865     -426.02851      1656.1811     -842.95921    
    115000   115000         341.43081     -116.17649      6917.2201      7054.6001      8140.9054     -1086.3053      3100.767       6170.1713     -9565.2985     -68.600413     -3119.1711      7839.3453     -5443.5189     -514.46884      81082.861      43.282236      43.282236      43.282236      1.028917      -1276.7092      512.21912      415.9606     
    116000   116000         340.77964     -208.59095      6803.8221      7049.8292      8125.3792     -1075.5499      3032.2782      6297.4442     -9554.6214     -69.39898      -3161.7302      7828.5876     -5448.1093     -515.83618      80867.933      43.243959      43.243959      43.243959      1.0316516      36.966317      315.07943     -977.81861    
    117000   117000         339.65156     -197.82085      6617.81        6853.0449      8098.4817     -1245.4368      3001.8339      6131.7877     -9560.8875     -71.056584     -3141.5303      7839.3018     -5444.8858     -511.60451      81536.822      43.362861      43.362861      43.362861      1.0231885     -380.92771     -567.5475       355.01264    
    118000   118000         337.82765      892.29424      8026.7853      6975.1604      8054.9934     -1079.833       3068.5367      6185.9599     -9581.7665     -67.76371      -3073.0087      7831.1453     -5442.9358     -516.19195      80812.197      43.234022      43.234022      43.234022      1.0323632      1379.5761      1255.8987      41.40788     
    119000   119000         336.6829      -1697.3499      4834.5314      6840.724       8027.6987     -1186.9747      3004.6433      6244.0303     -9579.5346     -66.387678     -3179.0388      7835.5751     -5446.2623     -514.71021      81044.839      43.275469      43.275469      43.275469      1.0293997     -1210.5293     -1866.7425     -2014.7779    
    120000   120000         334.87643     -662.33681      6001.4332      6785.8299      7984.6261     -1198.7962      2993.717       6107.832      -9535.8214     -71.038245     -3068.6925      7824.32       -5449.1131     -513.69718      81204.661      43.303897      43.303897      43.303897      1.0273737     -3.0913618     -377.2729      -1606.6462    
    121000   121000         340.66661     -11.075458      6971.6696      6984.6981      8122.6841     -1137.986       3060.915       6191.9304     -9560.0441     -70.341925     -3165.862       7850.0679     -5444.6513     -517.16769      80659.729      43.206815      43.206815      43.206815      1.0343146     -407.65214      355.52916      18.896612    
    122000   122000         337.57403     -268.3686       6505.5352      6822.0828      8048.9463     -1226.8634      2985.0668      6115.3934     -9462.2364     -67.042805     -3186.8617      7834.205      -5445.3876     -515.77062      80878.213      43.245791      43.245791      43.245791      1.0315205      1360.9989     -1137.0344     -1029.0703    
    123000   123000         339.70555      612.5778       7579.252       6861.9111      8099.769      -1237.8579      3008.9669      6139.5938     -9574.1519     -67.820908     -3135.3524      7840.2156     -5449.3091     -519.51692      80294.99       43.14159       43.14159       43.14159       1.039013      -123.91116      708.66446      1252.9801    
    124000   124000         340.1689       811.41375      7927.7467      6970.0058      8110.8171     -1140.8114      3014.9453      6171.8434     -9529.8221     -68.784154     -3133.2836      7846.9126     -5442.6228     -515.41655      80933.773      43.255692      43.255692      43.255692      1.0308124      2288.5355      695.56795     -549.86222    
    125000   125000         335.98178     -1.6027323      6838.6815      6840.5693      8010.9814     -1170.4122      3044.7664      6200.0153     -9587.1207     -67.762087     -3150.4512      7838.6561     -5448.5159     -516.50145      80763.773      43.225385      43.225385      43.225385      1.0329821     -443.13794     -299.76647      738.09622    
    126000   126000         332.97984     -1195.9072      5402.8409      6811.4712      7939.4048     -1127.9336      3087.4075      6194.2418     -9500.368      -69.434537     -3242.6131      7849.5702     -5446.7375     -516.49308      80765.082      43.225618      43.225618      43.225618      1.0329654     -906.62713     -1402.5764     -1278.5181    
    127000   127000         342.24814      1109.3291      8294.2735      6999.2198      8160.3935     -1161.1737      2998.1823      6211.5391     -9556.3191     -71.312414     -3158.4703      7859.9952     -5444.7884     -521.11872      80048.181      43.097342      43.097342      43.097342      1.0422165      1435.9323      1001.5642      890.49069    
    128000   128000         337.02354     -71.988297      6741.4565      6826.644       8035.8207     -1209.1767      2927.7355      6221.3974     -9553.5611     -70.703241     -3133.6027      7848.7296     -5449.1722     -514.10286      81140.583      43.292504      43.292504      43.292504      1.0281851     -222.46044      380.55163     -374.05608    
    129000   129000         343.26108     -217.21422      6856.2403      7111.3831      8184.5455     -1073.1625      3046.5091      6159.6562     -9465.817      -69.817744     -3142.0429      7845.1554     -5446.8056     -517.92756      80541.39       43.185674      43.185674      43.185674      1.0358343     -858.98524      531.4585      -324.1159     
    130000   130000         335.55401     -370.36697      6483.763       6918.897       8000.782      -1081.885       3008.6722      6184.3138     -9454.889      -66.609276     -3109.3831      7813.7474     -5457.7371     -517.81337      80559.152      43.188849      43.188849      43.188849      1.0356059     -163.27328     -10.637024     -937.19061    
    131000   131000         340.57199     -397.39926      6327.2443      6793.3744      8120.428      -1327.0536      2973.0264      6147.2999     -9549.724      -69.514277     -3182.7906      7810.1401     -5455.4911     -518.66147      80427.423      43.165296      43.165296      43.165296      1.0373021      335.036       -779.62304     -747.61073    
    132000   132000         336.40213      49.788297      6821.1099      6762.2041      8021.004      -1258.7999      2922.2922      6253.8479     -9601.8395     -70.870024     -3143.7958      7834.16       -5452.5947     -514.20122      81125.062      43.289744      43.289744      43.289744      1.0283818     -476.06993     -810.8773       1436.3121    
    133000   133000         338.0306       72.848801      7041.9139      6956.8703      8059.8326     -1102.9622      3039.819       6157.4686     -9474.1894     -70.078647     -3155.3201      7848.1717     -5448.8333     -521.12878      80046.636      43.097065      43.097065      43.097065      1.0422366      187.27218      537.63688     -506.36266    
    134000   134000         333.09149     -1715.3126      4664.8003      6685.1183      7942.0667     -1256.9484      3055.6134      6108.4268     -9566.6936     -65.823712     -3165.3924      7831.6839     -5454.7628     -516.52051      80760.793      43.224853      43.224853      43.224853      1.0330203     -1614.3035     -1797.7446     -1733.8897    
    135000   135000         339.61108     -364.14744      6414.6598      6842.3879      8097.5166     -1255.1287      3030.8472      6054.9922     -9531.7434     -70.440398     -3137.8946      7846.7556     -5447.6454     -517.93289      80540.561      43.185526      43.185526      43.185526      1.035845      -1341.2607     -426.65751      675.47585    
    136000   136000         333.94662      268.96621      6972.5292      6658.4231      7962.4562     -1304.0331      3085.6528      6085.2487     -9628.3391     -69.352364     -3158.5807      7831.4172     -5450.0796     -520.9373       80076.059      43.102345      43.102345      43.102345      1.0418537      903.85554     -728.35795      631.40105    
    137000   137000         341.25917      1109.2203      8388.4397      7074.0937      8136.8129     -1062.7192      3032.5159      6245.9667     -9529.0897     -69.340268     -3137.1438      7843.3018     -5448.9298     -513.41924      81248.622      43.31171       43.31171       43.31171       1.0268179      110.07073      1881.3833      1336.2068    
    138000   138000         334.52865     -372.7949       6284.4582      6724.2721      7976.3337     -1252.0616      3014.2479      6070.962      -9540.2105     -63.16883      -3120.6688      7835.6714     -5448.8948     -515.66189      80895.267      43.248831      43.248831      43.248831      1.0313031      1475.6676     -974.65251     -1619.3998    
    139000   139000         339.57394     -450.23091      6283.514       6812.1383      8096.6311     -1284.4929      3022.4215      6034.0429     -9506.5884     -68.01502      -3158.6743      7836.9754     -5444.6549     -518.14616      80507.412      43.179601      43.179601      43.179601      1.0362715     -361.69553     -998.88094      9.8837295    
    140000   140000         338.30819      537.92241      7460.8259      6829.8235      8066.4513     -1236.6278      3015.9322      6130.147      -9559.588      -65.619765     -3133.9562      7827.4552     -5450.9981     -518.62405      80433.227      43.166334      43.166334      43.166334      1.0372273     -1214.2166      1329.7452      1498.2386    
    141000   141000         343.29162      321.25601      7383.9248      7003.8531      8185.2737     -1181.4205      3022.0483      6208.1791     -9552.2389     -68.258917     -3163.5078      7822.7544     -5450.3967     -514.22101      81121.939      43.289188      43.289188      43.289188      1.0284214      151.66281      257.13302      554.97221    
    142000   142000         330.48069      51.425787      6800.1713      6739.6816      7879.8163     -1140.1346      2987.27        6161.3044     -9473.7148     -67.457959     -3136.4406      7836.3452     -5447.4409     -517.20639      80653.694      43.205737      43.205737      43.205737      1.034392       585.33561     -1705.338       1274.2797    
    143000   143000         335.28287     -107.64379      6665.8027      6791.9959      7994.317      -1202.3211      3030.435       6112.6035     -9502.9653     -68.398569     -3157.5282      7829.112      -5445.5796     -518.9399       80384.271      43.157574      43.157574      43.157574      1.0378589     -234.0565       898.80136     -987.67623    
    144000   144000         334.39528      913.79876      7627.1383      6558.1477      7973.1538     -1415.0061      2931.7491      6026.458      -9541.8622     -70.172        -3138.6259      7826.5335     -5449.0866     -520.04475      80213.492      43.126989      43.126989      43.126989      1.0400686      273.10192      2438.0553      30.239056    
    145000   145000         333.01397      64.237546      6684.6906      6609.521       7940.2185     -1330.6976      2985.1768      6105.5076     -9536.4932     -67.544236     -3193.0996      7826.0652     -5450.3102     -519.88858      80237.588      43.131307      43.131307      43.131307      1.0397563     -666.76995     -1063.2773      1922.7599    
    146000   146000         335.4818       643.24176      7598.0727      6844.5738      7999.0602     -1154.4864      3001.1696      6173.129      -9556.9821     -68.448962     -3074.2525      7818.558      -5447.6594     -519.34468      80321.619      43.146359      43.146359      43.146359      1.0386685     -1160.8944      1464.4997      1626.12      
    147000   147000         336.11609      877.27394      7673.3472      6648.2876      8014.1839     -1365.8963      2939.8248      6150.9716     -9521.1305     -67.335141     -3234.7586      7818.4373     -5451.9058     -520.65511      80119.458      43.11013       43.11013       43.11013       1.0412893      1304.834       483.18587      843.80195    
    148000   148000         332.44053     -453.55505      6313.1546      6846.2733      7926.5456     -1080.2723      3022.8291      6246.3008     -9531.6925     -67.257941     -3130.8811      7828.637      -5448.2076     -517.57125      80596.838      43.195582      43.195582      43.195582      1.0351217     -432.63571     -247.61365     -680.41579    
    149000   149000         335.63904      402.80291      7106.3501      6635.9143      8002.8092     -1366.895       2978.9368      6058.4527     -9545.5357     -63.705155     -3182.5687      7834.048      -5446.5229     -520.90225      80081.447      43.103312      43.103312      43.103312      1.0417836     -391.05026     -22.395671      1621.8547    
    150000   150000         338.3351      -641.97835      6104.9386      6859.401       8067.0929     -1207.6919      2981.2851      6203.4164     -9574.5679     -66.889636     -3123.4077      7820.157      -5447.6851     -517.66262      80582.611      43.193041      43.193041      43.193041      1.0353044     -754.55057     -888.4892      -282.89528    
    151000   151000         331.19248     -154.4023       6471.7564      6653.7899      7896.7878     -1242.9978      2985.7346      6177.0297     -9541.2108     -65.859638     -3168.7521      7818.0601     -5447.9997     -516.01983      80839.152      43.238828      43.238828      43.238828      1.0320189     -552.83705      52.218606      37.411548    
    152000   152000         336.71495      103.06288      6941.8348      6819.9801      8028.4628     -1208.4827      3095.8033      6097.2373     -9559.8982     -67.906353     -3142.5066      7816.139      -5447.3512     -514.54568      81070.752      43.280081      43.280081      43.280081      1.0290707     -580.22686      705.33617      184.07934    
    153000   153000         334.52431     -505.68793      6111.0241      6706.1707      7976.2303     -1270.0596      3050.3163      6084.8112     -9489.3627     -68.92094      -3214.3966      7816.9375     -5449.4445     -516.91917      80698.508      43.213738      43.213738      43.213738      1.0338176     -428.29789      458.25046     -1547.0164    
    154000   154000         334.04243      249.24711      7088.1749      6794.4483      7964.7405     -1170.2922      3005.4166      6304.5793     -9568.8981     -69.521514     -3220.4974      7826.1478     -5447.5189     -516.23913      80804.812      43.232705      43.232705      43.232705      1.0324575      791.43137      708.98973     -752.67975    
    155000   155000         331.67207     -944.11505      5436.3808      6541.2956      7908.2228     -1366.9273      2991.2892      6112.8405     -9564.0958     -62.156351     -3229.6431      7831.7132     -5446.8748     -519.82861      80246.844      43.132966      43.132966      43.132966      1.0396363     -1127.5203     -1215.174      -489.65088    
    156000   156000         331.88889     -376.82527      6366.0725      6810.9788      7913.3927     -1102.4139      3054.1593      6186.4365     -9503.6263     -66.61615      -3154.5598      7825.668      -5443.8754     -515.27076      80956.671      43.259771      43.259771      43.259771      1.0305208      74.209007     -651.17866     -553.50617    
    157000   157000         331.50674      506.32351      7222.6607      6629.6269      7904.2809     -1274.654       2982.3818      6198.1398     -9570.2501     -70.318499     -3175.5571      7810.8657     -5449.9155     -519.41282      80311.082      43.144472      43.144472      43.144472      1.0388048      449.44731      479.1679       590.35532    
    158000   158000         337.61741     -1084.5924      5411.6563      6681.0052      8049.9805     -1368.9753      2962.0695      6129.8247     -9530.6694     -73.410069     -3213.5063      7809.3715     -5452.6552     -519.81591      80248.806      43.133317      43.133317      43.133317      1.0396109     -537.12625     -2822.4662      105.81522    
    159000   159000         328.1411      -91.269147      6260.0282      6367.4716      7824.0323     -1456.5607      2847.6802      6114.8963     -9553.67       -72.065997     -3143.0265      7798.8545     -5449.2291     -516.78288      80719.791      43.217537      43.217537      43.217537      1.033545       481.05245     -911.11026      156.25037    
    160000   160000         335.91241     -513.87937      6123.4582      6728.5869      8009.3274     -1280.7404      3093.883       6107.9858     -9529.9529     -68.695002     -3256.2488      7821.9636     -5449.6761     -516.62744      80744.077      43.22187       43.22187       43.22187       1.0332341     -1336.7146     -838.19489      633.27137    
    161000   161000         338.21586      98.798925      6783.0292      6666.6048      8064.2496     -1397.6448      2980.9028      6116.0308     -9599.1296     -69.64209      -3208.8868      7828.9417     -5445.8617     -516.26466      80800.815      43.231992      43.231992      43.231992      1.0325086      626.09571      290.73757     -620.43651    
    162000   162000         338.75346     -190.52976      6445.7449      6670.3142      8077.068      -1406.7538      2954.5585      6056.6317     -9563.4267     -67.283932     -3177.0599      7834.4754     -5444.6489     -516.15055      80818.679      43.235178      43.235178      43.235178      1.0322804      30.569109     -817.15945      215.00105    
    163000   163000         330.31103      395.66549      6908.7076      6443.4389      7875.7709     -1432.332       2964.6277      6027.0836     -9578.7907     -67.681356     -3164.6119      7837.9584     -5450.9178     -517.3546       80630.589      43.201611      43.201611      43.201611      1.0346884     -21.173102      1115.38        92.789611    
    164000   164000         334.81051     -1428.4114      4920.1942      6591.5526      7983.0543     -1391.5017      3045.445       6035.4374     -9602.4125     -65.072613     -3185.4643      7828.4265     -5447.8612     -519.93341      80230.67       43.130068      43.130068      43.130068      1.0398459     -2239.6544     -1453.7562     -591.82343    
    165000   165000         331.63275     -1961.1269      4172.4604      6493.6199      7907.2852     -1413.6654      3058.5543      6021.0053     -9609.6911     -66.828613     -3194.9535      7827.7231     -5449.4748     -514.00193      81156.516      43.295338      43.295338      43.295338      1.0279832     -3112.1768     -1233.0985     -1538.1054    
    166000   166000         334.99867     -669.71037      5801.3042      6585.0008      7987.5407     -1402.5399      2978.8973      6142.2634     -9589.6726     -70.453516     -3212.545       7806.036      -5457.0654     -519.87994      80238.922      43.131546      43.131546      43.131546      1.039739      -816.46725     -1133.3744     -59.289505    
    167000   167000         337.32113     -1295.2886      5105.2212      6630.4549      8042.9162     -1412.4613      3010.1798      6130.6444     -9635.7502     -69.820266     -3230.2628      7827.6096     -5445.0619     -516.64733      80740.968      43.221316      43.221316      43.221316      1.0332739     -109.14754     -1693.9819     -2082.7364    
    168000   168000         331.58792      1566.2762      8278.195       6437.858       7906.2164     -1468.3584      2941.9135      6072.4614     -9617.5079     -67.431697     -3162.5065      7818.5905     -5453.8777     -517.76779      80566.243      43.190116      43.190116      43.190116      1.0355148      807.91034      2997.0987      893.8197     
    169000   169000         336.57477      204.01587      6733.9382      6494.2945      8025.1204     -1530.8259      2925.4815      5974.901      -9571.6538     -65.854992     -3171.9926      7828.8873     -5450.5943     -517.91922      80542.687      43.185906      43.185906      43.185906      1.0358176      372.25132      970.07497     -730.27868    
    170000   170000         333.60859      511.14762      7201.3954      6597.8347      7954.3963     -1356.5616      2970.0263      6091.8682     -9601.3968     -66.104937     -3137.8915      7829.2224     -5442.2853     -515.2161       80965.26       43.261301      43.261301      43.261301      1.0304115      754.03723      393.54136      385.86426    
    171000   171000         333.89343      1188.0156      7955.8775      6559.455       7961.1879     -1401.7329      2921.2668      6154.2888     -9600.8436     -67.406232     -3200.6712      7832.7153     -5441.0826     -517.57029      80596.986      43.195609      43.195609      43.195609      1.0351198      1075.7204      2126.7477      361.57861    
    172000   172000         329.22053      313.14196      6791.6514      6424.2         7849.7695     -1425.5695      2937.5797      6093.2438     -9578.2727     -63.735713     -3188.754       7821.489      -5447.1196     -518.4482       80460.508      43.171214      43.171214      43.171214      1.0368756      158.49044      91.48417       689.45127    
    173000   173000         329.44301      278.83644      6875.9836      6548.3603      7855.0742     -1306.7139      2992.3811      6117.1225     -9616.6024     -67.015487     -3105.6014      7825.712      -5452.7102     -517.77234      80565.535      43.189989      43.189989      43.189989      1.0355239      45.075869      52.161107      739.27233    
    174000   174000         331.56766      127.75404      6721.4583      6571.3557      7905.7333     -1334.3776      2944.5449      6093.5759     -9502.4888     -68.598457     -3183.6345      7829.0696     -5446.8463     -517.78612      80563.392      43.189607      43.189607      43.189607      1.0355514      1635.2994     -460.15635     -791.8809     
    175000   175000         322.24165      1206.7996      7614.283       6203.9425      7683.3686     -1479.4261      2936.9438      5989.5988     -9589.7424     -63.430404     -3141.1755      7833.8115     -5445.4321     -520.56533      80133.277      43.112609      43.112609      43.112609      1.0411097      1765.0033      1438.9806      416.41508    
    176000   176000         332.64268      763.00519      7373.1684      6485.1978      7931.3655     -1446.1677      2998.9475      5981.232      -9554.4642     -68.764201     -3181.3228      7818.4006     -5440.1968     -522.74867      79798.588      43.052503      43.052503      43.052503      1.0454763      1065.1838     -490.88582      1714.7176    
    177000   177000         336.07044     -779.63366      5745.7943      6658.3236      8013.0954     -1354.7718      3026.7447      6071.1292     -9562.1122     -67.451099     -3211.3939      7833.2787     -5444.9672     -519.76591      80256.525      43.1347        43.1347        43.1347        1.0395109     -67.56137      -472.30865     -1799.031     
    178000   178000         333.21635     -506.00256      5985.2881      6575.9654      7945.0438     -1369.0785      3004.4071      6140.9023     -9553.2246     -67.343952     -3272.2243      7825.5083     -5447.1033     -521.15453      80042.681      43.096355      43.096355      43.096355      1.0422881     -510.78058      551.21555     -1558.4427    
    179000   179000         329.25086      1280.5388      7695.3813      6204.6116      7850.4927     -1645.8811      2896.0608      5888.5615     -9511.6623     -63.196443     -3241.1752      7833.7393     -5448.2088     -522.57213      79825.546      43.05735       43.05735       43.05735       1.0451233      1442.8813      2145.5784      253.15671    
    180000   180000         332.63768      315.99444      6817.2992      6448.2065      7931.2463     -1483.0398      3001.2265      6120.4414     -9613.1061     -68.434466     -3290.1077      7821.9834     -5455.0428     -520.84453      80090.322      43.104904      43.104904      43.104904      1.0416681      390.71872      1073.3322     -516.06764    
    181000   181000         333.34556      211.86006      6855.5873      6607.1585      7948.1247     -1340.9661      3007.9219      6142.8974     -9668.6205     -66.066931     -3142.264       7829.9823     -5444.8164     -518.81358      80403.843      43.161077      43.161077      43.161077      1.0376063     -171.31978      1190.5743     -383.67436    
    182000   182000         330.01328      249.16722      6736.3441      6443.0159      7868.6715     -1425.6556      2977.8437      6078.3819     -9630.7662     -66.640028     -3180.3682      7841.6071     -5445.7139     -516.77442      80721.112      43.217773      43.217773      43.217773      1.0335281      869.25172     -2195.3199      2073.5699    
    183000   183000         331.26025     -939.71772      5490.4585      6592.7653      7898.4036     -1305.6383      2992.8245      6128.5741     -9537.2021     -70.025758     -3240.2396      7860.425      -5439.9945     -518.63157      80432.06       43.166125      43.166125      43.166125      1.0372423     -130.89608     -2122.7112     -565.54589    
    184000   184000         329.57474      900.48562      7488.2166      6428.3584      7858.2153     -1429.8569      2906.988       6129.998      -9587.1483     -65.086329     -3194.2852      7825.2953     -5445.6182     -516.88393      80704.009      43.21472       43.21472       43.21472       1.0337471      144.65091      1450.2135      1106.5924    
    185000   185000         333.1111       992.46313      7804.5757      6646.0895      7942.5345     -1296.445       2991.0109      6154.8999     -9571.5729     -64.796958     -3190.5385      7829.1616     -5444.6091     -521.17978      80038.802      43.095659      43.095659      43.095659      1.0423386      1942.4459      585.05828      449.88518    
    186000   186000         328.91168     -1983.2501      4160.8577      6478.4927      7842.4055     -1363.9127      3016.2203      6099.9864     -9576.3603     -69.582194     -3234.1664      7843.175      -5443.1856     -520.59079      80129.359      43.111906      43.111906      43.111906      1.0411607     -2374.4856     -2137.7157     -1437.5492    
    187000   187000         333.46856      490.04997      7195.9413      6615.5842      7951.0575     -1335.4732      3035.0387      6077.9329     -9646.0512     -66.684111     -3125.6198      7834.6616     -5444.7513     -513.69951      81204.293      43.303832      43.303832      43.303832      1.0273784      630.03843      433.69965      406.41183    
    188000   188000         327.03662     -484.62733      5708.9278      6276.2062      7797.6976     -1521.4914      3002.0724      5894.4559     -9513.206      -62.069388     -3229.008       7832.1588     -5445.8952     -519.7275       80262.457      43.135763      43.135763      43.135763      1.0394341     -517.64865     -284.80394     -651.4294     
    189000   189000         334.23114     -12.263022      6452.2219      6466.6257      7969.2399     -1502.6142      2974.4         6006.6584     -9581.7185     -63.413464     -3214.4951      7824.9486     -5448.9943     -517.94602      80538.521      43.185162      43.185162      43.185162      1.0358712     -593.13555     -464.11         1020.4565    
    190000   190000         330.77013     -446.28422      5950.6719      6472.5289      7886.7175     -1414.1886      2935.1967      6228.7563     -9643.4151     -69.538658     -3245.565       7826.7026     -5446.3254     -520.26432      80179.639      43.120921      43.120921      43.120921      1.0405077     -1266.5823     -436.96082      364.6905     
    191000   191000         335.37939     -397.33579      5911.4963      6377.258       7996.6184     -1619.3604      2925.9427      5785.4174     -9492.7844     -65.155248     -3189.0304      7859.7686     -5443.5191     -518.98879      80376.699      43.156219      43.156219      43.156219      1.0379567     -638.03872      374.08511     -928.05377    
    192000   192000         336.93772     -957.12155      5522.1389      6646.6196      8033.7745     -1387.1548      3025.8673      6080.148      -9645.2946     -71.484168     -3198.7198      7864.3243     -5441.9958     -517.82036      80558.065      43.188655      43.188655      43.188655      1.0356199     -827.73234     -278.60743     -1765.0249    
    193000   193000         327.57902     -1690.1042      4357.8089      6349.3221      7810.6303     -1461.3082      2994.284       6134.4356     -9661.5613     -65.374206     -3267.3738      7849.1526     -5444.8711     -516.29074      80796.734      43.231264      43.231264      43.231264      1.0325607     -1081.1051     -2565.9397     -1423.268     
    194000   194000         332.68561     -803.03485      5671.4534      6615.4397      7932.3893     -1316.9496      3045.1236      6130.8014     -9625.1031     -72.245483     -3162.53        7813.9639     -5446.9598     -517.52666      80603.781      43.196823      43.196823      43.196823      1.0350325     -1468.4581     -16.28984      -924.35659    
    195000   195000         328.16861      314.58751      6716.6215      6347.1685      7824.6881     -1477.5196      2953.31        6078.9766     -9681.241      -68.46537      -3158.4141      7842.2425     -5443.9283     -518.01966      80527.071      43.183115      43.183115      43.183115      1.0360185     -744.96765      363.49072      1325.2395    
    196000   196000         331.60582      558.9024       7084.1655      6426.3399      7906.6433     -1480.3034      2854.371       6172.1589     -9629.5231     -66.388291     -3199.6242      7833.1257     -5444.4235     -516.87941      80704.716      43.214846      43.214846      43.214846      1.033738       710.56793     -393.29406      1359.4333    
    197000   197000         333.5828      -763.78404      5571.3578      6465.3473      7953.7813     -1488.434       2943.8541      5982.8519     -9525.6658     -65.548496     -3193.975       7822.4215     -5452.3722     -519.75925      80257.554      43.134885      43.134885      43.134885      1.0394976     -390.11416     -2125.8865      224.64858    
    198000   198000         326.25818      363.49716      6749.0475      6322.2247      7779.1367     -1456.912       2885.0296      6056.6217     -9557.1559     -66.463593     -3156.3708      7830.1546     -5448.7276     -518.1046       80513.869      43.180755      43.180755      43.180755      1.0361884      530.12629     -196.23336      756.59855    
    199000   199000         333.32009      1330.8595      7990.2414      6423.3543      7947.5174     -1524.1631      2880.298       6060.6302     -9641.8864     -65.494859     -3150.415       7838.4871     -5445.7822     -516.72388      80729.008      43.219182      43.219182      43.219182      1.033427       1110.9824      1580.2967      1301.2994    
    200000   200000         331.9466       1370.4137      7974.7587      6364.0479      7914.7685     -1550.7206      2925.1424      5920.6507     -9601.8484     -68.873847     -3117.3743      7835.9233     -5444.3406     -517.60463      80591.64       43.194654      43.194654      43.194654      1.0351885      2123.9342      375.22652      1612.0804    
    201000   201000         329.85727     -72.076729      6337.4819      6421.9559      7864.9517     -1442.9958      2946.9792      6039.2398     -9563.7063     -65.075479     -3182.6764      7830.2298     -5447.9865     -519.08182      80362.294      43.153641      43.153641      43.153641      1.0381428      1088.1722     -1096.9203     -207.48211    
    202000   202000         326.60775     -1846.0264      4115.5634      6273.6686      7787.4718     -1513.8033      2961.6749      5994.6418     -9534.7932     -59.71378      -3254.6837      7828.6201     -5449.5493     -520.39048      80160.201      43.117436      43.117436      43.117436      1.0407601     -726.0291      -3092.5767     -1719.4735    
    203000   203000         328.27423     -578.67392      5608.5039      6287.053       7827.2065     -1540.1535      2890.8536      5989.9996     -9596.0936     -66.10783      -3156.5043      7845.3384     -5447.6393     -518.81998      80402.851      43.160899      43.160899      43.160899      1.0376191      76.491755     -627.99275     -1184.5208    
    204000   204000         330.11523      29.384519      6485.6583      6451.3884      7871.1024     -1419.714       2986.4365      5980.1747     -9527.3065     -63.456795     -3182.458       7837.5991     -5450.703      -521.6394       79968.28       43.082998      43.082998      43.082998      1.0432578      1276.4979     -713.53856     -474.80576    
    205000   205000         329.94945     -1719.7157      4249.5256      6260.1271      7867.1497     -1607.0226      2891.9814      5969.6026     -9552.242      -62.841506     -3224.8992      7824.2643     -5452.8882     -520.34894      80166.601      43.118584      43.118584      43.118584      1.040677      -2022.4086     -1269.3845     -1867.3538    
    206000   206000         331.17797     -1388.2047      4814.7666      6444.7276      7896.4419     -1451.7143      2913.6238      6040.6112     -9503.6566     -65.678496     -3214.475       7826.1909     -5448.3302     -518.13189      80509.628      43.179997      43.179997      43.179997      1.036243      -2406.5475     -700.82835     -1057.2381    
    207000   207000         333.87882      779.2177       7271.842       6356.417       7960.8396     -1604.4225      2927.8448      5982.1539     -9603.6796     -65.542002     -3226.7266      7831.4179     -5449.8908     -517.84535      80554.176      43.18796       43.18796       43.18796       1.0356699     -388.87947      1821.529       905.00356    
    208000   208000         325.47306     -546.72716      5748.5446      6387.9218      7760.4169     -1372.4951      2953.6951      6076.3645     -9536.09       -67.273913     -3181.8225      7829.5906     -5446.9589     -520.20865      80188.221      43.12246       43.12246       43.12246       1.0403964      212.9466      -626.37149     -1226.7566    
    209000   209000         330.4225      -87.166208      6234.4464      6336.4559      7878.4288     -1541.973       2936.0553      6025.526      -9563.7935     -64.458335     -3234.5779      7812.2817     -5453.0061     -519.84243      80244.712      43.132584      43.132584      43.132584      1.039664      -478.99302      516.98315     -299.48876    
    210000   210000         327.33447      298.63191      6796.7818      6444.1272      7804.7992     -1360.672       2982.3469      6198.6787     -9636.631      -68.062158     -3222.0332      7831.8074     -5446.7787     -515.17017      80972.479      43.262586      43.262586      43.262586      1.0303196     -381.6144      -407.34349      1684.8536    
    211000   211000         329.29713      146.44114      6408.3939      6236.777       7851.5961     -1614.8191      2832.1177      5998.3599     -9606.8595     -68.994437     -3156.7442      7838.2715     -5450.9701     -519.11903      80356.534      43.15261       43.15261       43.15261       1.0382172     -282.42877      270.29952      451.45268    
    212000   212000         327.95713     -300.01357      5968.796       6321.2435      7819.6456     -1498.4021      2890.3287      6038.4585     -9579.3312     -66.888463     -3163.8023      7831.6672     -5448.8346     -517.85774      80552.249      43.187615      43.187615      43.187615      1.0356947     -442.17171      8.0294019     -465.89841    
    213000   213000         325.33301      1230.2047      7716.8881      6276.412       7757.0775     -1480.6655      2927.5806      6059.3743     -9597.5405     -65.330717     -3184.2392      7828.2454     -5448.7553     -519.55957      80288.399      43.14041       43.14041       43.14041       1.0390983      1274.6695      972.80268      1443.1418    
    214000   214000         332.15857     -858.14729      5537.3241      6547.7204      7919.8228     -1372.1024      2909.5272      6072.0438     -9469.8729     -65.671439     -3187.4583      7819.8857     -5450.5564     -516.69484      80733.544      43.219991      43.219991      43.219991      1.0333689      564.40837     -981.1094      -2157.7408    
    215000   215000         326.06494     -735.33708      5430.4545      6295.7735      7774.5293     -1478.7558      2908.2441      6057.794      -9601.8053     -67.379574     -3169.257       7839.3256     -5445.6776     -516.98059      80688.921      43.212027      43.212027      43.212027      1.0339404     -3.3053533     -1524.124      -678.58188    
    216000   216000         329.20352      141.16437      6594.205       6427.9524      7849.364      -1421.4115      2890.9535      6056.2607     -9542.395      -66.409167     -3169.1001      7851.3603     -5442.0817     -516.55987      80754.639      43.223755      43.223755      43.223755      1.033099      -237.54287     -1305.7606      1966.7966    
    217000   217000         330.78628     -490.17648      5933.4846      6512.2249      7887.1026     -1374.8777      2973.5053      6093.6424     -9564.9056     -68.058605     -3197.996       7833.9976     -5445.0627     -515.26754      80957.177      43.259861      43.259861      43.259861      1.0305144      728.47835      840.3459      -3039.3537    
    218000   218000         325.57463     -678.40295      5465.3921      6257.0702      7762.8385     -1505.7683      2947.7454      6052.8893     -9560.7129     -66.490498     -3256.5375      7819.1462     -5441.8084     -521.31853      80017.501      43.091836      43.091836      43.091836      1.0426161     -2147.5935     -836.48401      948.86868    
    219000   219000         327.2962       349.28443      6616.6987      6209.1108      7803.8869     -1594.7761      2937.4983      5986.4724     -9580.8691     -64.706352     -3254.4697      7828.0876     -5446.7893     -521.34116      80014.027      43.091212      43.091212      43.091212      1.0426614      7.977742       1012.5925      27.283035    
    220000   220000         328.58829      189.81291      6455.4791      6233.3168      7834.6949     -1601.3781      2842.5714      6058.5278     -9604.018      -66.167743     -3194.5961      7813.1582     -5450.8536     -519.77992      80254.361      43.134313      43.134313      43.134313      1.039539       923.27174      1179.8184     -1533.6514    
    221000   221000         330.32722     -173.28474      6085.4671      6286.648       7876.1569     -1589.5089      2911.6225      6070.4765     -9613.4641     -64.876153     -3250.4796      7809.0926     -5451.8806     -524.00767      79606.861      43.017995      43.017995      43.017995      1.0479943      99.922256      74.972876     -694.74935    
    222000   222000         329.94366     -323.73338      6009.5279      6387.1273      7867.0115     -1479.8842      2964.5062      5969.819      -9513.3149     -67.105516     -3208.4987      7825.5039     -5450.7943     -521.57926      79977.502      43.084654      43.084654      43.084654      1.0431376     -676.84003     -1203.0071      908.64705    
    223000   223000         331.46557      552.71735      7004.9526      6361.3277      7903.2991     -1541.9714      2940.3578      6083.5894     -9584.1948     -65.781364     -3304.9909      7843.4081     -5454.3598     -522.43745      79846.124      43.06105       43.06105       43.06105       1.0448539      935.43957      715.57774      7.134751     
    224000   224000         325.07263      36.037086      6273.9272      6232.0174      7750.8691     -1518.8517      2924.29        6018.3256     -9516.4627     -62.614984     -3261.698       7825.0218     -5445.7133     -523.11635      79742.501      43.042414      43.042414      43.042414      1.0462117      500.67677      648.45706     -1041.0226    
    225000   225000         326.6902      -1039.6947      4987.4815      6190.266       7789.4376     -1599.1716      2957.9475      5969.7166     -9582.2004     -63.659319     -3237.708       7809.3483     -5452.6163     -525.87444      79324.27       42.967033      42.967033      42.967033      1.0517277     -130.40227     -528.71014     -2459.9718    
    226000   226000         328.61084      274.58012      6595.8488      6273.8447      7835.2325     -1561.3879      2962.0672      6051.0445     -9622.4918     -61.289579     -3249.8795      7811.0663     -5451.905      -518.76614      80411.196      43.162392      43.162392      43.162392      1.0375114      502.58985      117.30651      203.844      
    227000   227000         326.46973     -339.72474      5770.3499      6168.3524      7784.1808     -1615.8284      2944.1222      5917.7949     -9552.4593     -66.898648     -3224.7243      7818.0595     -5451.7228     -519.28454      80330.922      43.148025      43.148025      43.148025      1.0385482     -762.41824      1346.6798     -1603.4358    
    228000   228000         325.29772      317.94325      6698.1249      6325.0416      7756.2362     -1431.1946      2936.7274      6027.3156     -9539.6338     -67.091526     -3147.5574      7812.7122     -5453.6669     -518.45109      80460.06       43.171133      43.171133      43.171133      1.0368813      2039.5094     -1583.2711      497.59152    
    229000   229000         327.83096      476.25009      6783.6104      6223.7067      7816.6374     -1592.9307      2956.4999      6018.4685     -9604.0452     -70.673869     -3262.3576      7820.2633     -5451.0857     -517.47075      80612.49       43.198379      43.198379      43.198379      1.0349207      314.70949      280.37879      833.66199    
    230000   230000         328.45984      688.55612      6978.6755      6169.1291      7831.6321     -1662.503       2854.6286      5970.6977     -9590.0154     -65.56752      -3174.751       7793.741      -5451.2362     -517.44196      80616.976      43.19918       43.19918       43.19918       1.0348631      377.72484      383.63376      1304.3098    
    231000   231000         329.68771      298.7213       6627.8631      6279.0013      7860.9088     -1581.9075      2897.2902      6029.694      -9612.5826     -63.37087      -3180.4752      7800.1466     -5452.6095     -520.92688      80077.66       43.102632      43.102632      43.102632      1.0418328      962.547       -890.94011      824.557      
    232000   232000         328.01017      811.0921       7200.8597      6256.4078      7820.9105     -1564.5026      2879.9122      6064.2692     -9554.7364     -65.582546     -3251.0985      7814.9105     -5452.177      -522.46159      79842.435      43.060387      43.060387      43.060387      1.0449022      165.80149      1432.5022      834.97264    
    233000   233000         326.78902      453.24868      6809.7812      6278.1013      7791.7938     -1513.6925      2952.8084      6066.6949     -9634.6682     -66.236825     -3218.0045      7829.8332     -5444.1194     -518.62133      80433.649      43.166409      43.166409      43.166409      1.0372218      1703.1085     -382.58442      39.221986    
    234000   234000         330.60088      25.50915       6292.0612      6262.2438      7882.6819     -1620.4381      2894.9931      5962.686      -9569.214      -64.875975     -3202.8902      7811.5757     -5452.7128     -520.46338      80148.974      43.115423      43.115423      43.115423      1.0409058     -327.5504       63.910326      340.16753    
    235000   235000         328.43126     -668.70925      5667.05        6448.3216      7830.9507     -1382.6291      3033.1528      6168.2202     -9585.5972     -68.859572     -3280.7812      7806.4346     -5455.1987     -520.71406      80110.39       43.108504      43.108504      43.108504      1.0414072     -572.5323      -1012.962      -420.63342    
    236000   236000         323.92603     -29.702014      6088.0081      6122.8888      7723.5302     -1600.6414      2923.9172      6040.6021     -9640.3856     -65.278766     -3200.543       7795.4256     -5454.379      -518.04104      80523.748      43.182521      43.182521      43.182521      1.0360613     -312.62515      1015.5235     -792.00441    
    237000   237000         325.53889     -89.026356      6072.8153      6177.0471      7761.9863     -1584.9392      2897.9788      6042.1999     -9551.1556     -63.399621     -3273.5444      7817.3521     -5454.3704     -519.6162       80279.649      43.138843      43.138843      43.138843      1.0392115      1035.5134     -1384.4653      81.872835    
    238000   238000         326.41784      81.807965      6444.737       6349.3073      7782.9436     -1433.6364      2907.7867      6238.2907     -9604.108      -70.997247     -3263.6327      7814.3592     -5455.3351     -521.52579      79985.701      43.086126      43.086126      43.086126      1.0430306      1088.1496     -1555.8031      713.07739    
    239000   239000         326.15389     -388.19475      5660.1655      6111.7076      7776.65       -1664.9425      2945.2524      5928.9573     -9567.6903     -66.470721     -3286.8965      7828.5671     -5446.6618     -523.01663      79757.704      43.045149      43.045149      43.045149      1.0460123     -1045.7359      1101.4459     -1220.2942    
    240000   240000         329.12097     -843.63982      5251.0957      6237.3756      7847.3957     -1610.0201      2964.0634      5977.4555     -9588.089      -67.273377     -3272.2237      7826.309      -5450.262      -520.38038      80161.757      43.117715      43.117715      43.117715      1.0407399     -656.12878     -293.44404     -1581.3466    
    241000   241000         325.78686      138.38147      6214.9549      6054.7711      7767.8989     -1713.1279      2910.204       5951.7871     -9637.3328     -62.58085      -3228.5157      7813.7427     -5460.4324     -525.56121      79371.546      42.975567      42.975567      42.975567      1.0511013     -44.164729     -311.39797      770.7071     
    242000   242000         326.10701     -663.87857      5448.03        6220.7964      7775.5323     -1554.7359      2959.2313      6071.3841     -9619.8132     -64.64121      -3264.7651      7817.113      -5453.2449     -522.64215      79814.852      43.055427      43.055427      43.055427      1.0452633     -484.38039     -1634.4554      127.20011    
    243000   243000         327.67349     -132.6621       5979.9364      6134.9821      7812.8828     -1677.9007      2950.5612      6084.002      -9702.8347     -69.58247      -3293.2364      7811.4061     -5458.2164     -520.53652      80137.712      43.113404      43.113404      43.113404      1.0410521      746.73409     -225.08308     -919.63731    
    244000   244000         327.72676     -713.61713      5336.9658      6170.163       7814.1528     -1643.9898      2963.447       5952.4838     -9651.4678     -60.550527     -3224.1125      7824.203      -5447.9928     -521.05252      80058.352      43.099168      43.099168      43.099168      1.0420841      55.950698     -1000.166      -1196.6361    
    245000   245000         326.10667     -658.19663      5469.914       6239.289       7775.5243     -1536.2352      2932.5219      6052.2435     -9576.424      -67.435527     -3254.6616      7824.8579     -5447.3374     -520.4531       80150.557      43.115707      43.115707      43.115707      1.0408853     -1209.4185     -608.18464     -156.9868     
    246000   246000         320.33081     -894.88521      5012.5533      6062.9986      7637.8075     -1574.8089      3020.7314      5959.9626     -9680.6175     -61.979164     -3203.0597      7835.0662     -5444.9127     -518.27221      80487.83       43.1761        43.1761        43.1761        1.0365236     -943.37586     -161.76944     -1579.5103    
    247000   247000         328.92548      77.207748      6258.6869      6168.7075      7842.7346     -1674.0271      2861.1355      6068.9961     -9619.3892     -62.818621     -3305.5091      7831.4118     -5447.8536     -522.01374      79910.934      43.072697      43.072697      43.072697      1.0440065      12.856958      406.32601     -187.55972    
    248000   248000         327.51519      490.14657      6698.0343      6125.5493      7809.1084     -1683.5591      2911.3304      5907.5624     -9640.9349     -66.447502     -3178.0499      7829.2176     -5446.2372     -520.86589      80087.037      43.104314      43.104314      43.104314      1.0417108     -980.87647      928.63772      1522.6785    
    249000   249000         322.79272     -1424.8395      4429.9918      6090.6551      7696.5081     -1605.853       2996.5712      6015.2131     -9619.7876     -70.3566       -3308.4267      7827.37       -5446.4364     -521.97344      79917.105      43.073806      43.073806      43.073806      1.0439259     -1506.0742     -1683.3199     -1085.1245    
    250000   250000         328.26102     -1021.6617      4961.2342      6156.855       7826.8915     -1670.0365      2912.1541      5912.1509     -9574.4273     -65.499062     -3232.5334      7828.7048     -5450.5865     -519.8496       80243.604      43.132385      43.132385      43.132385      1.0396783     -1036.1649     -1509.7284     -519.09192    
Loop time of 493.071 on 1 procs for 250000 steps with 8000 atoms

Performance: 43.807 ns/day, 0.548 hours/ns, 507.026 timesteps/s, 4.056 Matom-step/s
100.0% CPU use with 1 MPI tasks x 1 OpenMP threads

MPI task timing breakdown:
Section |  min time  |  avg time  |  max time  |%varavg| %total
---------------------------------------------------------------
Pair    | 65.716     | 65.716     | 65.716     |   0.0 | 13.33
Bond    | 54.958     | 54.958     | 54.958     |   0.0 | 11.15
Kspace  | 232.05     | 232.05     | 232.05     |   0.0 | 47.06
Neigh   | 43.935     | 43.935     | 43.935     |   0.0 |  8.91
Comm    | 6.9352     | 6.9352     | 6.9352     |   0.0 |  1.41
Output  | 2.7647     | 2.7647     | 2.7647     |   0.0 |  0.56
Modify  | 76.706     | 76.706     | 76.706     |   0.0 | 15.56
Other   |            | 10.01      |            |       |  2.03

Nlocal:           8000 ave        8000 max        8000 min
Histogram: 1 0 0 0 0 0 0 0 0 0
Nghost:          20815 ave       20815 max       20815 min
Histogram: 1 0 0 0 0 0 0 0 0 0
Neighs:              0 ave           0 max           0 min
Histogram: 1 0 0 0 0 0 0 0 0 0
FullNghs:  5.07519e+06 ave 5.07519e+06 max 5.07519e+06 min
Histogram: 1 0 0 0 0 0 0 0 0 0

Total # of neighbors = 5075192
Ave neighs/atom = 634.399
Ave special neighs/atom = 5.7025
Neighbor list builds = 8231
Dangerous builds = 0
System init for write_data ...
PPPM Kokkos initialization ...
  using 12-bit tables for long-range coulomb
  G vector (1/distance) = 0.29868746
  grid = 30 30 30
  stencil order = 5
  estimated absolute RMS force accuracy = 0.00037792053
  estimated relative force accuracy = 1.1380965e-06
  using double precision cuFFT
  3d grid and FFT values/proc = 50653 27000
Generated 10 of 10 mixed pair_coeff terms from sixthpower/sixthpower mixing rule
System init for write_restart ...
PPPM Kokkos initialization ...
  using 12-bit tables for long-range coulomb
  G vector (1/distance) = 0.29868746
  grid = 30 30 30
  stencil order = 5
  estimated absolute RMS force accuracy = 0.00037792053
  estimated relative force accuracy = 1.1380965e-06
  using double precision cuFFT
  3d grid and FFT values/proc = 50653 27000
Generated 10 of 10 mixed pair_coeff terms from sixthpower/sixthpower mixing rule
STAGE COMPLETE: NPT T=350.0->325.0K P=1.0->1.0atm steps=250000
