LAMMPS (22 Jul 2025 - Update 3)
KOKKOS mode with Kokkos version 4.6.2 is enabled
  will use up to 1 GPU(s) per node
  using 1 OpenMP thread(s) per MPI task
Reading data file ...
  orthogonal box = (4.2497223 4.2497223 4.2497223) to (47.955988 47.955988 47.955988)
  1 by 1 by 1 MPI processor grid
  reading atoms ...
  6500 atoms
  reading velocities ...
  6500 velocities
  scanning bonds ...
  4 = max bonds/atom
  scanning angles ...
  16 = max angles/atom
  scanning dihedrals ...
  38 = max dihedrals/atom
  scanning impropers ...
  12 = max impropers/atom
  orthogonal box = (4.2497223 4.2497223 4.2497223) to (47.955988 47.955988 47.955988)
  1 by 1 by 1 MPI processor grid
  reading bonds ...
  6970 bonds
  reading angles ...
  11760 angles
  reading dihedrals ...
  17500 dihedrals
  reading impropers ...
  4800 impropers
Finding 1-2 1-3 1-4 neighbors ...
  special bond factors lj:    0        0        1       
  special bond factors coul:  0        0        1       
     4 = max # of 1-2 neighbors
    10 = max # of 1-3 neighbors
    14 = max # of special neighbors
  special bonds CPU = 0.003 seconds
  read_data CPU = 0.248 seconds
PPPM Kokkos initialization ...
  using 12-bit tables for long-range coulomb
  G vector (1/distance) = 0.29737686
  grid = 30 30 30
  stencil order = 5
  estimated absolute RMS force accuracy = 0.00035241691
  estimated relative force accuracy = 1.0612931e-06
  using double precision cuFFT
  3d grid and FFT values/proc = 50653 27000
Generated 28 of 28 mixed pair_coeff terms from sixthpower/sixthpower mixing rule
Neighbor list info ...
  update: every = 1 steps, delay = 0 steps, check = yes
  max neighbors/atom: 4000, page size: 100000
  master list distance cutoff = 11.5
  ghost atom cutoff = 11.5
  binsize = 11.5, bins = 4 4 4
  1 neighbor lists, perpetual/occasional/extra = 1 0 0
  (1) pair lj/class2/coul/long/kk, perpetual
      attributes: full, newton off, kokkos_device
      pair build: full/bin/kk/device
      stencil: full/bin/3d
      bin: kk/device
Setting up Verlet run ...
  Unit style    : real
  Current step  : 0
  Time step     : 1
Per MPI rank memory allocation (min/avg/max) = 43.88 | 43.88 | 43.88 Mbytes
   Step          Time           Temp          Press         Enthalpy        TotEng         KinEng         PotEng         E_bond        E_angle        E_dihed        E_impro         E_vdwl         E_coul         E_long         E_tail         Volume           Lx             Ly             Lz          Density          Pxx            Pyy            Pzz      
         0   0              646.50779     -612.70295      28155.859      28901.89       12524.333      16377.557      5534.3994      4991.7607      4084.9905      522.53662      675.49593      4898.8039     -4330.4303     -471.72916      83489.353      43.706265      43.706265      43.706265      1.0566097     -1897.6642      1365.385      -1305.8297    
      1000   1000           650.03569     -1291.1228      27001.636      28545.951      12592.676      15953.275      5346.5268      5063.027       3997.9134      473.61547      499.93045      4903.9792     -4331.7176     -480.21012      82014.853      43.447438      43.447438      43.447438      1.0756059     -3502.2956      826.2519      -1197.3246    
      2000   2000           647.92039      671.08692      29545.047      28736.35       12551.698      16184.652      5577.0053      5102.4092      3874.1419      500.2157       551.90112      4905.7927     -4326.8138     -476.64287      82628.661      43.555557      43.555557      43.555557      1.0676158     -1117.4482      1424.3024      1706.4066    
      3000   3000           655.78203      1491.1155      30869.858      29066.558      12703.996      16362.562      5638.8734      5176.7088      3846.8599      505.31575      639.90498      4884.0713     -4329.1717     -474.94478      82924.088      43.607404      43.607404      43.607404      1.0638123      3035.158       2341.9235     -903.73506    
      4000   4000           640.72367     -1588.6773      26699.992      28626.782      12412.281      16214.5        5524.095       5056.8015      3979.9049      483.13276      614.39352      4885.17       -4328.9971     -473.58852      83161.565      43.648992      43.648992      43.648992      1.0607744     -1750.8235     -663.0977      -2352.1106    
      5000   5000           660.7428       1159.6915      30425.078      29034.786      12800.097      16234.688      5646.3082      5072.3131      3857.2435      493.23723      597.21746      4899.9622     -4331.5934     -479.11107      82202.991      43.480635      43.480635      43.480635      1.0731442      3072.9047     -734.92684      1141.0967    
      6000   6000           650.86639      386.7287       29340.947      28872.173      12608.769      16263.404      5615.0511      5029.0796      3893.6776      480.48771      687.38894      4891.8335     -4334.1143     -473.85147      83115.416      43.640916      43.640916      43.640916      1.0613634      199.9451      -766.04563      1726.2866    
      7000   7000           640.55483      936.2132       29447.248      28322.355      12409.01       15913.345      5498.1198      4810.0722      3986.0872      497.91539      543.1653       4909.0589     -4331.0742     -478.03869      82387.396      43.513123      43.513123      43.513123      1.0707422     -351.14181      776.93686      2382.8446    
      8000   8000           635.2132       1383.1943      30446.039      28777.921      12305.531      16472.39       5626.1943      5112.295       3989.3877      522.61679      658.97103      4894.8676     -4331.9421     -476.27331      82692.777      43.56682       43.56682       43.56682       1.066788       984.89661      2762.5523      402.13408    
      9000   9000           658.67416     -860.82243      27608.968      28649.025      12760.023      15889.002      5263.9272      5059.5208      3970.3608      478.10844      552.21903      4897.9279     -4333.0621     -475.39634      82845.322      43.593593      43.593593      43.593593      1.0648237     -184.44952     -1871.034      -526.98382    
     10000   10000          632.32292      1423.3854      30202.44       28486.048      12249.539      16236.509      5417.6508      5196.8397      3932.8269      475.35401      637.66484      4909.6629     -4333.4901     -476.32757      82683.356      43.565165      43.565165      43.565165      1.0669095      344.50731      3040.1344      885.51442    
     11000   11000          657.55677      2014.6223      31483.817      29026.968      12738.377      16288.591      5542.2502      5005.3974      4014.6775      478.91645      675.81566      4900.8494     -4329.3156     -470.99349      83619.76       43.729009      43.729009      43.729009      1.0549619      1415.6301      2761.4144      1866.8224    
     12000   12000          640.1011       504.41603      29200.847      28591.92       12400.221      16191.7        5575.5846      5019.349       3909.1405      473.08004      649.46751      4899.1586     -4334.0806     -475.79916      82775.183      43.581287      43.581287      43.581287      1.065726      -534.57097      1587.7583      460.06076    
     13000   13000          648.20722      868.44597      29643.956      28595.257      12557.255      16038.002      5553.5355      4942.5593      3879.9407      477.34513      599.59641      4911.7775     -4326.7525     -475.65429      82800.394      43.585711      43.585711      43.585711      1.0654015     -156.26751      1890.3797      871.22574    
     14000   14000          647.6085      -263.67596      28511.446      28831.768      12545.656      16286.112      5499.5735      5063.6412      4016.0095      506.27857      632.06523      4896.5061     -4327.9621     -472.80607      83299.189      43.673057      43.673057      43.673057      1.0590219     -1264.9397     -477.08156      950.99343    
     15000   15000          650.76813      1145.9632      29970.49       28594.596      12606.865      15987.731      5381.3676      5053.9437      3808.8552      484.85123      698.82925      4891.2222     -4331.3382     -478.39381      82326.238      43.502354      43.502354      43.502354      1.0715376      3442.1371     -1046.9782      1042.7306    
     16000   16000          659.48188      1730.8548      31066.178      28989.841      12775.671      16214.171      5533.5889      5106.5299      3884.5451      481.77603      640.82829      4903.5597     -4336.6574     -478.80935      82254.79       43.489766      43.489766      43.489766      1.0724684      2435.8312      330.58024      2426.1529    
     17000   17000          640.65978     -2084.8663      26146.092      28694.71       12411.044      16283.666      5519.5917      5094.387       4001.1804      481.31364      615.54461      4905.5322     -4333.8835     -469.86518      83820.561      43.763984      43.763984      43.763984      1.0524346     -3991.2277     -1627.938      -635.43312    
     18000   18000          648.92493     -1702.2204      26768.527      28870.695      12571.158      16299.536      5402.2476      5132.1683      4024.7532      481.64669      689.72267      4899.146      -4330.1484     -465.10194      84678.989      43.912877      43.912877      43.912877      1.0417657     -2816.5365     -1137.1562     -1152.9684    
     19000   19000          648.82611     -479.06365      28027.377      28616.086      12569.244      16046.842      5407.1601      4998.4956      3835.761       505.42401      719.00129      4907.0381     -4326.0382     -467.40388      84261.95       43.840668      43.840668      43.840668      1.0469217     -2044.0933     -1325.9114      1932.8138    
     20000   20000          637.76709     -2014.7762      26066.624      28543.477      12355.006      16188.471      5436.3535      5056.2569      4021.5328      486.69429      620.17011      4895.9604     -4328.4966     -467.22521      84294.173      43.846256      43.846256      43.846256      1.0465215     -2753.1161     -3243.1267     -48.085731    
     21000   21000          645.74127     -199.56517      28261.496      28503.123      12509.484      15993.64       5431.2259      4954.0019      3863.1957      484.70136      682.50826      4905.5565     -4327.5498     -474.39381      83020.397      43.62428       43.62428       43.62428       1.0625782     -2060.7769      886.95678      575.12464    
     22000   22000          650.54999     -160.89559      28572.482      28769.561      12602.639      16166.922      5471.1935      5044.0816      3907.9279      480.3457       691.87637      4898.2015     -4326.7046     -468.92474      83988.664      43.793221      43.793221      43.793221      1.0503282      1073.7972     -1846.7567      290.27264    
     23000   23000          646.54394      122.47101      28736.016      28585.683      12525.033      16060.65       5466.3129      5030.9621      3865.3805      477.1484       656.4597       4896.1364     -4331.7502     -467.92713      84167.726      43.824321      43.824321      43.824321      1.0480937     -349.00674      1219.9835     -503.56369    
     24000   24000          645.91699      393.68248      28779.168      28304.816      12512.888      15791.929      5250.6031      4939.1084      3920.4106      484.42597      622.24239      4906.2144     -4331.0761     -476.70017      82618.731      43.553812      43.553812      43.553812      1.0677441      438.85797      2056.5329     -1314.3435    
     25000   25000          650.12924      522.25668      29264.649      28629.347      12594.489      16034.858      5483.6169      5020.1993      3810.9999      478.0114       677.84177      4892.4914     -4328.3026     -472.17556      83410.422      43.692488      43.692488      43.692488      1.0576096      593.81686      635.08205      337.87112    
     26000   26000          647.47782     -648.43032      27896.856      28689.449      12543.125      16146.324      5524.5375      4988.587       3884.4026      480.51855      698.33097      4896.2768     -4326.3291     -469.90775      83812.966      43.762663      43.762663      43.762663      1.05253       -684.22091     -331.33784     -929.7322     
     27000   27000          644.58806     -389.457        27857.549      28324.375      12487.143      15837.232      5487.3039      4949.5986      3765.3556      472.95273      585.4355       4903.2701     -4326.6848     -479.18627      82190.09       43.47836       43.47836       43.47836       1.0733126     -1639.1553     -1118.5412      1589.3256    
     28000   28000          653.47954      656.42389      29631.968      28837.032      12659.392      16177.64       5602.8785      5076.6993      3819.1812      488.38484      629.00306      4890.2826     -4328.7896     -474.29855      83037.071      43.6272        43.6272        43.6272        1.0623648     -962.84219      2066.6157      865.4982     
     29000   29000          647.138       -46.556432      28391.046      28446.924      12536.541      15910.382      5456.4982      4973.397       3869.5803      479.92876      555.98625      4906.0246     -4331.0331     -478.57002      82295.926      43.497014      43.497014      43.497014      1.0719323     -94.094414     -381.56304      335.98816    
     30000   30000          654.23052      905.72432      29796.143      28718.536      12673.94       16044.596      5444.7993      5115.9044      3919.9278      495.06132      487.58706      4909.5079     -4328.1917     -482.76462      81580.881      43.37067       43.37067       43.37067       1.0813277      511.72546      3115.6697     -910.22225    
     31000   31000          629.35973      735.5278       29243.209      28349.98       12192.136      16157.844      5401.9877      4930.6506      4045.1191      513.90927      697.69828      4896.7439     -4328.2644     -472.97266      83269.849      43.667929      43.667929      43.667929      1.059395       2695.3359     -1629.3639      1140.6114    
     32000   32000          642.23308      1653.3056      30578.031      28571.531      12441.522      16130.009      5425.9586      5142.817       3808.1767      475.08098      712.90259      4895.3159     -4330.2428     -473.27501      83216.653      43.658628      43.658628      43.658628      1.0600722      795.94214      1836.6127      2327.3618    
     33000   33000          649.8254       915.53575      29983.352      28877.27       12588.603      16288.667      5460.3302      5198.4247      3972.1259      498.1993       592.21118      4899.059      -4331.683      -475.43121      82839.245      43.592527      43.592527      43.592527      1.0649018     -571.49502      1346.7205      1971.3818    
     34000   34000          640.40694     -351.07685      27956.831      28379.447      12406.145      15973.301      5317.8505      5014.4731      3930.8981      489.4764       680.37977      4877.5941     -4337.3709     -477.15212      82540.475      43.540056      43.540056      43.540056      1.0687564      453.11707     -1746.3271      239.97944    
     35000   35000          642.24121     -249.50172      28446.774      28749.831      12441.679      16308.152      5555.3288      5015.3006      3957.2057      491.94332      714.36387      4903.9168     -4329.9071     -472.877        83286.696      43.670873      43.670873      43.670873      1.0591807      2915.4133     -2402.9783     -1260.9401    
     36000   36000          646.5109      -1067.9518      27381.329      28670.904      12524.393      16146.511      5455.5266      5052.522       4014.2365      494.54868      556.35374      4903.423      -4330.0999     -475.66891      82797.849      43.585264      43.585264      43.585264      1.0654342     -1815.8746     -54.44827      -1333.5326    
     37000   37000          648.38943      0.088749312    28382.269      28382.162      12560.785      15821.378      5215.3893      5021.4881      3929.9797      490.38975      594.61434      4901.0959     -4331.5792     -476.73544      82612.617      43.552738      43.552738      43.552738      1.0678231      1786.1637      172.62828     -1958.5257    
     38000   38000          646.29586     -207.07654      28336.589      28584.041      12520.227      16063.814      5468.7055      4934.2422      3969.305       492.41037      639.6829       4892.2489     -4332.7812     -480.66211      81937.73       43.433815      43.433815      43.433815      1.0766183     -992.48312      285.79316      85.460325    
     39000   39000          659.58999      1508.649       30572.643      28791.911      12777.765      16014.146      5420.8442      5084.1697      3882.2111      482.42261      573.24571      4900.4704     -4329.2179     -486.61927      80934.654      43.255849      43.255849      43.255849      1.0899616      481.55917      2682.9818      1361.4061    
     40000   40000          647.23375     -390.97422      27946.568      28416.69       12538.396      15878.294      5465.3465      4924.0646      3878.921       490.49009      550.67169      4894.4801     -4325.68       -477.67958      82449.332      43.524025      43.524025      43.524025      1.0699379     -2498.6266      797.13763      528.56635    
     41000   41000          648.45443     -2316.4339      25866.148      28643.072      12562.044      16081.028      5545.6239      5017.3797      3948.0149      478.62538      517.66312      4900.7905     -4327.0691     -479.13245      82199.321      43.479988      43.479988      43.479988      1.0731921     -5239.5688     -1256.8729     -452.85998    
     42000   42000          656.35224      3134.1765      32407.749      28690.241      12715.042      15975.198      5445.9464      4981.4773      3857.0624      472.80706      652.75266      4900.7708     -4335.6184     -484.25171      81330.353      43.326229      43.326229      43.326229      1.0846585      3348.5807      3814.9746      2238.9744    
     43000   43000          630.44625     -1236.2191      26648.102      28133.868      12213.184      15920.684      5377.2472      5011.4937      3963.2853      485.76384      534.35124      4883.3696     -4334.8266     -477.90828      82409.877      43.517081      43.517081      43.517081      1.0704501     -1565.0977     -1190.2244     -953.33505    
     44000   44000          648.55879      630.35085      29191.232      28439.129      12564.065      15875.063      5335.027       4978.5521      3938.1224      484.32604      601.788        4877.9283     -4340.6807     -481.39844      81812.402      43.411659      43.411659      43.411659      1.0782676     -1753.7522      3136.1423      508.66239    
     45000   45000          651.229        692.17083      29609.37       28784.067      12615.793      16168.274      5505.8209      5111.172       3872.9002      492.52707      626.24023      4895.3762     -4335.7626     -481.72579      81756.806      43.401823      43.401823      43.401823      1.0790008     -43.047051      1336.397       783.1625     
     46000   46000          646.35178      50.093887      28516.374      28457.564      12521.311      15936.253      5518.5507      5020.063       3839.9707      489.22361      504.82951      4897.7193     -4334.1037     -489.24711      80499.939      43.178265      43.178265      43.178265      1.0958476     -1340.6731      797.65922      693.29552    
     47000   47000          638.86886      333.45012      29032.869      28631.564      12376.349      16255.215      5474.1667      5168.5954      3887.2161      482.11033      676.6972       4895.897      -4329.4682     -477.26039      82521.75       43.536764      43.536764      43.536764      1.0689989     -1432.7625      1777.7743      655.3385     
     48000   48000          643.41336      848.11206      29402.476      28394.356      12464.387      15929.969      5428.7181      4964.9949      3927.5464      479.83971      556.16984      4900.0085     -4327.3084     -483.21509      81504.828      43.357188      43.357188      43.357188      1.0823366     -268.40617      816.9624       1995.78      
     49000   49000          641.08031      745.74869      29400.288      28503.746      12419.19       16084.556      5403.9845      5053.8164      3918.5558      497.2678       649.1985       4893.8291     -4332.0959     -477.77325      82433.167      43.52118       43.52118       43.52118       1.0701477      128.05747      649.65127      1459.5373    
     50000   50000          650.54569      1107.112       29949.914      28609.474      12602.556      16006.918      5444.0306      5090.4336      3832.8111      475.45194      607.04677      4889.195      -4332.051      -474.39909      83019.473      43.624118      43.624118      43.624118      1.06259        1156.5245     -310.69125      2475.5027    
     51000   51000          646.48529     -1031.932       27217.946      28452.816      12523.897      15928.919      5439.4502      4873.4652      3987.6463      487.38873      575.27456      4898.6885     -4332.9945     -479.98702      82052.974      43.454168      43.454168      43.454168      1.0751062     -1943.1303     -635.14761     -517.51798    
     52000   52000          651.2099      -818.98599      27672.624      28652.745      12615.423      16037.321      5513.6217      5055.5089      3862.5373      500.42856      549.14055      4886.972      -4330.8876     -479.95049      82059.22       43.455271      43.455271      43.455271      1.0750244     -273.47296     -2140.0017     -43.483343    
     53000   53000          651.57995      1601.027       30367.747      28453.222      12622.592      15830.63       5405.8196      5159.6216      3706.8127      466.0377       531.93701      4894.3591     -4333.9581     -480.32728      81994.849      43.443905      43.443905      43.443905      1.0758683      40.034964      3869.0631      893.98287    
     54000   54000          634.29514     -32.190942      28268.771      28307.751      12287.746      16020.005      5347.9441      5015.1311      4033.7912      496.23565      573.06138      4881.8386     -4327.9967     -474.34517      83028.91       43.625771      43.625771      43.625771      1.0624692     -588.24845      764.24373     -272.56811    
     55000   55000          647.28935     -1584.3951      26666.794      28570.73       12539.473      16031.257      5536.9833      4884.0211      3912.121       473.70233      661.64851      4891.9319     -4329.1515     -477.98118      82397.309      43.514869      43.514869      43.514869      1.0706134     -2329.4925     -3192.2637      768.57079    
     56000   56000          651.25074      692.69042      29495.36       28664.393      12616.215      16048.179      5669.2307      5034.9028      3722.3376      474.20385      583.35475      4893.6657     -4329.5167     -478.80136      82256.162      43.490007      43.490007      43.490007      1.0724505      361.71155      2907.4035     -1191.0438    
     57000   57000          649.39741     -255.93155      28260.999      28569.761      12580.311      15989.45       5455.1585      5001.755       3890.963       478.15686      604.02221      4886.2851     -4326.8905     -476.10115      82722.68       43.572071      43.572071      43.572071      1.0664024     -1383.1658     -187.44317      802.81434    
     58000   58000          644.5503       512.41796      28969.974      28356.895      12486.412      15870.483      5328.1285      4956.3658      3934.1145      480.96403      589.94305      4907.0245     -4326.0573     -480.07323      82038.239      43.451567      43.451567      43.451567      1.0752993      532.82949      710.62489      293.7995     
     59000   59000          657.29439     -50.261872      28484.711      28545.208      12733.294      15811.914      5359.181       4979.5867      3850.1627      489.41861      574.58098      4885.9953     -4327.0109     -477.20257      82531.749      43.538522      43.538522      43.538522      1.0688694     -367.38605      1482.6466     -1266.0462    
     60000   60000          631.39882     -437.52363      27762.093      28287.354      12231.638      16055.717      5593.6944      5050.2023      3841.2939      487.70228      495.97545      4915.2252     -4328.3769     -478.43786      82318.659      43.501019      43.501019      43.501019      1.0716363     -763.50112     -47.271891     -501.79789    
     61000   61000          648.64565      2270.3462      31203.141      28472.497      12565.748      15906.749      5450.8834      5045.2489      3749.1228      452.71331      643.34932      4894.6082     -4329.1769     -477.55867      82470.207      43.527697      43.527697      43.527697      1.069667       3462.472       2104.8094      1243.7572    
     62000   62000          645.89759      288.53747      28834.602      28486.042      12512.512      15973.53       5422.0305      4977.1553      3901.4359      486.5818       632.06176      4886.5668     -4332.3019     -475.47111      82832.294      43.591307      43.591307      43.591307      1.0649912      458.09484      1157.7572     -750.23963    
     63000   63000          645.50549     -2993.1068      24987.104      28552.459      12504.916      16047.543      5458.6783      5089.7754      3952.0483      472.40804      515.15474      4891.1473     -4331.6691     -482.19109      81677.914      43.387858      43.387858      43.387858      1.080043      -4372.5675     -2431.991      -2174.762     
     64000   64000          647.22394      747.83941      29120.102      28227.624      12538.206      15689.417      5318.788       4915.3854      3830.4511      465.80468      588.63079      4907.6114     -4337.2541     -481.29387      81830.177      43.414802      43.414802      43.414802      1.0780334     -917.28067      3258.1567     -97.357802    
     65000   65000          638.06237     -25.736719      28263.6        28294.696      12360.726      15933.971      5314.7115      4867.8691      4013.4364      477.79298      705.36093      4886.3659     -4331.5663     -475.37932      82848.288      43.594113      43.594113      43.594113      1.0647856     -10.116421      395.69167     -462.78541    
     66000   66000          639.85252      296.42007      28958.086      28603.758      12395.405      16208.353      5539.9387      5034.9089      3867.4067      480.33802      709.65118      4908.8475     -4332.7381     -480.50923      81963.801      43.438421      43.438421      43.438421      1.0762759      1114.3576     -392.27362      167.17621    
     67000   67000          631.23691     -1866.0458      26199.538      28460.65       12228.501      16232.149      5535.3135      5111.468       3930.1625      480.41029      594.2459       4910.0075     -4329.4585     -474.0235       83085.253      43.635636      43.635636      43.635636      1.0617487     -2386.5334     -1311.471      -1900.133     
     68000   68000          638.68839     -152.69466      28010.865      28192.617      12372.853      15819.764      5309.8029      4998.1354      3887.5097      469.6033       580.28439      4902.0421     -4327.614      -482.55246      81616.748      43.377025      43.377025      43.377025      1.0808525     -1752.1409      964.47479      329.58216    
     69000   69000          638.52411     -362.40283      27729.035      28171.844      12369.671      15802.173      5366.9446      4833.5847      3896.0196      508.01545      627.60531      4896.6359     -4326.6322     -470.08355      83781.622      43.757206      43.757206      43.757206      1.0529238     -940.64603      54.960023     -201.52247    
     70000   70000          646.51322     -192.58897      28291.142      28522.311      12524.438      15997.873      5265.5864      5072.8781      4035.6685      505.95293      553.10884      4897.2869     -4332.6088     -478.52113      82304.334      43.498495      43.498495      43.498495      1.0718228      172.10076     -331.03109     -418.83657    
     71000   71000          641.34389     -800.59165      27367.22       28328.985      12424.296      15904.688      5317.8342      5116.979       3873.7332      472.29709      555.28899      4897.1111     -4328.5553     -478.12558      82372.423      43.510487      43.510487      43.510487      1.0709368     -2700.9524     -1049.8603      1349.0378    
     72000   72000          636.41837     -265.96938      27911.77       28226.495      12328.878      15897.618      5445.1111      5128.3204      3787.388       464.01383      510.47574      4890.3034     -4327.9949     -485.39956      81138.026      43.29205       43.29205       43.29205       1.0872296     -1047.2034      1689.4597     -1440.1645    
     73000   73000          640.66427      266.50491      28539.357      28221.237      12411.13       15810.107      5365.2715      5018.6088      3800.6826      480.65512      581.79457      4895.9559     -4332.8617     -481.18802      81848.178      43.417986      43.417986      43.417986      1.0777963      1352.2803      197.63911     -750.40468    
     74000   74000          635.41118     -1099.4745      26869.35       28184.026      12309.366      15874.66       5337.3142      5054.7335      3915.8161      480.57989      520.47341      4898.608      -4332.8649     -480.35912      81989.414      43.442945      43.442945      43.442945      1.0759397     -1600.9667     -1761.3848      63.928021    
     75000   75000          643.48683     -2477.8201      25395.159      28368.404      12465.81       15902.594      5328.2049      5064.1411      3946.0653      507.43452      488.2204       4899.7822     -4331.2548     -478.67296      82278.227      43.493896      43.493896      43.493896      1.0721629     -1729.4528     -3647.4587     -2056.5489    
     76000   76000          651.90207      78.842376      28698.276      28604.542      12628.832      15975.71       5468.3208      5003.7597      3910.6009      475.61878      543.90622      4899.9804     -4326.4771     -483.12725      81519.646      43.359816      43.359816      43.359816      1.0821399     -415.97811      2516.2948     -1863.7896    
     77000   77000          639.94561      2164.2631      30940.417      28317.032      12397.208      15919.824      5556.7639      4983.7693      3648.3916      484.21335      679.98149      4894.6916     -4327.9876     -473.85756      83114.348      43.640729      43.640729      43.640729      1.0613771      2047.9         1560.0585      2884.8309    
     78000   78000          637.87058     -278.48239      27893.789      28228.9        12357.01       15871.89       5378.1943      4951.6846      3833.7193      475.53445      655.87748      4905.2143     -4328.3343     -477.31865      82511.678      43.534992      43.534992      43.534992      1.0691294     -776.69864     -1156.7515      1098.003     
     79000   79000          654.30246     -52.179488      28479.365      28542.658      12675.333      15867.324      5377.427       4898.4029      3926.0218      481.69702      623.93337      4894.1718     -4334.3297     -473.53043      83171.766      43.650777      43.650777      43.650777      1.0606443      620.33249     -1278.4167      501.54576    
     80000   80000          639.80359      3.3486995      28358.732      28354.665      12394.457      15960.207      5392.584       4983.2868      3920.9857      462.81051      641.95085      4884.904      -4326.3146     -472.90185      83282.318      43.670108      43.670108      43.670108      1.0592364     -214.33563      364.01967     -139.63794    
     81000   81000          641.48921      1277.518       30125.558      28592.818      12427.111      16165.706      5607.0457      5126.5739      3758.5548      474.03863      636.03373      4891.6773     -4328.2179     -478.73818      82267.018      43.49192       43.49192       43.49192       1.072309       3277.531      -88.515795      643.53872    
     82000   82000          643.02506      920.40607      29558.385      28434.046      12456.864      15977.182      5494.8712      4912.5521      3859.0903      471.83127      681.43319      4888.6147     -4331.2112     -470.19911      83761.032      43.753622      43.753622      43.753622      1.0531826      140.25051      2390.7247      230.243      
     83000   83000          647.76239      560.6051       29177.388      28500.229      12548.637      15951.592      5436.0046      4958.295       3833.7875      477.1237       661.35244      4912.9859     -4327.957      -475.51747      82824.218      43.589891      43.589891      43.589891      1.065095       2353.2314      469.34871     -1140.7648    
     84000   84000          654.17004      133.48222      28858.034      28698.155      12672.768      16025.387      5506.683       4973.6062      3911.4536      466.55199      586.84412      4907.3511     -4327.1032     -479.54836      82128.032      43.467414      43.467414      43.467414      1.0741237      913.54179     -132.77219     -380.32294    
     85000   85000          639.19002     -961.16806      27029.461      28187.775      12382.571      15805.204      5373.2105      4940.7872      3878.1056      460.01503      583.5134       4895.8497     -4326.2775     -476.6204       82632.558      43.556242      43.556242      43.556242      1.0675654     -2533.5088      214.17989     -564.17523    
     86000   86000          636.33241     -726.39789      27460.308      28332.083      12327.213      16004.87       5459.2394      4917.9393      3942.4871      491.81435      629.84633      4891.8245     -4328.2807     -478.59719      82291.253      43.496191      43.496191      43.496191      1.0719932     -1563.5252     -849.53136      233.86284    
     87000   87000          643.70185      278.0049       28676.946      28345.86       12469.975      15875.884      5448.6213      4974.8934      3883.3692      464.89701      538.3662       4896.0861     -4330.3491     -482.29265      81660.715      43.384813      43.384813      43.384813      1.0802705     -266.75961     -515.49201      1616.2663    
     88000   88000          637.54304     -659.78693      27199.455      27998.112      12350.665      15647.447      5237.5471      4947.9381      3816.8843      455.58027      612.97087      4902.8423     -4326.3158     -474.50757      83000.493      43.620793      43.620793      43.620793      1.062833       954.51605     -1670.1008     -1263.7761    
     89000   89000          651.56055      1382.7125      30266.856      28612.255      12622.216      15990.038      5579.6626      5039.9035      3764.5551      488.21462      558.71778      4893.9822     -4334.9973     -479.99675      82051.311      43.453875      43.453875      43.453875      1.075128       1280.5165      1939.8896      927.73134    
     90000   90000          641.84301     -502.95965      27795.709      28395.49       12433.965      15961.525      5564.5723      4933.8452      3891.7289      492.00377      516.02615      4894.555      -4331.2063     -481.65919      81768.111      43.403823      43.403823      43.403823      1.0788517      927.93826      174.98972     -2611.8069    
     91000   91000          642.4469       2999.4455      31889.374      28281.375      12445.664      15835.711      5512.0302      5007.0384      3671.7662      464.63025      605.56554      4902.495      -4327.8144     -477.501        82480.167      43.52945       43.52945       43.52945       1.0695379      3451.3712      2979.8664      2567.0989    
     92000   92000          639.00723     -1227.2796      26529.988      27994.595      12379.03       15615.565      5254.5523      4919.1664      3857.9685      463.75557      577.32219      4878.1832     -4335.3835     -481.30693      81827.957      43.41441       43.41441       43.41441       1.0780626     -1474.5823     -1454.1299     -753.12653    
     93000   93000          638.35009     -676.75123      27524.63       28339.398      12366.3        15973.098      5446.4515      5076.6326      3886.5559      470.28862      514.16374      4908.1749     -4329.1692     -477.08422      82552.222      43.542122      43.542122      43.542122      1.0686043     -1342.9777      532.51794     -1219.7939    
     94000   94000          644.60152      555.1012       28840.188      28176.353      12487.404      15688.949      5263.4357      4962.6674      3873.7556      481.17704      545.75204      4889.4083     -4327.2472     -480.29899      81999.678      43.444758      43.444758      43.444758      1.075805       2183.1105     -628.76992      110.96304    
     95000   95000          640.0533       2153.8248      30897.323      28320.872      12399.295      15921.577      5271.2743      5113.4843      3871.6513      474.74404      633.82742      4888.904      -4332.3081     -480.16243      82023          43.448876      43.448876      43.448876      1.0754991      2962.3467      821.95753      2677.1701    
     96000   96000          650.34525     -432.75851      27952.719      28468.525      12598.673      15869.852      5405.052       4985.0403      3915.6047      489.55899      521.86906      4884.656      -4331.9288     -481.90202      81726.909      43.396532      43.396532      43.396532      1.0793956      319.13176     -2572.8857      955.47837    
     97000   97000          626.12424      1565.81        29943.081      28059.602      12129.457      15930.145      5484.4569      5067.4062      3758.4249      499.05388      527.29908      4917.032      -4323.5283     -477.50501      82479.476      43.529328      43.529328      43.529328      1.0695468      1757.7299      1453.5455      1486.1546    
     98000   98000          640.45094     -190.87627      27930.354      28155.896      12406.998      15748.898      5330.7909      4939.189       3914.0633      504.15466      511.25924      4884.5221     -4335.0809     -486.09802      81021.442      43.271305      43.271305      43.271305      1.088794      -1293.1999     -966.52871      1687.0998    
     99000   99000          654.33509      918.5083       29640.498      28536.519      12675.966      15860.554      5336.8294      5013.5036      3876.1742      475.5692       596.36928      4895.0028     -4332.8948     -477.88334      82414.178      43.517838      43.517838      43.517838      1.0703943      1926.6515     -604.71799      1433.5914    
    100000   100000         639.72753      265.51124      28685.208      28367.622      12392.984      15974.638      5444.7232      5009.4632      3909.5396      487.71441      556.44167      4898.5102     -4331.7543     -480.19897      82016.757      43.447774      43.447774      43.447774      1.075581       1050.4958      871.7818      -1125.7439    
    101000   101000         633.01528      1475.8682      29685.393      27936.558      12262.952      15673.605      5351.4208      5000.3726      3755.1619      468.81408      525.59617      4907.0153     -4334.7755     -484.72829      81250.39       43.312024      43.312024      43.312024      1.085726       3467.15       -596.44737      1556.9021    
    102000   102000         635.73759     -1705.2367      26153.718      28208.338      12315.689      15892.648      5383.1485      4971.7367      3934.2727      481.03036      581.70509      4878.2581     -4337.5034     -476.70862      82617.266      43.553555      43.553555      43.553555      1.067763      -1461.9079     -2412.0203     -1241.7819    
    103000   103000         640.78284     -633.94527      27660.699      28418.234      12413.428      16004.806      5424.1419      4993.4837      3996.6013      488.21577      540.04399      4897.2393     -4334.9199     -480.67237      81935.982      43.433506      43.433506      43.433506      1.0766413     -1517.0529     -75.534734     -309.24814    
    104000   104000         632.88695      417.27036      28578.294      28078.526      12260.466      15818.06       5218.9294      5059.2617      3923.4997      484.06921      576.67014      4888.7914     -4333.1618     -479.56636      82124.948      43.46687       43.46687       43.46687       1.074164       1783.6431     -168.35437     -363.4776     
    105000   105000         646.08229      201.71194      28639.917      28400.736      12516.09       15884.646      5386.9396      5019.0339      3910.2343      488.08697      516.02411      4901.451      -4337.1236     -484.40111      81305.268      43.321774      43.321774      43.321774      1.0849932      545.5845       284.31676     -224.76545    
    106000   106000         644.91981      1307.4803      30008.809      28452.56       12493.57       15958.989      5533.2816      5089.779       3781.9419      473.95612      524.24705      4891.0532     -4335.2693     -482.56486      81614.651      43.376653      43.376653      43.376653      1.0808802      2498.8409      710.3204       713.27957    
    107000   107000         634.70403      307.88597      28399.953      28035.457      12295.667      15739.79       5373.1801      4895.7329      3919.7652      475.71462      512.22878      4896.246      -4333.0776     -485.1729       81175.933      43.29879       43.29879       43.29879       1.0867219      1111.8116     -1811.2671      1623.1133    
    108000   108000         635.84891      745.67587      28925.655      28040.11       12317.846      15722.264      5356.847       4924.4002      3798.1257      474.65606      592.68126      4907.4392     -4331.8857     -483.65861      81430.087      43.343931      43.343931      43.343931      1.0833301      170.60322      218.7924       1847.632     
    109000   109000         650.54726      426.76937      28998.301      28491.22       12602.587      15888.633      5588.917       5045.711       3736.5347      462.52128      486.66971      4897.8252     -4329.5459     -483.40995      81471.973      43.351362      43.351362      43.351362      1.0827731     -105.90554      394.36372      991.84994    
    110000   110000         634.21941     -753.37838      27193.589      28087.76       12286.279      15801.482      5372.9932      4986.2195      3899.1236      482.31822      490.01493      4899.8071     -4328.9949     -483.94071      81382.62       43.335508      43.335508      43.335508      1.0839619     -258.61876     -261.25899     -1740.2574    
    111000   111000         645.62368     -903.67828      27167.122      28235.693      12507.206      15728.487      5342.1559      4930.4203      3900.3007      487.48339      504.224        4899.7319     -4335.8293     -485.74707      81079.98       43.281723      43.281723      43.281723      1.0880079     -547.19398     -2891.5438      727.70298    
    112000   112000         631.05637     -539.14585      27487.905      28129.822      12225.004      15904.818      5444.9609      4998.6021      3878.774       477.46682      539.93233      4898.4672     -4333.385      -482.42167      81638.875      43.380945      43.380945      43.380945      1.0805595     -1501.2876      294.35198     -410.50196    
    113000   113000         641.65717     -199.20168      28011.49       28248.831      12430.365      15818.466      5315.8279      4943.1423      3972.6694      490.60666      526.52872      4901.6665     -4331.9752     -482.07999      81696.738      43.391191      43.391191      43.391191      1.0797942     -1149.3507      108.02381      443.72186    
    114000   114000         639.29646     -734.46016      27288.921      28163.219      12384.633      15778.586      5360.9665      5057.4921      3874.3432      461.72111      445.62273      4907.0205     -4328.5804     -482.5126       81623.49       43.378219      43.378219      43.378219      1.0807632      172.32317     -1995.3061     -380.39757    
    115000   115000         642.3085      -708.69825      27358.111      28202.214      12442.983      15759.231      5527.5194      4977.0489      3706.3154      447.09676      529.24488      4901.3712     -4329.3652     -482.24265      81669.182      43.386312      43.386312      43.386312      1.0801585     -1495.1963      864.46251     -1495.361     
    116000   116000         640.95623      1236.1628      29785.262      28284.35       12416.786      15867.564      5416.2499      4932.9838      3786.8896      468.22804      683.39533      4907.9816     -4328.1644     -473.06436      83253.71       43.665107      43.665107      43.665107      1.0596004      1689.9827      677.65023      1340.8556    
    117000   117000         642.73202     -1262.9179      26639.064      28147.524      12451.188      15696.336      5424.3491      4753.1573      3959.8589      504.09385      501.49377      4886.6105     -4333.2273     -480.88481      81899.786      43.427109      43.427109      43.427109      1.0771171     -2959.5448     -1261.2097      432.00074    
    118000   118000         642.81129     -1358.1626      26867.965      28493.613      12452.723      16040.89       5411.1657      5119.8934      3969.9039      459.16059      506.30256      4899.3548     -4324.8909     -479.87155      82072.718      43.457653      43.457653      43.457653      1.0748476      671.78522     -2974.8116     -1771.4616    
    119000   119000         640.13404      1925.3151      30403          28069.339      12400.859      15668.48       5176.7617      5108.2327      3682.2819      458.0405       683.5862       4889.3182     -4329.7409     -473.87487      83111.314      43.640198      43.640198      43.640198      1.0614158      2600.614       1865.2404      1310.0908    
    120000   120000         643.31149     -555.06795      27587.354      28256.742      12462.413      15794.329      5378.954       4820.7017      3948.0887      475.80446      611.07416      4890.9308     -4331.225      -476.28596      82690.581      43.566434      43.566434      43.566434      1.0668163     -1915.9224      377.45874     -126.74023    
    121000   121000         649.05492     -1509.9475      26702.218      28545.204      12573.677      15971.528      5405.7419      4994.1823      3928.7037      467.95008      593.29617      4906.6963     -4325.0429     -470.58643      83692.091      43.741614      43.741614      43.741614      1.0540502     -1394.6175     -756.3121      -2378.913     
    122000   122000         645.72314      11.476283      28234.106      28220.366      12509.132      15711.234      5256.5792      4996.6319      3820.6934      464.03896      624.17552      4881.4105     -4332.2959     -479.76509      82090.93       43.460868      43.460868      43.460868      1.0746091     -330.48156     -35.525011      400.43542    
    123000   123000         630.90088      495.13887      28656.592      28048.406      12221.991      15826.415      5429.9953      4824.8582      3831.337       471.61502      694.15591      4903.8049     -4329.3516     -467.61725      84223.502      43.834         43.834         43.834         1.0473996      3037.1038      930.6694      -2482.3566    
    124000   124000         654.63031     -1761.9394      26522.157      28620.497      12681.685      15938.812      5246.0967      4986.0959      4118.2455      487.40236      524.34523      4906.8648     -4330.2385     -482.29727      81659.933      43.384674      43.384674      43.384674      1.0802809     -422.64537      52.001511     -4915.1742    
    125000   125000         638.48975     -2316.8552      25459.194      28267.976      12369.005      15898.971      5380.8494      4972.5774      3944.3604      467.9237       575.16118      4892.9576     -4334.8588     -473.78424      83127.211      43.642981      43.642981      43.642981      1.0612128     -2035.3817     -2820.1631     -2095.0207    
    126000   126000         636.6519       1294.4868      29638.572      28069.464      12333.402      15736.062      5359.8162      4925.0225      3761.7544      464.80037      666.32683      4887.0026     -4328.6609     -473.85391      83114.989      43.640842      43.640842      43.640842      1.0613689      2289.1595     -1105.5431      2699.8439    
    127000   127000         646.91516      808.27793      29159.187      28194.238      12532.224      15662.013      5394.4829      4899.0173      3747.8218      465.49312      590.30161      4895.7786     -4330.8821     -481.12298      81859.242      43.419942      43.419942      43.419942      1.0776506      1422.6267     -199.505        1201.7121    
    128000   128000         626.73095      2348.0806      30895.816      28056.932      12141.21       15915.722      5411.2839      5098.5693      3786.258       470.9485       597.04658      4888.1544     -4336.5385     -475.07822      82900.795      43.603321      43.603321      43.603321      1.0641112      411.30962      3045.4441      3587.4881    
    129000   129000         630.76834     -328.47233      27655.915      28053.636      12219.424      15834.212      5281.8909      5059.8954      3819.1175      444.94251      655.55505      4899.6625     -4326.852      -474.37343      83023.964      43.624904      43.624904      43.624904      1.0625325     -935.35019     -219.57579      169.509      
    130000   130000         635.29342      612.46823      28745.562      28007.625      12307.085      15700.541      5352.1874      4958.8028      3684.457       449.75598      676.58511      4906.1761     -4327.4239     -476.72062      82615.185      43.553189      43.553189      43.553189      1.0677899      1226.7526     -1199.5235      1810.1756    
    131000   131000         633.92664     -1974.9603      25651.652      28054.241      12280.607      15773.634      5319.9366      4911.2715      3899.604       483.55269      604.81708      4884.4649     -4330.0128     -472.14842      83415.216      43.693325      43.693325      43.693325      1.0575488     -744.94421     -3146.0843     -2033.8525    
    132000   132000         644.83259     -1671.7448      26282.734      28283.779      12491.88       15791.898      5213.669       4995.4394      3948.2869      477.90461      584.46759      4902.4428     -4330.3121     -479.85823      82074.996      43.458055      43.458055      43.458055      1.0748177     -671.25104     -1559.0595     -2784.9239    
    133000   133000         629.96819      92.782988      28087.339      27975.455      12203.923      15771.532      5325.1898      5023.6423      3725.4794      463.67762      656.53228      4907.4944     -4330.4838     -476.32345      82684.073      43.565291      43.565291      43.565291      1.0669003      650.42337     -1925.4527      1553.3783    
    134000   134000         638.71877     -1312.6445      26624.01       28221.593      12373.442      15848.151      5358.6533      4915.518       3913.7796      477.96234      608.15533      4903.8456     -4329.7634     -471.93638      83452.695      43.699868      43.699868      43.699868      1.0570739     -56.232955     -2102.8427     -1778.8578    
    135000   135000         631.53676     -400.01295      27620.844      28098.171      12234.31       15863.861      5280.6871      4981.2392      3979.5808      484.37937      560.92929      4906.6702     -4329.625      -481.34656      81821.219      43.413218      43.413218      43.413218      1.0781514     -522.76248     -1179.2453      501.96889    
    136000   136000         648.34764      1832.0235      30641.203      28475.156      12559.975      15915.181      5373.3783      5136.4903      3772.7644      464.20819      602.40677      4895.4364     -4329.5033     -485.80588      81070.164      43.279977      43.279977      43.279977      1.0881397      1205.3068      2183.5967      2107.1669    
    137000   137000         634.54483      453.49468      28736.773      28190.2        12292.583      15897.617      5173.4047      5012.7527      3871.4619      476.28444      805.04605      4889.0365     -4330.3696     -476.56686      82641.841      43.557873      43.557873      43.557873      1.0674455      332.98535      291.31095      736.18772    
    138000   138000         630.22722      898.1279       29091.483      28010.161      12208.941      15801.22       5358.2026      4933.5241      3802.4742      463.12666      672.11474      4899.4943     -4327.7167     -477.07071      82554.561      43.542533      43.542533      43.542533      1.0685741      1955.1282      578.21527      161.04027    
    139000   139000         645.11552      74.740229      28184.508      28094.39       12497.361      15597.029      5208.234       4977.4997      3785.1863      478.70407      594.61406      4883.7703     -4330.9798     -476.37059      82675.89       43.563854      43.563854      43.563854      1.0670059      1443.0319      570.92482     -1789.736     
    140000   140000         632.82449     -1228.9755      26533.311      28008.172      12259.256      15748.916      5242.6485      4958.0912      3848.2317      494.18521      634.02026      4902.6375     -4330.8981     -478.62085      82287.185      43.495474      43.495474      43.495474      1.0720462     -1011.1096     -2258.8044     -417.01246    
    141000   141000         635.79156     -1824.1414      25612.509      27813.941      12316.735      15497.206      5204.6657      4888.2572      3814.9279      450.64632      578.57442      4890.3678     -4330.2333     -475.94066      82750.573      43.576967      43.576967      43.576967      1.0660429     -736.85988     -196.45047     -4539.1139    
    142000   142000         628.98642      638.46045      28637.471      27879.557      12184.904      15694.653      5292.1536      4959.865       3842.3145      484.97463      558.42858      4890.4942     -4333.5771     -483.85371      81397.252      43.338105      43.338105      43.338105      1.0837671      1931.7023     -494.05243      477.73147    
    143000   143000         634.15786     -127.20119      28205.901      28360.242      12285.087      16075.155      5364.589       5036.5414      3977.2604      505.49954      615.20329      4904.4296     -4328.368      -473.38136      83197.959      43.655358      43.655358      43.655358      1.0603104      409.996        1347.777      -2139.3765    
    144000   144000         628.66433      668.33414      28928.989      28119.587      12178.664      15940.923      5479.6905      5089.8799      3707.9469      464.38426      627.33027      4905.5633     -4333.8725     -474.27375      83041.413      43.62796       43.62796       43.62796       1.0623093      26.624085      2111.1621     -132.78379    
    145000   145000         642.85439      595.0098       29167.831      28449.254      12453.558      15995.695      5393.0292      4981.858       3814.1739      485.24078      768.55389      4887.944      -4335.1043     -475.60908      82808.265      43.587092      43.587092      43.587092      1.0653002     -2007.0722      1427.0015      2365.1001    
    146000   146000         640.27845      1380.9496      29799.867      28132.798      12403.656      15729.141      5355.7037      4887.0124      3802.4196      459.643        634.5554       4920.2868     -4330.4796     -475.79941      82775.139      43.581279      43.581279      43.581279      1.0657265     -150.15514      1227.7402      3065.2636    
    147000   147000         642.54819     -951.05085      27009.622      28157.662      12447.626      15710.036      5293.9629      4995.7611      3772.7315      454.9729       627.0954       4896.0861     -4330.5744     -475.8243       82770.809      43.580519      43.580519      43.580519      1.0657823      1128.4886     -1886.8588     -2094.7823    
    148000   148000         627.97779      1656.5821      29815.31       27858.799      12165.364      15693.435      5369.9931      4887.8268      3788.5241      489.55982      593.6202       4899.3612     -4335.4505     -486.32917      80982.933      43.264448      43.264448      43.264448      1.0893118      398.41851      2735.8311      1835.4967    
    149000   149000         632.09612     -687.17367      27231.413      28061.018      12245.146      15815.872      5273.2234      4986.5693      3859.3587      457.37492      656.2835       4908.3583     -4325.296      -475.76769      82780.658      43.582248      43.582248      43.582248      1.0656555      373.03872     -292.25482     -2142.3049    
    150000   150000         629.80439     -1462.0336      26599.013      28355.919      12200.75       16155.169      5471.8534      5012.3196      4036.9693      490.74943      566.34783      4905.5041     -4328.5746     -477.97865      82397.744      43.514945      43.514945      43.514945      1.0706077     -660.22997     -1955.7525     -1770.1183    
    151000   151000         628.0495      -1081.4957      26652.855      27956.202      12166.754      15789.448      5324.4793      4998.2669      3800.094       452.88494      637.82694      4899.0697     -4323.1738     -476.61145      82634.109      43.556514      43.556514      43.556514      1.0675454     -2197.7615     -1541.0833      494.35751    
    152000   152000         630.34344      852.68595      28947.294      27932.528      12211.193      15721.335      5337.6168      4953.0724      3744.1907      471.02899      641.72863      4904.9051     -4331.2077     -482.6395       81602.029      43.374417      43.374417      43.374417      1.0810474     -45.370446      1444.0971      1159.3312    
    153000   153000         627.99761     -333.24931      27682.181      28082.8        12165.748      15917.052      5403.6042      4946.3435      3917.5422      472.48147      600.33162      4905.6233     -4328.8742     -477.79036      82430.216      43.520661      43.520661      43.520661      1.070186      -481.20637     -1012.2797      493.73814    
    154000   154000         638.03052     -974.24518      27182.795      28375.539      12360.109      16015.43       5508.0955      4908.5411      3922.7005      467.76229      641.69723      4898.5734     -4331.9403     -469.16006      83946.538      43.785898      43.785898      43.785898      1.0508553     -1380.759      -984.78756     -557.18897    
    155000   155000         640.01334     -2167.4866      25508.662      28146.699      12398.521      15748.179      5347.4417      4919.8414      3945.762       464.24582      495.98359      4905.2003     -4330.2959     -471.92732      83454.296      43.700147      43.700147      43.700147      1.0570536     -2048.6725     -3227.9847     -1225.8026    
    156000   156000         629.83065      2359.7805      30466.027      27643.246      12201.259      15441.988      5213.3989      4934.7873      3682.9555      472.59527      566.51214      4902.5503     -4330.8114     -480.16902      82021.873      43.448677      43.448677      43.448677      1.0755139      1463.7549      2674.4295      2941.1572    
    157000   157000         632.83015      933.52761      29053.53       27920.772      12259.366      15661.407      5296.3996      4975.897       3634.1157      470.13859      693.15623      4920.6629     -4328.9634     -473.35825      83202.021      43.656069      43.656069      43.656069      1.0602587      1080.0294      448.03899      1272.5144    
    158000   158000         642.24221     -950.65134      27264.259      28395.925      12441.699      15954.227      5375.745       5015.1077      3979.6961      464.6394       561.04968      4892.4219     -4334.433      -482.5057       81624.657      43.378426      43.378426      43.378426      1.0807477     -724.67063     -1336.0752     -791.2082     
    159000   159000         625.65154     -2527.1932      24865.109      27940.356      12120.3        15820.056      5332.4693      5002.8092      3813.2009      474.66322      629.76866      4900.5566     -4333.4119     -472.01762      83438.331      43.69736       43.69736       43.69736       1.0572558     -763.85732     -3834.8358     -2982.8865    
    160000   160000         637.24882     -1837.8637      25873.248      28091.756      12344.965      15746.791      5383.5008      4848.1764      3904.9946      486.58113      562.08804      4891.7815     -4330.3315     -475.83015      82769.792      43.580341      43.580341      43.580341      1.0657954     -846.85306     -1577.0137     -3089.7244    
    161000   161000         628.69031     -298.37222      27747.194      28108.659      12179.168      15929.491      5402.3921      4905.982       3974.608       474.39452      587.4455       4914.5756     -4329.9063     -474.12439      83067.574      43.632541      43.632541      43.632541      1.0619747      678.1789      -699.94851     -873.34705    
    162000   162000         624.99987      1764.9522      30025.125      27879.493      12107.675      15771.818      5443.8956      5014.2928      3630.7669      455.93218      645.32161      4909.8379     -4328.2295     -472.47347      83357.828      43.683302      43.683302      43.683302      1.0582769      1163.9336      2013.6802      2117.2428    
    163000   163000         632.35339      200.10421      28303.291      28060.912      12250.13       15810.782      5239.9902      4912.9324      3962.4901      482.46221      648.94675      4892.9588     -4328.998      -474.20046      83054.248      43.630208      43.630208      43.630208      1.0621451     -351.61099      2194.3119     -1242.3882    
    164000   164000         636.57847     -819.41473      27055.75       28040.717      12331.979      15708.738      5214.3078      4964.8743      3887.814       481.54762      580.17441      4911.2502     -4331.2305     -477.83927      82421.778      43.519176      43.519176      43.519176      1.0702955     -2365.4085      62.202843     -155.03853    
    165000   165000         626.33391      1127.0352      29216.166      27869.003      12133.519      15735.484      5396.6894      5000.1586      3741.9898      459.95465      552.15164      4913.4918     -4328.9518     -480.52608      81960.926      43.437913      43.437913      43.437913      1.0763136      1115.1636      1196.6056      1069.3364    
    166000   166000         639.68678     -1031.1952      26817.653      28057.302      12392.194      15665.108      5291.3357      5080.3227      3654.5908      443.71489      623.50487      4898.2426     -4326.6034     -477.7951       82429.397      43.520517      43.520517      43.520517      1.0701966     -797.52918     -803.58925     -1492.4672    
    167000   167000         634.37622      847.9513       29156.795      28136.059      12289.317      15846.743      5366.6141      4991.7872      3818.4621      470.77526      628.6587       4901.0946     -4330.6492     -477.15258      82540.396      43.540043      43.540043      43.540043      1.0687574      784.74345     -124.28797      1883.3984    
    168000   168000         626.48796     -699.59147      26846.136      27684.992      12136.503      15548.489      5204.1079      4961.3449      3849.1208      461.90217      500.54427      4897.4809     -4326.0117     -479.02332      82218.048      43.483289      43.483289      43.483289      1.0729477      415.06095     -347.61573     -2166.2196    
    169000   169000         632.37104      1112.9122      29325.749      27974.364      12250.472      15723.892      5383.0359      4917.6765      3703.6869      481.0202       667.11219      4897.43       -4326.0699     -473.02213      83261.141      43.666406      43.666406      43.666406      1.0595058      1828.6137     -260.87518      1770.998     
    170000   170000         641.96663      406.42469      28589.539      28102.019      12436.36       15665.658      5417.9811      4902.2391      3753.6937      452.087        568.12968      4901.5117     -4329.984      -478.83632      82250.158      43.488949      43.488949      43.488949      1.0725288      58.951188      1296.4011     -136.0782     
    171000   171000         636.04651     -66.787916      28033.251      28113.689      12321.674      15792.015      5343.9607      5024.6221      3840.5951      482.95488      530.6564       4899.9567     -4330.7312     -476.91317      82581.83       43.547327      43.547327      43.547327      1.0682212     -975.78753      1814.0651     -1038.6413    
    172000   172000         627.84812      282.80498      28096.526      27763.546      12162.852      15600.693      5401.9302      4866.4762      3767.8541      464.56401      522.15429      4908.6651     -4330.9507     -487.82989      80733.804      43.220038      43.220038      43.220038      1.0926732     -1489.2934     -45.982815      2383.6911    
    173000   173000         640.68316     -211.21623      28017.064      28269.249      12411.496      15857.752      5264.053       5080.3603      3890.5002      500.33684      550.05519      4904.3178     -4331.8709     -481.06989      81868.277      43.421539      43.421539      43.421539      1.0775317     -363.49088      2077.6606     -2347.8184    
    174000   174000         628.96742     -826.60932      26785.876      27761.224      12184.536      15576.688      5309.7355      4994.9089      3802.6653      459.77553      447.66665      4897.3264     -4335.3906     -486.78866      80906.491      43.250831      43.250831      43.250831      1.090341      -899.53862     -918.25041     -662.03892    
    175000   175000         638.45993      1418.6446      30041.073      28343.376      12368.427      15974.948      5492.7194      4921.3874      3867.1607      472.2603       656.46147      4895.6935     -4330.7345     -479.969        82056.054      43.454712      43.454712      43.454712      1.0750659      171.55611      2344.3289      1740.0489    
    176000   176000         640.26584      1543.5013      29910.545      28033.254      12403.412      15629.842      5453.7973      4820.071       3637.0155      470.55746      694.92537      4889.5687     -4336.0929     -472.25346      83396.663      43.690085      43.690085      43.690085      1.0577841      1973.4612      2649.714       7.3285467    
    177000   177000         630.40869      540.23063      28718.628      28066.365      12212.456      15853.909      5379.5433      5038.6354      3873.9981      461.14749      553.7992       4885.271      -4338.4855     -475.72578      82787.951      43.583528      43.583528      43.583528      1.0655616      2300.5805     -341.97184     -337.91679    
    178000   178000         637.79281      697.92476      28746.792      27904.012      12355.504      15548.509      5277.9172      4939.2389      3692.0672      468.29694      593.76595      4908.6957     -4331.4732     -475.65724      82799.881      43.585621      43.585621      43.585621      1.0654081     -1296.8736      601.0006       2789.6472    
    179000   179000         631.62323     -740.21967      27304.95       28196.81       12235.985      15960.825      5442.6825      5035.7456      3843.9942      471.06713      618.01732      4882.2812     -4332.9625     -476.72         82615.293      43.553208      43.553208      43.553208      1.0677885     -1275.4445     -897.14185     -48.072657    
    180000   180000         626.63627     -1417.462       26270.079      27963.961      12139.376      15824.584      5184.7365      4984.3067      4061.5186      491.41248      540.71461      4894.4107     -4332.5152     -480.64889      81939.985      43.434213      43.434213      43.434213      1.0765887     -1995.1523     -1379.7216     -877.51216    
    181000   181000         645.02252     -739.78951      27645.825      28538.772      12495.56       16043.212      5362.743       4982.4743      4011.2305      497.05846      626.42044      4892.0171     -4328.7315     -475.86303      82764.072      43.579337      43.579337      43.579337      1.065869      -1374.4868     -1193.373       348.49127    
    182000   182000         631.85093      98.518963      28036.422      27917.037      12240.396      15676.641      5242.3064      4980.1769      3808.1662      460.43608      620.69622      4898.909      -4334.05       -473.99087      83090.973      43.636638      43.636638      43.636638      1.0616756      1214.6421     -1671.6068      752.52152    
    183000   183000         632.46126      250.09592      28361.364      28060.109      12252.219      15807.889      5247.3792      4987.1262      3821.0698      462.84202      718.3142       4902.3933     -4331.2355     -476.83803      82594.844      43.549614      43.549614      43.549614      1.0680529     -1458.0839      1842.2531      366.11858    
    184000   184000         629.42572      613.42879      28545.024      27804.97       12193.414      15611.556      5244.8284      4875.7022      3858.0997      461.24041      614.13324      4890.9136     -4333.3613     -476.1024       82722.462      43.572032      43.572032      43.572032      1.0664052      48.188281      1450.241       341.85706    
    185000   185000         632.06743     -668.34819      27077.604      27889.044      12244.59       15644.453      5224.5133      5064.55        3765.4779      455.93199      550.54239      4912.1931     -4328.7552     -473.093        83248.669      43.664226      43.664226      43.664226      1.0596645     -458.68919      7.1436217     -1553.499     
    186000   186000         624.48832      814.0312       28707.013      27742.953      12097.766      15645.188      5348.5455      4935.2344      3772.1023      465.68523      546.343        4909.1661     -4331.8887     -484.99459      81205.778      43.304096      43.304096      43.304096      1.0863225      808.18578     -415.58001      2049.4879    
    187000   187000         626.09591     -1671.7534      26055.459      28091.33       12128.908      15962.421      5429.8127      4934.8124      3952.8671      470.87046      603.9197       4902.35       -4332.2109     -471.65206      83503          43.708647      43.708647      43.708647      1.056437      -923.3422      -2793.0218     -1298.8963    
    188000   188000         627.25245     -49.800035      27821.905      27881.883      12151.313      15730.57       5197.7337      4988.5018      3846.4362      459.35405      687.21611      4886.9992     -4335.6712     -476.91406      82581.677      43.5473        43.5473        43.5473        1.0682232     -651.05193      306.09442      195.55741    
    189000   189000         647.57057     -1669.9585      26543.642      28544.124      12544.921      15999.203      5495.0822      4899.3874      3958.8286      455.50974      629.25627      4894.1186     -4332.9803     -479.48041      82139.67       43.469467      43.469467      43.469467      1.0739715     -2045.0995     -2291.29       -673.48617    
    190000   190000         635.30989     -847.48502      26920.018      27934.045      12307.404      15626.641      5472.9884      4829.8956      3746.052       478.67936      539.29425      4894.9773     -4335.2462     -480.04541      82042.994      43.452406      43.452406      43.452406      1.075237      -3966.4931      2726.5334     -1302.4954    
    191000   191000         637.63018      1313.9058      29586.898      28023.454      12352.353      15671.101      5363.5473      4925.4555      3766.242       478.46489      577.93122      4897.6823     -4338.222      -482.70492      81590.97       43.372458      43.372458      43.372458      1.0811939      1881.3041      759.32215      1301.0911    
    192000   192000         624.63997     -1275.4913      26230.263      27778.807      12100.703      15678.104      5275.2869      4961.6874      3797.8552      460.21998      624.44164      4895.2506     -4336.6373     -473.10078      83247.3        43.663987      43.663987      43.663987      1.059682      -343.37551     -2066.8073     -1416.2911    
    193000   193000         626.91517     -296.12153      27660.216      28014.12       12144.779      15869.341      5404.0548      5068.3137      3839.041       482.31921      511.22989      4900.477      -4336.0941     -480.59958      81948.391      43.435699      43.435699      43.435699      1.0764783     -1222.0782      1158.8604     -825.14678    
    194000   194000         635.77412      793.75092      28892.148      27946.319      12316.397      15629.922      5276.3337      4923.8673      3796.7367      476.82327      592.31358      4900.1185     -4336.2714     -482.02658      81705.789      43.392794      43.392794      43.392794      1.0796746      250.14866      101.23438      2029.8697    
    195000   195000         612.69786      40.781938      27367.611      27318.728      11869.357      15449.371      5201.8512      4813.2671      3809.5114      473.6841       598.61336      4890.7435     -4338.3        -479.19129      82189.228      43.478208      43.478208      43.478208      1.0733239     -426.95618      1207.3983     -658.09633    
    196000   196000         632.21741     -2389.0461      25113.141      27973.137      12247.495      15725.641      5259.5321      5002.0875      3941.0112      471.08776      475.01722      4911.3125     -4334.4072     -479.79851      82085.212      43.459858      43.459858      43.459858      1.074684      -4223.6347     -751.42852     -2192.0752    
    197000   197000         623.38457      14.642363      27570.489      27553.148      12076.383      15476.765      5218.2005      4890.2499      3821.8619      478.25997      522.4888       4885.7743     -4340.0702     -485.0187       81201.741      43.303378      43.303378      43.303378      1.0863765     -1054.8872     -1024.7608      2123.5751    
    198000   198000         631.19033     -169.84331      27839.095      28041.651      12227.599      15814.052      5357.0211      4978.3587      3914.7597      484.66498      536.99309      4883.1982     -4340.9436     -481.61855      81775.012      43.405045      43.405045      43.405045      1.0787606     -1367.2069      2283.6844     -1426.0075    
    199000   199000         630.04348      94.042126      27917.02       27806.106      12205.382      15600.724      5323.0263      4860.3433      3872.7053      472.38179      501.503        4902.3381     -4331.5735     -487.00555      80870.46       43.244409      43.244409      43.244409      1.0908268     -334.95682     -2573.4473      3190.5305    
    200000   200000         622.43566     -2052.5502      25361.984      27851.588      12058.001      15793.587      5303.0046      5034.4737      3915.6838      479.68735      481.30629      4911.995      -4332.5637     -473.54722      83168.818      43.650261      43.650261      43.650261      1.0606819     -2585.9365     -2800.0448     -771.66923    
    201000   201000         628.19185     -730.08949      26860.529      27730.377      12169.511      15560.866      5302.2447      4938.9145      3727.657       458.23832      581.27761      4886.3353     -4333.8014     -482.09453      81694.274      43.390755      43.390755      43.390755      1.0798268     -2411.0484      566.98653     -346.20663    
    202000   202000         628.17621      261.30114      28231.682      27917.366      12169.208      15748.158      5388.0573      4891.9956      3810.9743      506.33545      561.68604      4920.2964     -4331.1873     -477.50184      82480.023      43.529424      43.529424      43.529424      1.0695397      1087.3091      1456.3659     -1759.7716    
    203000   203000         631.07386     -1800.7898      25898.985      28047.089      12225.342      15821.746      5342.148       4972.9156      3918.6399      490.75659      533.5806       4899.7644     -4336.0587     -481.51234      81793.05       43.408236      43.408236      43.408236      1.0785227     -2013.0826     -2314.7889     -1074.4978    
    204000   204000         630.49498     -1203.316       26350.847      27793.741      12214.128      15579.613      5243.2542      4921.3069      3790.2179      469.49412      586.37537      4903.0128     -4334.0485     -479.01063      82220.227      43.483673      43.483673      43.483673      1.0729192     -717.56434     -144.80252     -2747.5811    
    205000   205000         626.98386      185.25399      28280.489      28058.284      12146.11       15912.175      5352.5694      5022.5864      3837.7639      489.32619      642.98059      4900.4901     -4333.5419     -478.86687      82244.911      43.488024      43.488024      43.488024      1.0725972      1610.1643     -1315.1469      260.74459    
    206000   206000         624.53167     -1104.6195      26265.843      27577.413      12098.605      15478.808      5299.6824      4883.0364      3812.02        448.18071      493.0931       4884.0344     -4341.2387     -483.74997      81414.708      43.341203      43.341203      43.341203      1.0835347     -448.71242     -1423.98       -1441.1661    
    207000   207000         625.52699      2014.1872      30169.363      27773.258      12117.887      15655.371      5486.108       4942.74        3629.5029      480.43917      555.01844      4899.7488     -4338.1864     -482.8294       81569.935      43.36873       43.36873       43.36873       1.0814727      1452.065       1457.6533      3132.8433    
    208000   208000         622.30323      2058.7253      30061.438      27637.032      12055.435      15581.597      5378.6742      4973.3019      3664.4077      455.04535      540.53499      4908.5998     -4338.9673     -487.74494      80747.865      43.222546      43.222546      43.222546      1.0924829      2187.6021      777.39492      3211.179     
    209000   209000         624.67935      314.40242      27999.304      27625.726      12101.466      15524.26       5325.2202      4962.6404      3738.8855      445.85419      484.49355      4903.648      -4336.4821     -483.39698      81474.159      43.35175       43.35175       43.35175       1.0827441      20.385541     -225.43513      1148.2568    
    210000   210000         629.87685     -773.13818      26945.205      27865.733      12202.154      15663.58       5300.1024      4852.7399      3883.6141      483.02264      578.68303      4899.3798     -4333.9622     -482.41381      81640.206      43.38118       43.38118       43.38118       1.0805419     -1296.3587     -211.40614     -811.64971    
    211000   211000         625.41772     -458.21794      27183.56       27725.067      12115.77       15609.297      5349.8946      4972.1741      3811.7944      474.53198      422.12891      4910.9176     -4332.1448     -486.03512      81031.927      43.273171      43.273171      43.273171      1.0886531     -1501.8292      603.5199      -476.34449    
    212000   212000         637.63898     -441.23542      27393.879      27912.418      12352.524      15559.894      5267.6025      4840.1931      3906.2306      463.74662      533.94628      4883.9268     -4335.7515     -488.75197      80581.492      43.192841      43.192841      43.192841      1.0947385     -1210.8966      1879.3699     -1992.1796    
    213000   213000         633.4488       391.72354      28707.999      28238.443      12271.35       15967.093      5419.7757      5011.2212      3935.3733      484.14892      546.46241      4903.0203     -4332.9091     -479.17311      82192.347      43.478758      43.478758      43.478758      1.0732832      14.8543        1864.3333     -704.01695    
    214000   214000         627.24326      1194.8706      28959.884      27531.418      12151.135      15380.283      5183.7343      4984.6075      3671.4128      449.96637      540.12662      4887.0743     -4336.6385     -480.45265      81973.453      43.440126      43.440126      43.440126      1.0761492      2129.3467      1054.1087      401.15633    
    215000   215000         636.96283      1272.8343      29463.903      27944.216      12339.425      15604.791      5264.3525      4925.1716      3735.0871      456.39148      664.42867      4896.0145     -4336.6548     -481.08026      81866.511      43.421227      43.421227      43.421227      1.0775549      847.98956      1912.7732      1057.7403    
    216000   216000         616.79839     -733.28862      26719.014      27580.166      11948.794      15631.372      5357.2907      4999.9602      3721.9871      479.06781      517.16359      4889.9974     -4334.0946     -489.09651      80524.726      43.182696      43.182696      43.182696      1.0955102      813.48244     -2398.0065     -615.34181    
    217000   217000         622.40461     -336.22925      27276.206      27679.468      12057.399      15622.069      5231.766       4924.0629      3837.6331      491.2462       579.53631      4892.302      -4334.4771     -478.90287      82238.727      43.486934      43.486934      43.486934      1.0726779     -1206.4811     -1486.1788      1683.9721    
    218000   218000         625.2863       565.05188      28446.129      27772.57       12113.224      15659.346      5301.4863      4937.5767      3742.6378      472.68947      635.64439      4902.0583     -4332.7474     -481.85066      81735.621      43.398074      43.398074      43.398074      1.0792805      1446.3599      1127.7757     -878.98       
    219000   219000         617.45704     -329.42562      26976.437      27372.566      11961.553      15411.012      5203.7842      4904.6619      3739.0184      490.64593      521.56704      4886.0561     -4334.7212     -477.66178      82452.406      43.524565      43.524565      43.524565      1.069898      -648.36711      218.40858     -558.31832    
    220000   220000         622.29271     -497.04252      26941.665      27542.41       12055.231      15487.179      5264.3324      4784.5783      3866.3061      485.92013      530.00066      4891.8719     -4335.8306     -475.22885      82874.52       43.598714      43.598714      43.598714      1.0644485      52.973672     -757.73036     -786.37087    
    221000   221000         633.62788      470.131        28487.388      27924.632      12274.82       15649.812      5332.1694      4868.6969      3773.3379      500.73273      608.0293       4901.0383     -4334.1921     -479.8423       82077.722      43.458537      43.458537      43.458537      1.074782      -184.21582      1897.7572     -303.14835    
    222000   222000         629.46075     -566.81217      27203.817      27882.951      12194.093      15688.858      5335.6091      4938.6421      3813.9364      478.18208      569.66476      4888.2982     -4335.4745     -479.38398      82156.193      43.472382      43.472382      43.472382      1.0737555      1.2186323     -859.83527     -841.81988    
    223000   223000         625.82087      147.87425      28000.605      27821.927      12123.58       15698.347      5317.2584      4878.1542      3870.846       460.96788      605.434        4899.4084     -4333.722      -475.35742      82852.104      43.594782      43.594782      43.594782      1.0647365     -749.06258     -982.11103      2174.7964    
    224000   224000         633.96526      998.87758      29173.889      27992.662      12281.355      15711.306      5261.5478      4943.0606      3932.0892      487.19408      523.3071       4894.0953     -4329.9877     -485.71167      81085.89       43.282775      43.282775      43.282775      1.0879286      1014.0668      2100.7864     -118.22039    
    225000   225000         630.21707     -2765.2188      24430.386      27749.892      12208.744      15541.147      5182.0019      4860.3655      3962.7461      463.75303      517.85782      4890.3166     -4335.8936     -478.47124      82312.915      43.500007      43.500007      43.500007      1.0717111     -2869.3393     -1637.078      -3789.2391    
    226000   226000         630.71702      1872.6864      30124.34       27881.478      12218.43       15663.049      5275.6248      4880.9154      3783.0806      472.27005      674.26719      4912.913      -4336.0225     -479.58126      82122.396      43.46642       43.46642       43.46642       1.0741974      2238.6592      1760.96        1618.44      
    227000   227000         623.46145     -541.83607      26879.884      27529.327      12077.873      15451.454      5209.0103      4901.484       3726.0357      463.08957      577.51576      4905.3525     -4331.0337     -479.21093      82185.859      43.477614      43.477614      43.477614      1.0733679     -2360.8697     -1818.3902      2553.7517    
    228000   228000         618.32576      343.22308      27960.3        27554.814      11978.383      15576.432      5244.122       4831.6221      3930.7995      477.11481      527.48761      4897.2859     -4332.0001     -486.18328      81007.234      43.268775      43.268775      43.268775      1.088985       220.54309     -990.17418      1799.3003    
    229000   229000         624.70243     -205.20474      27571.767      27814.372      12101.913      15712.458      5278.9121      5021.316       3901.4604      462.47074      476.57749      4904.6154     -4332.8938     -485.83339      81065.574      43.27916       43.27916       43.27916       1.0882013     -1692.7396     -898.36537      1975.4907    
    230000   230000         611.45298     -2085.5844      24851.936      27356.86       11845.241      15511.618      5200.2029      4849.5529      3921.0408      458.06046      527.17353      4890.3705     -4334.7826     -478.22573      82355.172      43.50745       43.50745       43.50745       1.0711612     -1779.2774     -918.133       -3559.3428    
    231000   231000         629.98223      978.35593      28993.119      27830.574      12204.195      15626.379      5257.4591      4987.429       3808.9516      485.24634      534.51208      4886.178      -4333.3971     -483.37796      81477.365      43.352318      43.352318      43.352318      1.0827015      2171.2105     -605.73982      1369.5971    
    232000   232000         624.24574     -84.485488      27747.558      27848.688      12093.066      15755.622      5379.5327      4962.7991      3833.2831      469.83608      539.59768      4901.4773     -4330.9045     -479.84623      82077.049      43.458418      43.458418      43.458418      1.0747909      288.9393      -615.93469      73.538924    
    233000   233000         622.16956      1936.3668      29977.346      27648.526      12052.846      15595.68       5219.0304      4879.791       3845.992       461.98009      630.60606      4889.6281     -4331.3476     -477.58586      82465.511      43.526871      43.526871      43.526871      1.0697279      2428.3173      289.52981      3091.2533    
    234000   234000         636.69003      1477.0637      29769.042      27995.282      12334.14       15661.141      5396.2053      4806.1788      3743.5473      476.41073      663.46606      4906.2537     -4330.9204     -478.30396      82341.704      43.505078      43.505078      43.505078      1.0713364      1414.2275      2779.2513      237.71235    
    235000   235000         633.51836     -318.92566      27523.974      27908.582      12272.698      15635.884      5323.7106      4847.4909      3861.2628      469.21627      571.0609       4892.3369     -4329.1943     -476.28894      82690.063      43.566343      43.566343      43.566343      1.066823      -2655.0145      649.17413      1049.0634    
    236000   236000         616.38337      486.16032      27980.061      27403.106      11940.754      15462.352      5304.1078      4839.6429      3765.8091      466.0013       515.06738      4902.3184     -4330.5948     -483.99066      81374.22       43.334017      43.334017      43.334017      1.0840738     -1077.8422     -362.41957      2898.7428    
    237000   237000         627.27773     -1297.8216      26098.724      27655.888      12151.803      15504.085      5230.2567      4902.4902      3788.0634      453.18408      558.79839      4905.8985     -4334.6062     -478.71886      82270.338      43.492506      43.492506      43.492506      1.0722657     -2274.6541     -1378.3341     -240.47652    
    238000   238000         614.22893     -835.14134      26522.767      27512.829      11899.018      15613.812      5348.7894      4734.8847      3927.9296      476.58967      557.81891      4898.9372     -4331.1377     -484.50389      81288.022      43.31871       43.31871       43.31871       1.0852234     -2237.9815     -1326.8076      1059.3651    
    239000   239000         617.29416     -642.63814      26782.928      27553.734      11958.398      15595.336      5186.1889      4956.2849      3868.5977      461.79463      548.19356      4903.6342     -4329.3583     -478.87427      82243.64       43.4878        43.4878        43.4878        1.0726138     -445.10792      180.05678     -1662.8633    
    240000   240000         635.85373     -1667.0692      25964.884      27933.788      12317.939      15615.849      5283.7632      4804.0896      4023.3211      465.24924      473.15964      4900.7143     -4334.4479     -486.32735      80983.235      43.264502      43.264502      43.264502      1.0893077     -1461.2965     -1953.9681     -1585.943     
    241000   241000         632.35139     -1933.3014      25666.072      28024.373      12250.091      15774.282      5354.5189      4845.5887      3916.1349      483.05936      625.29811      4884.563      -4334.8812     -470.86906      83641.856      43.732861      43.732861      43.732861      1.0546832     -3545.0329     -1920.4237     -334.44752    
    242000   242000         625.7143       394.4298       28203.323      27731.372      12121.515      15609.856      5190.3484      4982.6977      3851.6178      485.5278       512.31         4916.4535     -4329.0991     -480.03415      82044.919      43.452746      43.452746      43.452746      1.0752118     -67.247932      2121.2348     -870.69741    
    243000   243000         614.20892     -1418.5878      25938.461      27625.953      11898.63       15727.323      5190.2964      4958.0453      4028.9502      490.82344      495.71829      4892.9064     -4329.4171     -482.85217      81566.088      43.368048      43.368048      43.368048      1.0815238     -2723.0881     -1132.4082     -400.2672     
    244000   244000         609.60359     -1156.8317      26003.785      27367.19       11809.414      15557.776      5320.134       4850.8182      3885.6095      474.96326      460.86059      4897.2755     -4331.8854     -487.35454      80812.549      43.234085      43.234085      43.234085      1.0916085     -2780.8563     -1124.5835      434.94481    
    245000   245000         619.11793      596.50926      28245.208      27533.985      11993.729      15540.256      5243.2561      4920.4045      3786.4904      477.75298      550.09264      4895.0047     -4332.7454     -481.7381       81754.717      43.401453      43.401453      43.401453      1.0790284      1251.2096      588.71288     -50.394657    
    246000   246000         626.41163     -2227.1185      25243.426      27881.674      12135.024      15746.65       5350.5779      4848.1818      3965.9678      495.35359      528.98839      4892.7144     -4335.1342     -484.87236      81226.248      43.307734      43.307734      43.307734      1.0860487     -1904.2728     -3300.4462     -1476.6366    
    247000   247000         618.77001     -1839.9667      25557.054      27738.358      11986.989      15751.369      5245.6444      4966.0396      3964.3834      490.65937      508.07009      4906.7465     -4330.1743     -484.49983      81288.703      43.318831      43.318831      43.318831      1.0852143      829.74033     -3214.724      -3134.9164    
    248000   248000         627.32462      547.41455      28449.201      27793.584      12152.711      15640.873      5358.6137      5020.1394      3677.2268      455.12668      583.70623      4884.1564     -4338.0957     -479.58577      82121.625      43.466284      43.466284      43.466284      1.0742075      1961.9379     -956.37264      636.67841    
    249000   249000         625.09667     -1257.3839      26128.288      27617.45       12109.55       15507.899      5339.899       4816.1954      3816.0272      468.45255      501.42814      4902.0576     -4336.1606     -484.98197      81207.89       43.304472      43.304472      43.304472      1.0862942     -2468.8268     -937.61629     -365.70861    
    250000   250000         630.36236     -2009.1754      25632.82       28009.022      12211.559      15797.463      5395.939       5029.8263      3911.3886      464.16596      434.6245       4896.4967     -4334.9777     -485.66205      81094.173      43.284249      43.284249      43.284249      1.0878175     -78.062585     -4133.3743     -1816.0894    
Loop time of 541.639 on 1 procs for 250000 steps with 6500 atoms

Performance: 39.879 ns/day, 0.602 hours/ns, 461.562 timesteps/s, 3.000 Matom-step/s
100.0% CPU use with 1 MPI tasks x 1 OpenMP threads

MPI task timing breakdown:
Section |  min time  |  avg time  |  max time  |%varavg| %total
---------------------------------------------------------------
Pair    | 50.585     | 50.585     | 50.585     |   0.0 |  9.34
Bond    | 68.067     | 68.067     | 68.067     |   0.0 | 12.57
Kspace  | 232.38     | 232.38     | 232.38     |   0.0 | 42.90
Neigh   | 89.1       | 89.1       | 89.1       |   0.0 | 16.45
Comm    | 12.572     | 12.572     | 12.572     |   0.0 |  2.32
Output  | 2.2705     | 2.2705     | 2.2705     |   0.0 |  0.42
Modify  | 76.435     | 76.435     | 76.435     |   0.0 | 14.11
Other   |            | 10.23      |            |       |  1.89

Nlocal:           6500 ave        6500 max        6500 min
Histogram: 1 0 0 0 0 0 0 0 0 0
Nghost:          16867 ave       16867 max       16867 min
Histogram: 1 0 0 0 0 0 0 0 0 0
Neighs:              0 ave           0 max           0 min
Histogram: 1 0 0 0 0 0 0 0 0 0
FullNghs:  3.31127e+06 ave 3.31127e+06 max 3.31127e+06 min
Histogram: 1 0 0 0 0 0 0 0 0 0

Total # of neighbors = 3311268
Ave neighs/atom = 509.42585
Ave special neighs/atom = 5.7630769
Neighbor list builds = 16972
Dangerous builds = 0
System init for write_data ...
PPPM Kokkos initialization ...
  using 12-bit tables for long-range coulomb
  G vector (1/distance) = 0.29864523
  grid = 30 30 30
  stencil order = 5
  estimated absolute RMS force accuracy = 0.00033980203
  estimated relative force accuracy = 1.0233037e-06
  using double precision cuFFT
  3d grid and FFT values/proc = 50653 27000
Generated 28 of 28 mixed pair_coeff terms from sixthpower/sixthpower mixing rule
System init for write_restart ...
PPPM Kokkos initialization ...
  using 12-bit tables for long-range coulomb
  G vector (1/distance) = 0.29864523
  grid = 30 30 30
  stencil order = 5
  estimated absolute RMS force accuracy = 0.00033980203
  estimated relative force accuracy = 1.0233037e-06
  using double precision cuFFT
  3d grid and FFT values/proc = 50653 27000
Generated 28 of 28 mixed pair_coeff terms from sixthpower/sixthpower mixing rule
STAGE COMPLETE: NPT T=650.0->625.0K P=1.0->1.0atm steps=250000
