Authorization required, but no authorization protocol specified

Authorization required, but no authorization protocol specified

Authorization required, but no authorization protocol specified

Authorization required, but no authorization protocol specified

LAMMPS (22 Jul 2025 - Update 3)
KOKKOS mode with Kokkos version 4.6.2 is enabled
  will use up to 1 GPU(s) per node
  using 1 OpenMP thread(s) per MPI task
Reading data file ...
  orthogonal box = (5.0995026 5.0995026 5.0995026) to (45.947049 45.947049 45.947049)
  1 by 1 by 1 MPI processor grid
  reading atoms ...
  6320 atoms
  reading velocities ...
  6320 velocities
  scanning bonds ...
  4 = max bonds/atom
  scanning angles ...
  12 = max angles/atom
  scanning dihedrals ...
  21 = max dihedrals/atom
  scanning impropers ...
  8 = max impropers/atom
  orthogonal box = (5.0995026 5.0995026 5.0995026) to (45.947049 45.947049 45.947049)
  1 by 1 by 1 MPI processor grid
  reading bonds ...
  6310 bonds
  reading angles ...
  11200 angles
  reading dihedrals ...
  13970 dihedrals
  reading impropers ...
  6300 impropers
Finding 1-2 1-3 1-4 neighbors ...
  special bond factors lj:    0        0        1       
  special bond factors coul:  0        0        1       
     4 = max # of 1-2 neighbors
     6 = max # of 1-3 neighbors
    10 = max # of special neighbors
  special bonds CPU = 0.003 seconds
  read_data CPU = 0.266 seconds
PPPM Kokkos initialization ...
  using 12-bit tables for long-range coulomb
  G vector (1/distance) = 0.33497613
  grid = 45 45 45
  stencil order = 5
  estimated absolute RMS force accuracy = 0.00041055734
  estimated relative force accuracy = 1.2363812e-06
  using double precision cuFFT
  3d grid and FFT values/proc = 140608 91125
Generated 21 of 21 mixed pair_coeff terms from sixthpower/sixthpower mixing rule
Neighbor list info ...
  update: every = 1 steps, delay = 0 steps, check = yes
  max neighbors/atom: 4000, page size: 100000
  master list distance cutoff = 11.5
  ghost atom cutoff = 11.5
  binsize = 11.5, bins = 4 4 4
  1 neighbor lists, perpetual/occasional/extra = 1 0 0
  (1) pair lj/class2/coul/long/kk, perpetual
      attributes: full, newton off, kokkos_device
      pair build: full/bin/kk/device
      stencil: full/bin/3d
      bin: kk/device
Setting up Verlet run ...
  Unit style    : real
  Current step  : 0
  Time step     : 1
Per MPI rank memory allocation (min/avg/max) = 42.43 | 42.43 | 42.43 Mbytes
   Step          Time           Temp          Press         Enthalpy        TotEng         KinEng         PotEng         E_bond        E_angle        E_dihed        E_impro         E_vdwl         E_coul         E_long         E_tail         Volume           Lx             Ly             Lz          Density          Pxx            Pyy            Pzz      
         0   0              323.29957     -156.80181      23730.269      23886.125      6089.5863      17796.539      3164.5265      5337.8792     -5721.1025      211.49784     -3414.7697      61899.455     -43680.947     -543.63991      68155.032      40.847546      40.847546      40.847546      1.2295377     -678.94029      183.31324      25.221622    
      1000   1000           321.18486     -165.79606      23703.482      23869.329      6049.7541      17819.575      3133.7817      5434.3864     -5724.4153      231.8316      -3464.8718      61899.455     -43690.593     -540.19556      68589.597      40.934179      40.934179      40.934179      1.2217477      272.20267     -1070.4178      300.82694    
      2000   2000           315.72933     -54.665233      23710.877      23765.361      5946.9952      17818.365      3184.6673      5354.1475     -5660.662       222.47926     -3458.0395      61859.549     -43683.776     -542.16151      68340.882      40.884641      40.884641      40.884641      1.226194      -1698.375       1697.3062     -162.92691    
      3000   3000           317.7703      -71.759009      23874.941      23946.606      5985.4384      17961.168      3262.417       5396.5926     -5753.0398      232.02799     -3353.8695      61851.502     -43674.463     -541.06739      68479.078      40.912181      40.912181      40.912181      1.2237195     -689.61661     -622.64021      1096.9798    
      4000   4000           318.61428      1684.936       25471.891      23799.946      6001.3353      17798.611      3177.3906      5330.8497     -5724.3728      212.23693     -3389.095       61877.154     -43685.553     -544.56119      68039.728      40.824498      40.824498      40.824498      1.2316213      633.39359      1907.212       2514.2023    
      5000   5000           318.56055      1378.1997      25173.385      23804.132      6000.3233      17803.809      3067.4809      5434.6873     -5694.9816      225.69499     -3463.5202      61917.681     -43683.233     -543.89319      68123.294      40.841205      40.841205      40.841205      1.2301105      1818.4699      1135.0341      1181.0951    
      6000   6000           317.38539     -714.6027       23229.733      23944.464      5978.1883      17966.276      3234.0077      5463.2995     -5751.9711      223.88461     -3371.6672      61855.677     -43686.954     -540.26475      68580.813      40.932431      40.932431      40.932431      1.2219042     -74.067119     -2108.4654      38.724433    
      7000   7000           315.33288      231.10453      24011.836      23782.041      5939.5278      17842.513      3155.2561      5459.7373     -5709.8744      211.56454     -3451.0395      61866.703     -43689.834     -543.44162      68179.901      40.852514      40.852514      40.852514      1.2290892     -735.98415      69.756058      1359.5417    
      8000   8000           316.77604     -2589.3069      21323.827      23921.024      5966.7107      17954.313      3328.7752      5405.28       -5680.0368      188.18255     -3481.826       61864.002     -43670.064     -538.72103      68777.334      40.971492      40.971492      40.971492      1.2184128     -1755.7973     -1863.002      -4149.1213    
      9000   9000           316.90455     -1820.8159      21993.613      23825.656      5969.1313      17856.525      3183.4789      5459.3673     -5752.6824      215.70215     -3453.4532      61874.695     -43670.583     -537.05094      68991.213      41.013918      41.013918      41.013918      1.2146356     -2701.031      -1764.1445     -997.27207    
     10000   10000          316.9721      -1432.7152      22372.799      23802.734      5970.4036      17832.33       3155.8109      5452.513      -5716.0816      206.6753      -3460.1536      61874.152     -43680.586     -541.41313      68435.348      40.903471      40.903471      40.903471      1.2245014     -2867.9598     -871.27009     -558.91574    
     11000   11000          324.49713      190.14415      24210.2        24021.905      6112.1431      17909.762      3248.4301      5485.3178     -5756.7557      215.12736     -3446.8549      61850.202     -43685.705     -545.66928      67901.56       40.796846      40.796846      40.796846      1.2341275     -45.133847     -674.89669      1290.463     
     12000   12000          319.31082      454.78594      24363.534      23912.514      6014.4551      17898.058      3219.5496      5388.8416     -5667.0374      204.64593     -3455.1291      61892.642     -43685.455     -544.87342      68000.74       40.816699      40.816699      40.816699      1.2323275     -274.36797      1035.7502      602.97557    
     13000   13000          310.65564      469.65111      24329.794      23859.115      5851.4284      18007.687      3148.3358      5490.0377     -5656.2865      231.48702     -3432.0856      61907.142     -43680.944     -539.18235      68718.488      40.959804      40.959804      40.959804      1.2194561     -254.99672      855.55575      808.3943     
     14000   14000          319.70334      149.49606      23955.62       23806.333      6021.8486      17784.485      3262.2994      5285.9909     -5745.7011      229.91888     -3432.8778      61867.47      -43682.616     -541.12167      68472.209      40.910813      40.910813      40.910813      1.2238422      1120.1818     -61.989407     -609.70422    
     15000   15000          315.71044      548.09871      24319.231      23770.482      5946.6394      17823.842      3044.7443      5475.5952     -5664.9936      215.41071     -3487.8481      61926.06      -43685.126     -539.72206      68649.771      40.946146      40.946146      40.946146      1.2206768      191.54697      1119.2244      333.52471    
     16000   16000          317.72309      443.78383      24268.677      23827.733      5984.5491      17843.183      3181.3845      5335.3535     -5661.0549      217.91908     -3432.5066      61883.807     -43681.719     -543.84173      68129.741      40.842493      40.842493      40.842493      1.2299941     -448.48852      439.66254      1340.1775    
     17000   17000          313.63427      803.16541      24513.921      23717.427      5907.5332      17809.894      3132.6906      5393.4697     -5657.6784      225.41496     -3497.8456      61903.997     -43690.154     -544.88865      67998.839      40.816319      40.816319      40.816319      1.2323619     -270.22013      652.89018      2026.8262    
     18000   18000          321.70687     -370.97078      23515.382      23884.046      6059.5865      17824.459      3152.1669      5431.4123     -5700.0322      203.20423     -3451.6768      61876.046     -43686.661     -543.74358      68142.038      40.84495       40.84495       40.84495       1.2297721     -506.95665     -446.15416     -159.80153    
     19000   19000          321.28966     -159.30624      23780.819      23939.93       6051.7281      17888.202      3292.1378      5389.1072     -5739.8339      199.31412     -3446.7631      61867.828     -43673.588     -541.028        68484.063      40.913174      40.913174      40.913174      1.2236304     -384.42265     -1095.8185      1002.3224    
     20000   20000          320.80253      1212.4566      25061.826      23857.364      6042.5526      17814.811      3212.2224      5370.7929     -5724.3149      209.37956     -3457.1271      61892.304     -43688.445     -543.94891      68116.316      40.83981       40.83981       40.83981       1.2302365      3236.4808      73.576355      327.31261    
     21000   21000          319.96367     -1375.2617      22412.273      23789.213      6026.752       17762.46       3069.8249      5424.8607     -5688.1665      215.50215     -3489.405       61910.808     -43680.964     -539.70401      68652.067      40.946602      40.946602      40.946602      1.2206359     -2961.6179     -1149.203      -14.964311    
     22000   22000          315.89997     -195.50318      23590.302      23785.403      5950.2094      17835.193      3102.5297      5474.657      -5681.5111      224.63517     -3521.6748      61913.031     -43676.474     -541.47602      68427.399      40.901887      40.901887      40.901887      1.2246437     -1392.3283     -1304.1014      2109.9202    
     23000   23000          316.61189     -876.14569      23033.325      23902.669      5963.6188      17939.051      3158.9148      5481.0983     -5649.9997      232.67843     -3495.217       61892.907     -43681.331     -544.59006      68036.122      40.823777      40.823777      40.823777      1.2316866      270.8813      -2742.0039     -157.31441    
     24000   24000          318.25804     -484.73555      23240.226      23722.748      5994.6252      17728.123      3120.9999      5344.0693     -5650.9935      201.82921     -3574.5983      61951.022     -43664.206     -542.84209      68255.201      40.867548      40.867548      40.867548      1.2277333     -1078.1475     -328.88672     -47.172475    
     25000   25000          312.89657     -56.209493      23610.12       23666.087      5893.638       17772.449      3198.1125      5292.0673     -5664.0607      214.03572     -3438.6797      61864.608     -43693.634     -542.70025      68273.04       40.871108      40.871108      40.871108      1.2274125     -1497.689       214.35681      1114.7037    
     26000   26000          319.69595      576.77209      24448.401      23871.935      6021.7093      17850.226      3180.7294      5409.6481     -5681.6975      219.60228     -3454.6817      61859.193     -43682.568     -540.64961      68531.994      40.922717      40.922717      40.922717      1.2227746      408.44371      751.10385      570.76872    
     27000   27000          314.46744      72.511948      23703.506      23631.06       5923.2265      17707.833      3085.3508      5299.6253     -5677.159       221.96545     -3458.8825      61923.241     -43686.308     -540.85062      68506.524      40.917646      40.917646      40.917646      1.2232292     -1173.0107      608.35719      782.18937    
     28000   28000          315.63382     -521.5774       23277.059      23796.813      5945.1961      17851.617      3142.5168      5439.0367     -5693.8076      232.55494     -3479.8161      61890.487     -43679.354     -542.25813      68328.705      40.882213      40.882213      40.882213      1.2264125     -1883.7956      187.28273      131.78069    
     29000   29000          318.14663     -782.48849      23009.288      23784.708      5992.5267      17792.181      3127.6828      5431.1593     -5678.0474      226.33668     -3506.7853      61876.01      -43684.175     -545.2887       67948.952      40.806335      40.806335      40.806335      1.2332667     -1390.6891     -1204.0381      247.26176    
     30000   30000          318.09126     -1334.1148      22466.469      23800.065      5991.4839      17808.581      3098.4369      5457.1836     -5714.2623      195.63736     -3484.4391      61941.588     -43685.564     -540.57268      68541.747      40.924658      40.924658      40.924658      1.2226006     -1469.9299     -1716.3278     -816.08656    
     31000   31000          318.51282     -901.79732      23045.798      23947.181      5999.4243      17947.756      3265.1077      5477.9893     -5688.409       210.67534     -3517.0616      61879.766     -43680.312     -540.61115      68536.869      40.923687      40.923687      40.923687      1.2226876     -1542.1247     -562.72697     -600.54026    
     32000   32000          318.14704     -473.17036      23267.124      23739.254      5992.5345      17746.72       3093.556       5341.257      -5677.0768      226.91976     -3436.7177      61883.255     -43684.473     -541.55233      68417.757      40.899966      40.899966      40.899966      1.2248163     -1563.3948     -392.95804      536.84174    
     33000   33000          326.31342      545.86226      24512.842      23967.297      6146.3542      17820.943      3221.7569      5343.3366     -5718.4663      218.35915     -3479.6317      61917.109     -43681.52      -540.67728      68528.486      40.922018      40.922018      40.922018      1.2228372     -10.08083      -991.21656      2638.8842    
     34000   34000          318.58928      631.64883      24441.178      23812.873      6000.8645      17812.009      3242.5199      5347.6284     -5765.3553      201.75019     -3405.819       61877.839     -43686.554     -543.23806      68205.449      40.857616      40.857616      40.857616      1.2286288      459.49017      1461.0666     -25.610304    
     35000   35000          314.86405     -248.77231      23528.93       23778.252      5930.697       17847.555      3141.0063      5282.8464     -5656.5495      227.38619     -3397.5574      61939.491     -43689.067     -539.17151      68719.87       40.960078      40.960078      40.960078      1.2194316     -807.36256      581.33255     -520.28693    
     36000   36000          315.79716      1489.3536      25325.69       23847.271      5948.2728      17898.999      3172.6202      5488.5292     -5733.6038      211.82569     -3467.702       61908.286     -43680.957     -544.35911      68064.987      40.82955       40.82955       40.82955       1.2311643      275.77357      2257.3389      1934.9484    
     37000   37000          316.82962      721.9664       24503.731      23784.95       5967.72        17817.23       3236.7902      5368.9403     -5738.0163      202.7879      -3430.5632      61853.086     -43675.795     -542.75704      68265.897      40.869683      40.869683      40.869683      1.2275409      23.117316      126.16557      2016.6163    
     38000   38000          316.14273      838.57672      24582.868      23750.624      5954.7818      17795.842      3120.3365      5375.156      -5658.0795      200.79846     -3467.3557      61911.524     -43686.538     -544.47399      68050.626      40.826678      40.826678      40.826678      1.2314241      638.36016      282.39071      1594.9793    
     39000   39000          312.25427      319.90308      23963.706      23645.774      5881.5398      17764.235      3050.3747      5327.8684     -5666.3875      221.61269     -3441.8911      61959.307     -43686.65      -543.71354      68145.803      40.845703      40.845703      40.845703      1.2297042      2166.8972     -784.48498     -422.70302    
     40000   40000          319.56201      759.71781      24574.037      23817.057      6019.1866      17797.871      3117.5792      5415.7229     -5725.7263      224.46265     -3441.8236      61890.733     -43683.077     -542.31722      68321.259      40.880728      40.880728      40.880728      1.2265462      1084.4207      493.01058      701.7222     
     41000   41000          318.39318     -1205.1343      22748.305      23953.87       5997.1707      17956.699      3224.2934      5395.7069     -5662.2806      229.42628     -3471.0699      61926.126     -43685.503     -540.16949      68592.908      40.934838      40.934838      40.934838      1.2216887     -1029.8718     -1303.2235     -1282.3077    
     42000   42000          310.48184     -579.07965      23148.469      23727.124      5848.1548      17878.969      3246.8387      5380.8565     -5699.8868      209.91891     -3473.8612      61896.567     -43681.464     -540.75849      68518.196      40.91997       40.91997       40.91997       1.2230208     -1073.9623     -1253.9023      590.62572    
     43000   43000          322.78788     -1269.1922      22636.963      23902.784      6079.9482      17822.836      3167.4907      5435.6183     -5713.6522      220.87085     -3506.7201      61904.494     -43685.266     -541.80128      68386.32       40.8937        40.8937        40.8937        1.2253793     -672.92211     -2192.4289     -942.22557    
     44000   44000          315.79048     -443.8462       23332.647      23775.396      5948.147       17827.249      3238.9711      5324.078      -5678.9019      203.02705     -3435.4147      61867.926     -43692.437     -541.70093      68398.989      40.896226      40.896226      40.896226      1.2251523     -38.69254      -805.58843     -487.25762    
     45000   45000          313.83112      711.8701       24331.559      23620.958      5911.241       17709.717      3082.7443      5329.9136     -5670.7276      205.36288     -3431.1495      61885.518     -43691.945     -541.32698      68446.239      40.905641      40.905641      40.905641      1.2243066      1179.6015      89.4287        866.58006    
     46000   46000          313.5385       534.933        24263.159      23734.394      5905.7294      17828.664      3130.3789      5394.6995     -5658.6262      236.04177     -3490.8507      61897.581     -43680.56      -546.66564      67777.803      40.772045      40.772045      40.772045      1.2363809      563.85795      298.51981      742.42124    
     47000   47000          318.31177     -1367.1822      22534.943      23893.09       5995.6373      17897.453      3260.7133      5372.9003     -5646.7759      220.16577     -3451.1381      61821.983     -43680.396     -543.95747      68115.244      40.839596      40.839596      40.839596      1.2302559     -1618.6664     -1097.8545     -1385.0258    
     48000   48000          317.76192     -330.26583      23493.242      23822.83       5985.2805      17837.549      3161.9052      5369.5718     -5675.5245      222.68414     -3452.7312      61890.172     -43678.528     -541.47423      68427.626      40.901932      40.901932      40.901932      1.2246396      463.31018     -1656.4323      202.32459    
     49000   49000          318.1614       596.00086      24406.685      23813.481      5992.8051      17820.675      3089.8448      5356.8945     -5671.503       220.27016     -3408.4577      61908.718     -43675.091     -542.91004      68246.658      40.865843      40.865843      40.865843      1.2278869      356.58151      227.4352       1203.9859    
     50000   50000          317.62351      310.89799      24060.229      23749.519      5982.6735      17766.846      3134.1237      5333.8609     -5719.7814      203.13516     -3421.8278      61913.263     -43675.928     -540.68917      68526.979      40.921718      40.921718      40.921718      1.2228641      367.42499      422.62907      142.63989    
     51000   51000          318.95372     -365.42611      23473.185      23839.398      6007.729       17831.669      3087.8815      5460.3777     -5679.0641      207.02112     -3425.7584      61861.34      -43680.129     -539.20134      68716.067      40.959323      40.959323      40.959323      1.2194991      397.01227     -193.96055     -1299.33      
     52000   52000          314.79207     -1095.5851      22600.558      23695.724      5929.3412      17766.383      3132.3973      5344.9669     -5713.0172      220.09298     -3474.3066      61934.065     -43677.815     -540.56916      68542.193      40.924747      40.924747      40.924747      1.2225926     -1320.1763      27.421124     -1994         
     53000   53000          319.55125      0.85218724     23911.493      23910.638      6018.9839      17891.654      3126.3724      5355.7195     -5656.1472      220.50263     -3398.4467      61921.413     -43677.759     -539.04877      68735.516      40.963187      40.963187      40.963187      1.219154      -1331.5575      1195.9327      138.18132    
     54000   54000          311.38444     -772.52839      22948.467      23721.617      5865.156       17856.461      3289.8595      5458.9323     -5732.901       221.36418     -3508.3341      61818.532     -43690.992     -539.92766      68623.63       40.940948      40.940948      40.940948      1.2211418      786.40097     -2959.9683     -144.01782    
     55000   55000          315.34649     -1302.7099      22558.57       23868.637      5939.7841      17928.853      3250.5557      5426.6102     -5690.6925      222.45887     -3499.2914      61898.097     -43678.885     -537.32765      68955.684      41.006877      41.006877      41.006877      1.2152614     -1240.7182     -2734.3724      66.960853    
     56000   56000          317.93748     -643.62789      23114.835      23754.797      5988.5873      17766.21       3196.4151      5418.3467     -5648.0267      221.71205     -3530.5731      61800.613     -43692.277     -543.45765      68177.89       40.852112      40.852112      40.852112      1.2291255     -314.63793     -1740.3418      124.09603    
     57000   57000          310.42536     -674.00229      22936.807      23608.444      5847.0909      17761.353      3154.5626      5335.5379     -5664.7846      224.4841      -3499.8367      61897.91      -43686.52      -542.26499      68327.841      40.882041      40.882041      40.882041      1.2264281     -853.85494     -1688.4536      520.30164    
     58000   58000          315.27905      247.24153      23996.96       23751.937      5938.5139      17813.423      3130.5606      5346.8383     -5618.6705      199.63769     -3419.2008      61857.104     -43682.846     -545.25584      67953.047      40.807155      40.807155      40.807155      1.2331924      1080.3969     -189.27536     -149.39698    
     59000   59000          315.36759     -1521.4586      22160.236      23672.265      5940.1816      17732.083      3041.0703      5464.0479     -5710.0552      204.59025     -3477.2816      61891.05      -43681.339     -543.73237      68143.443      40.845231      40.845231      40.845231      1.2297468     -1983.4038     -1464.9347     -1116.0373    
     60000   60000          310.25695     -966.49777      22667.387      23632.655      5843.9188      17788.736      3077.7018      5455.8506     -5633.1847      222.52892     -3543.3438      61887.128     -43677.945     -541.05067      68481.194      40.912603      40.912603      40.912603      1.2236817     -463.00771     -1671.2753     -765.21032    
     61000   61000          320.9943       860.10633      24582.736      23724.503      6046.1648      17678.339      3077.6987      5294.7519     -5688.0664      211.37777     -3446.1684      61904.526     -43675.781     -541.54202      68419.059      40.900225      40.900225      40.900225      1.2247929      1393.0849      258.68724      928.54687    
     62000   62000          309.53669     -524.5246       23155.776      23677.394      5830.3522      17847.042      3129.0339      5343.921      -5615.1491      210.58827     -3462.9743      61924.137     -43682.515     -543.37397      68188.389      40.854209      40.854209      40.854209      1.2289362     -423.09829     -610.72287     -539.75263    
     63000   63000          314.75071     -969.94543      22723.396      23684.072      5928.5621      17755.51       3120.1047      5387.2216     -5635.5964      218.77948     -3505.3908      61847.95      -43677.558     -545.57607      67913.162      40.799169      40.799169      40.799169      1.2339166     -870.69352     -1177.9636     -861.17919    
     64000   64000          318.26249      1551.077       25179.839      23636.105      5994.709       17641.396      3053.5313      5335.5187     -5754.6992      215.81726     -3434.8084      61903.29      -43677.253     -542.93271      68243.808      40.865274      40.865274      40.865274      1.2279382      440.04981      1279.1796      2934.0014    
     65000   65000          314.37368     -626.98737      23099.575      23723.24       5921.4605      17801.779      3168.6837      5446.2801     -5720.6387      234.84078     -3503.8534      61858.238     -43681.771     -543.24114      68205.063      40.857539      40.857539      40.857539      1.2286358     -404.66593      533.0045      -2009.3007    
     66000   66000          316.10113     -501.33953      23146.68       23646.474      5953.9983      17692.476      3170.7426      5319.1973     -5703.0287      205.5434      -3463.5817      61854.343     -43690.74      -542.03265      68357.129      40.887881      40.887881      40.887881      1.2259026      54.813599     -1867.9871      309.15496    
     67000   67000          312.29629     -322.18543      23315.432      23636.179      5882.3313      17753.847      3109.3918      5386.9187     -5636.1916      209.33147     -3531.1665      61897.174     -43681.611     -542.7871       68262.116      40.868928      40.868928      40.868928      1.2276089     -750.9698       298.97461     -514.56109    
     68000   68000          319.15195     -163.03513      23617.753      23779.572      6011.4627      17768.109      3136.4814      5342.2004     -5738.8063      230.9745      -3437.2894      61913.721     -43679.172     -544.42387      68056.89       40.827931      40.827931      40.827931      1.2313108     -1066.2793      1106.0013     -528.82748    
     69000   69000          310.17342      328.17873      23913.44       23587.045      5842.3455      17744.699      3083.7083      5388.7232     -5701.1486      224.01858     -3486.749       61916.023     -43679.876     -543.31456      68195.846      40.855699      40.855699      40.855699      1.2288018     -511.98889      1477.4458      19.079233    
     70000   70000          317.55894     -430.79001      23364.708      23795.325      5981.4571      17813.867      3177.1571      5371.2411     -5637.6703      195.81849     -3492.8317      61881.654     -43681.501     -540.57981      68540.843      40.924478      40.924478      40.924478      1.2226167     -58.695825     -122.99694     -1110.6773    
     71000   71000          314.49051     -734.06437      23011.364      23744.316      5923.6611      17820.654      3204.1613      5288.9886     -5673.0408      235.78583     -3426.6424      61874.263     -43682.861     -541.18313      68464.432      40.909264      40.909264      40.909264      1.2239813     -1133.4467     -169.23788     -899.50852    
     72000   72000          311.3022      -262.77461      23409.45       23671.487      5863.6069      17807.88       3230.3418      5281.9486     -5692.3946      224.13784     -3460.3806      61910.626     -43686.399     -541.88421      68375.854      40.891614      40.891614      40.891614      1.2255669     -351.4231       88.567073     -525.46781    
     73000   73000          316.57411      958.07512      24584.483      23634.033      5962.9072      17671.126      3048.497       5378.9899     -5705.1796      216.62567     -3438.4717      61860.303     -43689.639     -544.69727      68022.731      40.821099      40.821099      40.821099      1.2319291      576.14852      1342.2278      955.84902    
     74000   74000          313.38722     -234.99547      23473.279      23708.003      5902.8797      17805.123      3106.4118      5400.8393     -5695.4455      219.69753     -3423.0137      61886.748     -43690.114     -540.98732      68489.213      40.9142        40.9142        40.9142        1.2235384     -87.96672      -1380.7849      763.76516    
     75000   75000          308.79324     -45.570168      23434.559      23479.972      5816.3487      17663.623      3163.4666      5244.5768     -5668.2828      253.59702     -3522.396       61876.213     -43683.551     -542.23068      68332.164      40.882903      40.882903      40.882903      1.2263505     -402.03359     -501.16141      766.4845     
     76000   76000          312.25074      621.95124      24197.499      23579.158      5881.4733      17697.685      3152.9009      5280.0754     -5730.1784      221.28562     -3441.8943      61895.645     -43680.149     -543.51807      68170.311      40.850599      40.850599      40.850599      1.2292621      398.89823      1220.7674      246.18809    
     77000   77000          315.82138     -616.63063      23049.952      23663.56       5948.7291      17714.831      3142.3261      5300.5702     -5676.1234      212.58991     -3511.3217      61930.587     -43683.797     -543.02401      68232.334      40.862984      40.862984      40.862984      1.2281447     -761.91401     -1915.1407      827.16287    
     78000   78000          307.83677      305.65609      23836.399      23532.847      5798.333       17734.514      3115.2161      5276.5943     -5642.4976      229.17907     -3451.1486      61892.785     -43685.615     -544.10772      68096.435      40.835837      40.835837      40.835837      1.2305957      75.086855     -407.44071      1249.3221    
     79000   79000          313.6822      -308.70343      23285.52       23593.01       5908.4359      17684.574      3160.4491      5338.5231     -5725.9832      204.07764     -3483.9621      61865.281     -43673.811     -542.49619      68298.721      40.876232      40.876232      40.876232      1.2269509      1266.4603     -1307.6329     -884.93767    
     80000   80000          311.86799      274.30336      23887.251      23615.018      5874.264       17740.754      3090.0051      5340.8081     -5676.7794      224.39546     -3453.3459      61900.409     -43684.738     -544.47335      68050.705      40.826694      40.826694      40.826694      1.2314227      12.093361     -97.675752      908.49247    
     81000   81000          315.99308      226.99594      24001.233      23774.785      5951.9631      17822.822      3199.9094      5403.812      -5714.6083      221.64737     -3504.6639      61893.702     -43676.976     -541.67055      68402.825      40.89699       40.89699       40.89699       1.2250836      815.66727     -389.77298      255.09354    
     82000   82000          311.91826      30.759843      23656.955      23626.273      5875.2108      17751.062      3112.4194      5382.7826     -5722.8056      210.74784     -3456.1476      61909.896     -43685.83      -541.74268      68393.717      40.895175      40.895175      40.895175      1.2252468     -229.80059      219.68553      102.39459    
     83000   83000          309.04919     -100.63607      23461.311      23561.638      5821.1698      17740.468      3127.7484      5390.4195     -5693.9915      205.57815     -3493.6222      61887.916     -43683.58      -542.02534      68358.051      40.888065      40.888065      40.888065      1.225886       545.4017      -746.91561     -100.3943     
     84000   84000          315.49765      414.32366      24060.985      23647.427      5942.6314      17704.795      3139.7966      5239.6471     -5687.6582      206.71089     -3402.6887      61898.665     -43689.677     -541.36241      68441.76       40.904748      40.904748      40.904748      1.2243867      811.29204      901.51708     -469.83815    
     85000   85000          320.13292     -293.60966      23485.495      23777.614      6029.94        17747.674      3084.4008      5411.6303     -5689.6436      213.4539      -3493.4352      61905.587     -43684.32      -543.11886      68220.418      40.860605      40.860605      40.860605      1.2283592      926.37286     -789.62005     -1017.5818    
     86000   86000          308.48926     -284.46876      23224.123      23505.818      5810.6232      17695.195      3154.3885      5306.1244     -5694.3223      223.19078     -3491.9789      61879.593     -43681.8       -545.68273      67899.888      40.796511      40.796511      40.796511      1.2341579     -2116.9731     -114.15117      1377.718     
     87000   87000          309.14957      75.704799      23655.148      23579.969      5823.0605      17756.908      3153.3121      5370.4396     -5693.1124      229.38837     -3468.9547      61859.214     -43693.378     -544.14002      68092.392      40.835029      40.835029      40.835029      1.2306688      959.9649      -284.7704      -448.0801     
     88000   88000          310.34558      1226.5436      24908.288      23687.342      5845.5883      17841.753      3148.6524      5340.6261     -5656.1273      211.42312     -3416.2851      61900.895     -43687.431     -542.83937      68255.542      40.867616      40.867616      40.867616      1.2277271      1230.6735      1451.1076      997.84967    
     89000   89000          308.35301      950.16347      24429.274      23486.793      5808.0568      17678.737      3136.714       5311.4198     -5743.4857      210.69317     -3458.049       61908.912     -43687.467     -544.76752      68013.959      40.819344      40.819344      40.819344      1.232088       702.1736       1311.9549      836.36187    
     90000   90000          310.72181      640.69909      24240.231      23602.495      5852.6748      17749.82       3141.9155      5386.4844     -5701.3455      215.23231     -3455.0727      61846.895     -43684.289     -542.87278      68251.342      40.866778      40.866778      40.866778      1.2278027      275.10352      507.04296      1139.9508    
     91000   91000          304.45029     -135.21418      23250.661      23385.346      5734.5461      17650.8        3016.1311      5369.0215     -5671.5568      213.79189     -3487.8337      61898.638     -43687.393     -542.48453      68300.189      40.876525      40.876525      40.876525      1.2269246      680.50874     -1234.3428      148.19146    
     92000   92000          310.15212     -19.425014      23549.752      23569.185      5841.9443      17727.241      3087.9318      5331.8772     -5657.9209      236.50613     -3485.4725      61896.342     -43682.023     -540.14215      68596.38       40.935528      40.935528      40.935528      1.2216269     -1044.6607      389.05753      597.32807    
     93000   93000          319.54186      835.83372      24594.939      23759.251      6018.807       17740.444      3079.1045      5375.465      -5725.6347      225.64974     -3463.5089      61924.338     -43674.97      -540.45663      68556.465      40.927587      40.927587      40.927587      1.2223381      2042.9898      276.32133      188.19004    
     94000   94000          307.43621      666.96279      24221.826      23559.06       5790.7881      17768.271      3025.5695      5372.5975     -5624.7195      214.68477     -3470.1075      61935.607     -43685.36      -543.78363      68137.019      40.843948      40.843948      40.843948      1.2298627      1038.6019      628.69193      333.59452    
     95000   95000          312.41144      39.099714      23642.407      23603.647      5884.5002      17719.147      3160.3396      5364.4119     -5689.1429      186.94146     -3510.2309      61892.908     -43686.079     -545.10213      67972.209      40.81099       40.81099       40.81099       1.2328447      1036.3311     -322.3663      -596.66563    
     96000   96000          314.95183      1671.6489      25112.69       23455.67       5932.3504      17523.32       3026.8716      5313.5312     -5716.5584      209.27192     -3473.3906      61853.489     -43689.896     -545.13308      67968.35       40.810217      40.810217      40.810217      1.2329147      948.23405      1366.0367      2700.6761    
     97000   97000          313.96148     -114.81135      23482.045      23596.241      5913.6963      17682.544      3149.4771      5387.1554     -5696.4416      214.02868     -3531.8054      61844.493     -43684.363     -543.27782      68200.458      40.85662       40.85662       40.85662       1.2287187      1474.9936     -2066.4811      247.05339    
     98000   98000          313.33253      425.69447      24041.754      23619.875      5901.8496      17718.026      3137.6283      5290.6995     -5692.5147      209.61466     -3409.5711      61862.619     -43680.449     -545.24942      67953.847      40.807315      40.807315      40.807315      1.2331779      780.9248       241.31736      254.84125    
     99000   99000          315.85976      624.07495      24164.834      23546.135      5949.4519      17596.683      3084.669       5229.6887     -5690.914       195.38089     -3472.7748      61933.75      -43683.117     -545.05806      67977.704      40.81209       40.81209       40.81209       1.2327451      792.97518      1523.6537     -444.40401    
    100000   100000         314.72171     -1106.6468      22451.961      23548.292      5928.0159      17620.276      3106.7389      5317.0038     -5710.7998      212.88851     -3502.4816      61875.685     -43678.758     -545.44672      67929.267      40.802394      40.802394      40.802394      1.2336241     -2362.5989      326.87656     -1284.2179    
    101000   101000         309.49051     -848.78752      22673.67       23517.252      5829.4823      17687.769      3213.5663      5398.9112     -5758.4043      231.28186     -3530.7171      61819.239     -43686.108     -543.69709      68147.865      40.846115      40.846115      40.846115      1.229667      -581.69115     -1271.128      -693.54342    
    102000   102000         315.81026     -699.77813      23012.548      23709.065      5948.5196      17760.546      3104.6294      5399.629      -5659.8405      220.22288     -3520.6416      61899.936     -43683.389     -542.89181      68248.95       40.866301      40.866301      40.866301      1.2278457     -1846.4841     -140.94241     -111.90784    
    103000   103000         309.42206     -221.42528      23341.884      23561.239      5828.1931      17733.045      3134.0627      5325.1075     -5688.5027      225.17705     -3445.1662      61867.918     -43685.551     -545.46247      67927.305      40.802001      40.802001      40.802001      1.2336597     -1403.8153     -99.553512      839.09295    
    104000   104000         309.8481       327.12266      23841.567      23518.283      5836.2178      17682.065      3107.5225      5353.7483     -5653.6711      201.83988     -3561.4253      61912.673     -43678.622     -546.77831      67763.836      40.769244      40.769244      40.769244      1.2366357      42.739162      99.97522       838.65361    
    105000   105000         312.83758      961.77902      24565.334      23613.422      5892.5269      17720.896      3098.6411      5355.6494     -5681.7637      217.44603     -3439.7839      61860.665     -43689.959     -545.964        67864.906      40.789503      40.789503      40.789503      1.234794       765.75292      681.40573      1438.1784    
    106000   106000         312.87566      320.71876      23822.932      23505.002      5893.2442      17611.758      3018.7618      5312.6109     -5688.6056      197.98926     -3485.3611      61938.494     -43682.131     -545.10207      67972.216      40.810991      40.810991      40.810991      1.2328446     -203.67794     -123.28131      1289.1155    
    107000   107000         307.92863     -505.10574      22998.182      23500.306      5800.0633      17700.243      3146.5071      5344.2637     -5706.7845      206.77504     -3527.437       61914.969     -43678.05      -543.57039      68163.749      40.849288      40.849288      40.849288      1.2293805     -1788.6995      614.01073     -340.6285     
    108000   108000         314.36414      1165.7713      24838.02       23682.188      5921.2809      17760.907      3156.9863      5417.3451     -5710.306       225.0046      -3566.7933      61916.845     -43678.175     -545.00898      67983.826      40.813315      40.813315      40.813315      1.2326341      3012.8817     -114.13593      598.56824    
    109000   109000         302.16907      1590.6957      25011.76       23427.672      5691.5776      17736.094      3131.721       5297.3637     -5704.9697      211.50193     -3383.4086      61862.147     -43678.26      -542.6166       68283.565      40.873208      40.873208      40.873208      1.2272233      3039.9541      1596.6511      135.48198    
    110000   110000         310.41774     -315.12676      23220.848      23534.076      5846.9475      17687.129      3138.7754      5407.7962     -5740.5174      218.41165     -3538.9998      61885.008     -43683.345     -543.63803      68155.268      40.847594      40.847594      40.847594      1.2295334     -568.36474     -515.80812      138.79257    
    111000   111000         305.64321     -754.30799      22710.262      23461.574      5757.0157      17704.559      3160.4815      5263.5759     -5738.1809      214.45022     -3404.7734      61894.448     -43685.443     -542.5168       68296.126      40.875715      40.875715      40.875715      1.2269976     -129.76764     -1165.1161     -968.04026    
    112000   112000         310.73566      391.58367      23913.897      23525.725      5852.9358      17672.789      3138.3566      5372.5406     -5734.6377      228.15789     -3548.8232      61895.569     -43678.374     -545.11143      67971.049      40.810758      40.810758      40.810758      1.2328658      308.32928     -481.16275      1347.5845    
    113000   113000         312.8492      -409.13236      23092.956      23497.329      5892.7458      17604.583      3016.6615      5365.902      -5703.4281      221.40496     -3515.6536      61900.084     -43680.387     -546.72306      67770.684      40.770618      40.770618      40.770618      1.2365108      298.64835     -211.43682     -1314.6086    
    114000   114000         315.68147      605.08025      24223.276      23622.777      5946.0938      17676.683      3201.3925      5203.7764     -5726.5637      220.2996      -3430.0637      61892.671     -43684.829     -544.48415      68049.356      40.826424      40.826424      40.826424      1.2314471     -1276.3967      934.13003      2157.5074    
    115000   115000         306.45974     -132.41169      23165.234      23296.157      5772.3955      17523.761      3058.9835      5250.9785     -5696.9658      238.36227     -3541.1709      61892.598     -43679.024     -546.50577      67797.629      40.77602       40.77602       40.77602       1.2360193     -917.66207     -497.30509      1017.7321    
    116000   116000         311.91513      135.32574      23733.744      23599.108      5875.152       17723.956      3120.7224      5314.3707     -5651.437       213.67925     -3464.2614      61873.166     -43682.284     -543.13075      68218.924      40.860307      40.860307      40.860307      1.2283861     -1236.7662      649.35926      993.38415    
    117000   117000         307.83904      67.740544      23464.971      23397.645      5798.3758      17599.269      3030.7748      5378.5125     -5685.5311      193.09003     -3525.9073      61885.602     -43677.272     -543.68842      68148.952      40.846332      40.846332      40.846332      1.2296474      44.578478      475.19328     -316.55013    
    118000   118000         315.78849      2464.3496      26033.042      23607.474      5948.1095      17659.364      2988.3722      5359.653      -5657.327       214.60153     -3478.0033      61904.825     -43672.757     -549.00203      67489.36       40.714125      40.714125      40.714125      1.2416651      3503.0301      1743.8143      2146.2043    
    119000   119000         308.61043     -438.71823      23051.645      23487.64       5812.9054      17674.734      3052.3548      5351.8202     -5678.3662      202.19877     -3517.1337      61943.469     -43679.609     -543.73841      68142.686      40.84508       40.84508       40.84508       1.2297605     -907.89207     -298.5222      -109.74041    
    120000   120000         310.3222       279.16671      23698.89       23421.978      5845.1478      17576.831      3045.0854      5319.7223     -5731.5224      199.45778     -3504.8361      61926.161     -43677.238     -544.7638       68014.423      40.819437      40.819437      40.819437      1.2320796      1018.1649      207.50666     -388.17139    
    121000   121000         312.0534      -1019.0718      22536.134      23550.373      5877.7564      17672.616      3146.6004      5297.156      -5670.8914      188.58324     -3492.7098      61887.977     -43684.099     -542.93722      68243.241      40.865161      40.865161      40.865161      1.2279484     -1176.2772     -1010.9979     -869.9404     
    122000   122000         308.80626     -1898.8126      21559.642      23440.168      5816.594       17623.574      3137.7974      5304.7528     -5667.9292      237.99574     -3558.8805      61855.514     -43685.676     -545.61687      67908.083      40.798152      40.798152      40.798152      1.2340089     -2022.5402     -1861.8908     -1812.0067    
    123000   123000         313.3131       2185.8792      25796.566      23625.854      5901.4837      17724.37       3094.671       5346.5115     -5723.9042      229.14645     -3443.7316      61904.741     -43683.064     -544.13799      68092.647      40.835079      40.835079      40.835079      1.2306642      1955.652       542.7075       4059.2783    
    124000   124000         308.71614      851.29517      24308.594      23458.315      5814.8965      17643.418      3035.4665      5323.9912     -5665.2357      218.07058     -3480.7901      61896.618     -43684.702     -541.00837      68486.548      40.913669      40.913669      40.913669      1.223586       1508.4882     -428.77756      1474.1749    
    125000   125000         309.85547     -333.17224      23147.689      23480.607      5836.3567      17644.251      3040.1971      5330.8516     -5685.6592      226.74325     -3449.2021      61860.73      -43679.41      -540.77508      68516.094      40.919552      40.919552      40.919552      1.2230584     -265.06628     -227.86648     -506.58395    
    126000   126000         308.13198     -408.22793      23127.158      23533.788      5803.8934      17729.894      3151.0405      5336.8476     -5664.7767      212.42962     -3514.938       61893.534     -43684.242     -542.4868       68299.903      40.876468      40.876468      40.876468      1.2269297     -699.6012      -12.884914     -512.19769    
    127000   127000         308.45524     -413.46679      23004.035      23416.823      5809.9824      17606.841      3021.98        5300.702      -5715.7592      237.07434     -3447.1311      61886.31      -43676.335     -541.25088      68455.862      40.907557      40.907557      40.907557      1.2241345      86.266571     -948.45421     -378.21272    
    128000   128000         305.22032     -0.14597385     23431.497      23431.641      5749.0501      17682.591      3135.0088      5329.2968     -5696.0632      228.12321     -3501.2921      61871.792     -43684.274     -546.23044      67831.803      40.78287       40.78287       40.78287       1.2353966     -1416.7652      111.82269      1304.5045    
    129000   129000         302.07704      1372.6488      24677.751      23322.128      5689.8442      17632.284      3080.8522      5263.6171     -5655.0277      213.89322     -3490.2004      61897.584     -43678.435     -547.14923      67717.898      40.760029      40.760029      40.760029      1.2374746      1052.0677      1991.4911      1074.3878    
    130000   130000         313.18985      470.57483      24076.512      23609.018      5899.1623      17709.856      3134.8381      5350.163      -5702.5075      222.63021     -3479.9021      61866.037     -43681.403     -543.92351      68119.497      40.840446      40.840446      40.840446      1.2301791     -68.956635     -113.13607      1593.8172    
    131000   131000         307.98996      56.104891      23477.545      23421.612      5801.2184      17620.394      3082.5438      5353.414      -5740.4526      204.90697     -3490.309       61895.264     -43684.974     -542.01888      68358.866      40.888227      40.888227      40.888227      1.2258714     -648.48554     -1173.1964      1989.9967    
    132000   132000         312.27674      1227.2637      24824.398      23601.329      5881.9631      17719.366      3138.3644      5328.3916     -5690.6203      211.77022     -3432.5092      61850.463     -43686.494     -542.21587      68334.03       40.883275      40.883275      40.883275      1.226317       1121.0611      2303.7703      256.95989    
    133000   133000         315.9615      -181.64659      23332.169      23512.902      5951.3683      17561.533      3031.411       5324.6878     -5724.0061      192.67655     -3512.9332      61932.163     -43682.465     -543.09383      68223.562      40.861233      40.861233      40.861233      1.2283026      1025.4954     -1885.4383      315.00315    
    134000   134000         309.18342     -1279.1791      22291.288      23567.019      5823.698       17743.321      3147.2874      5425.5521     -5713.8151      222.83017     -3505.7399      61844.826     -43677.62      -541.82311      68383.564      40.893151      40.893151      40.893151      1.2254287     -2046.9728     -364.62374     -1425.9407    
    135000   135000         314.73124      1304.354       24878.03       23576.954      5928.1954      17648.758      3129.3918      5262.2763     -5745.5423      218.53064     -3424.8071      61885.41      -43676.5       -541.72396      68396.081      40.895646      40.895646      40.895646      1.2252044      718.04015      926.59295      2268.4288    
    136000   136000         305.05626     -956.03782      22473.335      23420.516      5745.9601      17674.556      3161.9165      5312.2085     -5715.1159      218.32438     -3480.9833      61869.562     -43691.356     -545.41483      67933.239      40.803189      40.803189      40.803189      1.233552      -2162.4383     -803.33695      97.661784    
    137000   137000         307.74177      1916.1275      25276.428      23372.646      5796.5435      17576.103      3010.9792      5260.215      -5738.4403      220.41734     -3457.7437      61957.584     -43676.909     -543.86656      68126.629      40.841871      40.841871      40.841871      1.2300503      1654.4912      1206.6094      2887.2818    
    138000   138000         309.53716     -584.55349      22867.887      23451.682      5830.3611      17621.321      3026.9484      5358.8345     -5704.7748      217.03791     -3437.5946      61851.264     -43690.395     -541.06398      68479.509      40.912267      40.912267      40.912267      1.2237118     -1220.5665     -735.75047      202.65652    
    139000   139000         308.80079     -277.37537      23172.81       23448.575      5816.491       17632.084      3123.4657      5325.8652     -5724.591       198.03976     -3484.464       61873.249     -43679.481     -543.51848      68170.259      40.850588      40.850588      40.850588      1.2292631     -407.42283     -596.68473      171.98144    
    140000   140000         313.47647      204.94519      23860.59       23656.326      5904.5609      17751.765      2994.009       5418.6822     -5670.4904      212.47488     -3409.1425      61895.22      -43688.988     -542.16422      68340.541      40.884573      40.884573      40.884573      1.2262001     -1310.4568      629.73354      1295.5589    
    141000   141000         308.36702      1010.659       24400.893      23396.343      5808.3205      17588.023      3060.1516      5335.4134     -5788.0757      199.34161     -3473.3878      61934.142     -43679.562     -543.64866      68153.936      40.847327      40.847327      40.847327      1.2295575      1435.108       282.95688      1313.9121    
    142000   142000         309.21257     -418.82797      23129.022      23546.97       5824.2473      17722.723      3208.1447      5302.8111     -5756.0379      212.89702     -3414.9298      61853.02      -43683.182     -541.50049      68424.308      40.901271      40.901271      40.901271      1.224699      -1453.2588      834.04919     -637.27432    
    143000   143000         307.35128     -496.51892      22963.438      23456.562      5789.1884      17667.374      3190.9474      5319.3059     -5756.174       205.79991     -3502.0989      61891.261     -43681.668     -544.08221      68099.627      40.836475      40.836475      40.836475      1.230538      -2076.0457      418.64224      167.84665    
    144000   144000         309.43116      114.82197      23551.599      23437.774      5828.3645      17609.41       3041.7284      5315.2778     -5706.919       226.70331     -3491.04        61910.155     -43686.496     -545.09788      67972.739      40.811096      40.811096      40.811096      1.2328351      475.57553      673.32681     -804.43643    
    145000   145000         311.38257      218.28181      23578.167      23361.845      5865.1208      17496.724      3012.0654      5256.9527     -5696.3189      221.29721     -3494.2528      61885.967     -43688.987     -545.25741      67952.852      40.807115      40.807115      40.807115      1.2331959      558.86677      731.30721     -635.32855    
    146000   146000         309.95859     -236.02436      23133.633      23367.838      5838.2989      17529.539      3041.1736      5232.4572     -5675.981       227.94648     -3492.1428      61876.221     -43680.135     -544.55871      68040.038      40.82456       40.82456       40.82456       1.2316157     -1160.7324     -177.64839      630.30773    
    147000   147000         304.79918      1493.3358      24823.521      23349.501      5741.1177      17608.383      3007.8218      5300.154      -5667.2648      198.07257     -3433.52        61889.464     -43686.344     -547.4433       67681.522      40.75273       40.75273       40.75273       1.2381397      1242.9227      1621.3274      1615.7572    
    148000   148000         303.60475      306.67924      23721.263      23417.908      5718.6198      17699.288      3171.7227      5267.7085     -5677.5771      197.10448     -3478.1314      61897.782     -43679.321     -546.28412      67825.138      40.781534      40.781534      40.781534      1.235518       7.0624143      976.55706     -63.58175     
    149000   149000         303.88463      128.9566       23591.453      23464.111      5723.8915      17740.219      3166.65        5322.3439     -5683.3379      231.02869     -3497.9811      61880.173     -43678.657     -547.21206      67710.123      40.75847       40.75847       40.75847       1.2376167     -654.99371      1415.2629     -373.39935    
    150000   150000         308.23998     -52.867812      23367.872      23420.438      5805.9277      17614.51       3078.8005      5365.5402     -5772.3998      214.171       -3505.0656      61909.794     -43676.331     -543.47242      68176.037      40.851742      40.851742      40.851742      1.2291589      109.22416      292.08209     -559.90968    
    151000   151000         309.16382      1193.2797      24627.322      23442.491      5823.3289      17619.163      3044.7576      5295.0372     -5711.0111      211.50633     -3439.9677      61900.234     -43681.393     -544.21583      68082.907      40.833132      40.833132      40.833132      1.2308402     -49.704242      1244.2053      2385.3381    
    152000   152000         306.91694     -230.3147       23187.724      23416.777      5781.0073      17635.77       3037.8762      5416.9565     -5710.2656      205.71928     -3506.0182      61871.656     -43680.154     -543.33867      68192.819      40.855094      40.855094      40.855094      1.2288564      171.83694     -1355.0461      492.26506    
    153000   153000         310.23534     -1192.6227      22232.436      23417.138      5843.5119      17573.626      3123.5947      5258.5109     -5675.6416      231.28485     -3540.9453      61865.67      -43688.847     -543.97537      68113.003      40.839148      40.839148      40.839148      1.2302964     -3030.4104      1324.1145     -1871.5721    
    154000   154000         310.73484      393.86843      23870.104      23477.532      5852.9203      17624.611      3127.705       5307.6904     -5730.9621      206.20885     -3478.6694      61878.994     -43686.355     -542.14637      68342.79       40.885022      40.885022      40.885022      1.2261598     -63.689788     -623.67229      1868.9674    
    155000   155000         305.29403     -454.15541      22882.372      23330.74       5750.4385      17580.302      3085.3947      5292.7962     -5701.6685      209.86251     -3473.0385      61855.842     -43688.887     -547.3369       67694.678      40.75537       40.75537       40.75537       1.2378991     -2000.3004     -1088.5944      1726.4285    
    156000   156000         308.70393     -366.68388      23040.554      23402.033      5814.6666      17587.366      3149.7078      5274.2361     -5706.5389      223.34097     -3535.3938      61866.11      -43684.096     -548.14307      67595.118      40.73538       40.73538       40.73538       1.2397224      508.29285     -1171.785      -436.55952    
    157000   157000         308.43997     -271.18313      23106.471      23374.943      5809.6946      17565.249      3131.6102      5270.338      -5761.0177      220.90308     -3521.9781      61905.725     -43680.331     -545.81917      67882.914      40.793111      40.793111      40.793111      1.2344665     -930.81002      176.04589     -58.785241    
    158000   158000         304.41011      1026.0259      24445.723      23428.206      5733.7893      17694.416      3087.0642      5333.4869     -5731.8438      224.11912     -3487.8164      61948.757     -43679.351     -544.88069      67999.833      40.816518      40.816518      40.816518      1.2323439      1800.3        -146.23919      1424.0168    
    159000   159000         302.89046      925.16281      24079.858      23159.1        5705.1655      17453.934      2973.9094      5292.0988     -5725.9782      194.7085      -3495.2907      61900.699     -43686.213     -542.94717      68241.991      40.864912      40.864912      40.864912      1.2279709      1336.2294      3.7151576      1435.5439    
    160000   160000         310.67026     -548.19346      22828.45       23369.372      5851.7039      17517.668      3018.7789      5312.6933     -5637.0618      214.59028     -3603.7783      61895.972     -43683.525     -547.62612      67658.927      40.748194      40.748194      40.748194      1.2385532     -17.6098       -1574.3657     -52.604927    
    161000   161000         308.71273      466.62323      23768.84       23309.679      5814.8322      17494.847      3048.7319      5309.9129     -5675.9682      197.04477     -3581.1781      61878.604     -43682.3       -549.14473      67471.822      40.710598      40.710598      40.710598      1.2419878      1252.3344      219.57599     -72.040727    
    162000   162000         305.21604      584.3765       23792.905      23213.788      5748.9695      17464.818      3103.6972      5178.9303     -5698.1738      205.10612     -3539.5635      61896.945     -43682.123     -545.27003      67951.279      40.806801      40.806801      40.806801      1.2332245      982.72747      349.2516       421.15042    
    163000   163000         304.17697     -1186.1694      22086.08       23268.224      5729.3979      17538.826      3091.7076      5231.5155     -5691.6321      200.09301     -3483.5327      61881.503     -43690.829     -542.20271      68335.689      40.883606      40.883606      40.883606      1.2262872     -1078.7537     -1740.1964     -739.5582     
    164000   164000         302.66033     -125.15791      23112.104      23236.081      5700.8309      17535.251      3013.7429      5269.6191     -5655.6905      219.84249     -3545.6273      61912.56      -43679.196     -545.50695      67921.767      40.800892      40.800892      40.800892      1.2337603      685.63776     -1310.2539      249.14237    
    165000   165000         311.04878      590.82997      23988.082      23402.512      5858.8335      17543.678      2967.8307      5359.7661     -5671.6814      202.57738     -3525.6525      61897.431     -43686.592     -545.21622      67957.985      40.808143      40.808143      40.808143      1.2331028      1329.8669      1311.6009     -868.97798    
    166000   166000         303.43072     -548.07461      22841.572      23382.095      5715.3418      17666.753      3127.1464      5321.3066     -5640.5544      207.12634     -3534.5736      61878.175     -43691.873     -547.91177      67623.654      40.741112      40.741112      40.741112      1.2391992     -1744.6567     -1091.5528      1191.9857    
    167000   167000         312.51234      161.50811      23643.059      23482.887      5886.4008      17596.486      3028.4379      5292.6859     -5699.6372      225.60029     -3496.8474      61925.955     -43679.709     -544.86832      68001.377      40.816827      40.816827      40.816827      1.2323159      922.89198     -749.9593       311.59165    
    168000   168000         304.18836     -600.7674       22602.719      23198.109      5729.6126      17468.497      3069.0388      5252.3848     -5708.5456      199.51854     -3532.7278      61875.584     -43686.756     -545.24286      67954.665      40.807478      40.807478      40.807478      1.233163      -105.47344     -1884.441       187.61219    
    169000   169000         307.87247     -698.21611      22724.809      23419.404      5799.0053      17620.398      3129.8366      5295.3654     -5669.2944      192.40366     -3531.5667      61884.313     -43680.659     -543.17987      68212.756      40.859075      40.859075      40.859075      1.2284972     -1241.6065     -1126.5257      273.48384    
    170000   170000         312.84543     -300.30921      23152.23       23450.515      5892.6748      17557.84       3167.5343      5307.0633     -5750.7569      191.36962     -3548.4362      61876.92      -43685.854     -544.02944      68106.233      40.837795      40.837795      40.837795      1.2304187     -409.73962     -433.05057     -58.137447    
    171000   171000         304.09695     -455.19817      22866.82       23317.308      5727.8907      17589.417      3129.0434      5293.4296     -5715.9675      231.94988     -3505.3734      61851.723     -43695.388     -546.01304      67858.811      40.788282      40.788282      40.788282      1.2349049     -125.94349      30.117542     -1269.7686    
    172000   172000         309.18945      312.93739      23633.509      23323.795      5823.8118      17499.983      3041.6791      5287.713      -5676.3279      207.08061     -3551.0077      61875.298     -43684.452     -545.98712      67862.032      40.788928      40.788928      40.788928      1.2348463     -89.681622      1112.2307     -83.73688     
    173000   173000         301.77344     -121.80512      23186.551      23306.611      5684.1257      17622.486      3135.9763      5343.547      -5656.9492      238.68466     -3621.9546      61875.446     -43692.265     -548.21285      67586.515      40.733652      40.733652      40.733652      1.2398802      519.2724       622.55165     -1507.2394    
    174000   174000         306.51736     -585.38068      22755.781      23334.061      5773.4809      17560.58       3119.1957      5321.2285     -5713.1387      218.43247     -3516.0305      61816.603     -43685.711     -546.99791      67736.632      40.763788      40.763788      40.763788      1.2371324     -2404.5471      847.84354     -199.43849    
    175000   175000         303.60545     -121.79972      23168.392      23289.211      5718.6329      17570.579      3096.5731      5273.249      -5662.3895      209.22507     -3499.9473      61843.074     -43689.206     -544.74518      68016.748      40.819902      40.819902      40.819902      1.2320374      59.137282     -560.89998      136.36353    
    176000   176000         301.32685      678.02835      23936.798      23262.388      5675.7137      17586.674      3125.2815      5320.54       -5730.164       214.22084     -3502.882       61843.119     -43683.441     -543.26157      68202.497      40.857027      40.857027      40.857027      1.228682      -1718.4218      663.87427      3088.6325    
    177000   177000         306.53613     -493.14154      22856.576      23348.029      5773.8345      17574.195      3102.6534      5254.3209     -5673.5067      208.08501     -3497.4484      61852.864     -43672.774     -542.21859      68333.688      40.883207      40.883207      40.883207      1.2263231      581.28088     -1787.903      -272.80253    
    178000   178000         303.96797      1051.8143      24345.208      23300.818      5725.4613      17575.357      3165.6836      5262.373      -5757.4043      206.98999     -3480.1232      61856.02      -43678.182     -544.20403      68084.383      40.833427      40.833427      40.833427      1.2308135      2070.5873      1094.2886     -9.4330453    
    179000   179000         300.55338     -834.19503      22368.977      23200.579      5661.145       17539.434      3103.5998      5190.198      -5696.7906      207.72438     -3501.3968      61914.339     -43678.24      -542.04757      68355.247      40.887506      40.887506      40.887506      1.2259363      142.45306     -470.33187     -2174.7063    
    180000   180000         304.86847      580.17158      23854.82       23279.747      5742.4228      17537.324      3115.9699      5197.037      -5691.168       201.87103     -3431.873       61835.355     -43689.868     -545.15305      67965.86       40.809719      40.809719      40.809719      1.2329599     -430.07944      1129.9367      1040.6575    
    181000   181000         303.0146       1.4464547      23227.876      23226.444      5707.5038      17518.941      3234.5306      5227.0542     -5733.0451      178.25576     -3557.1153      61861.196     -43691.935     -545.95511      67866.011      40.789725      40.789725      40.789725      1.2347739      602.76495     -1651.0923      1052.6667    
    182000   182000         304.26576      246.24812      23453.041      23209.656      5731.0703      17478.586      3048.9838      5305.171      -5742.5807      192.32918     -3504.1184      61860.9       -43682.098     -546.71893      67771.196      40.77072       40.77072       40.77072       1.2365014      644.69393     -155.51184      249.56228    
    183000   183000         305.8417      -915.14964      22443.638      23353.115      5760.7544      17592.361      3037.9262      5363.7357     -5681.3871      220.86373     -3556.4702      61892.402     -43684.71      -543.73276      68143.394      40.845221      40.845221      40.845221      1.2297477     -2097.0337     -325.69535     -322.71989    
    184000   184000         304.05597      1325.8429      24615.437      23298.997      5727.1188      17571.879      3011.0355      5301.0159     -5678.202       232.32195     -3466.5075      61859.56      -43687.346     -544.22227      68082.102      40.832971      40.832971      40.832971      1.2308548      969.33809      1452.9496      1555.241     
    185000   185000         304.80198      263.00021      23528.896      23267.221      5741.1705      17526.05       3076.5175      5355.6436     -5732.7005      195.18462     -3516.064       61838.058     -43690.589     -543.09743      68223.11       40.861142      40.861142      40.861142      1.2283108      1658.8859     -1145.5862      275.70092    
    186000   186000         307.31303     -225.58626      23063.529      23285.667      5788.4679      17497.2        3026.1885      5303.4295     -5683.7355      204.81783     -3566.1472      61896.085     -43683.438     -548.75019      67520.333      40.720352      40.720352      40.720352      1.2410955     -1067.6382     -758.15329      1149.0327    
    187000   187000         303.87351     -754.91973      22557.814      23300.876      5723.682       17577.194      3161.8491      5340.9127     -5718.4383      207.19526     -3596.6893      61866.663     -43684.298     -548.9852       67491.43       40.714541      40.714541      40.714541      1.241627      -1343.7318     -179.82142     -741.206      
    188000   188000         302.67437      1154.2899      24272.937      23130.489      5701.0954      17429.393      2929.578       5264.2379     -5667.8799      208.51972     -3527.4987      61905.206     -43682.77      -545.9635       67864.969      40.789516      40.789516      40.789516      1.2347929      868.13873      1019.6013      1575.1297    
    189000   189000         309.28528      636.11544      23880.713      23252.469      5825.6167      17426.853      3021.7822      5128.6029     -5651.1196      227.27711     -3528.8509      61914.294     -43685.133     -547.1327       67719.944      40.76044       40.76044       40.76044       1.2374372      825.52356      1112.2615     -29.438778    
    190000   190000         305.71823     -297.26655      22952.18       23245.954      5758.4287      17487.526      3017.4522      5208.0127     -5667.5227      217.79446     -3464.0433      61871.487     -43695.655     -546.78663      67762.806      40.769038      40.769038      40.769038      1.2366545      504.10721     -1625.4848      229.57792    
    191000   191000         304.67219     -1698.4513      21586.091      23266.512      5738.7257      17527.787      3024.8735      5352.5453     -5732.7872      223.03844     -3495.9183      61842.639     -43686.605     -546.16027      67840.518      40.784617      40.784617      40.784617      1.2352379     -2732.0889     -2916.4067      553.1417     
    192000   192000         303.15909      673.42199      23949.111      23281.993      5710.2255      17571.767      3080.6703      5235.4463     -5713.5554      216.43881     -3499.392       61936.239     -43684.08      -545.46837      67926.571      40.801854      40.801854      40.801854      1.2336731     -652.62386      1265.4498      1407.44      
    193000   193000         305.69583     -520.48675      22845.966      23364.521      5758.0068      17606.514      3121.5176      5342.1319     -5686.7157      201.26097     -3559.9945      61868.485     -43680.172     -542.37549      68313.92       40.879264      40.879264      40.879264      1.226678      -370.0735      -1023.8838     -167.50294    
    194000   194000         303.66365      142.88129      23294.222      23152.247      5719.7292      17432.517      3049.4067      5291.2271     -5730.7887      202.82539     -3593.7158      61896.86      -43683.297     -543.81132      68133.55       40.843254      40.843254      40.843254      1.2299254     -63.430467      426.5907       65.483638    
    195000   195000         303.75137      1545.5263      24807.776      23281.474      5721.3814      17560.093      3060.7423      5224.4556     -5693.0451      202.60732     -3448.2666      61897.264     -43683.665     -547.1686       67715.5        40.759548      40.759548      40.759548      1.2375184      742.49739      2860.3736      1033.7079    
    196000   196000         304.04251      1061.3541      24298.978      23248.16       5726.8653      17521.295      3098.1488      5228.6394     -5753.0796      212.16573     -3478.5989      61901.421     -43687.402     -545.78085      67887.68       40.794065      40.794065      40.794065      1.2343798     -171.10296      1789.137       1566.0283    
    197000   197000         301.1344      -416.02784      22723.68       23134.776      5672.0889      17462.687      3003.7884      5225.0033     -5671.9036      205.41957     -3490.8155      61877.132     -43685.938     -546.84536      67755.528      40.767578      40.767578      40.767578      1.2367874     -837.23078     -602.81833      191.9656     
    198000   198000         307.39753     -1114.4114      22229.103      23338.28       5790.0596      17548.22       3077.4819      5247.9482     -5708.3986      212.32427     -3486.2352      61891.747     -43686.647     -542.91296      68246.29       40.86577       40.86577       40.86577       1.2278936     -1184.7983     -1815.5726     -342.8632     
    199000   199000         300.77063     -429.45579      22749.061      23177.261      5665.2369      17512.024      3032.153       5222.2489     -5680.6708      209.94352     -3483.3102      61895.97      -43684.31      -541.94693      68367.942      40.890037      40.890037      40.890037      1.2257087      246.89071     -1380.4127     -154.84537    
    200000   200000         302.2684       1196.0966      24413.477      23227.711      5693.4486      17534.263      3088.6799      5245.016      -5721.808       184.87476     -3512.1911      61924.106     -43674.415     -545.07024      67976.185      40.811786      40.811786      40.811786      1.2327726      2354.3647     -316.16095      1550.0861    
    201000   201000         307.03447     -1600.0601      21743.676      23336.715      5783.2211      17553.494      3089.4023      5315.7228     -5780.6419      213.89586     -3501.2311      61892.988     -43676.642     -542.74414      68267.519      40.870007      40.870007      40.870007      1.2275117     -719.76133     -2312.3505     -1768.0685    
    202000   202000         311.50071     -188.06693      23181.685      23369.437      5867.3461      17502.09       3011.9594      5267.1543     -5695.0501      224.18274     -3485.8679      61861.222     -43681.51      -541.27064      68453.364      40.90706       40.90706       40.90706       1.2241792     -2.1958065     -966.67237      404.66739    
    203000   203000         305.64653     -1060.3118      22155.845      23207.369      5757.0783      17450.29       2978.8417      5327.42       -5659.423       186.00824     -3589.8817      61891.268     -43683.942     -544.87879      68000.07       40.816565      40.816565      40.816565      1.2323396     -644.60097     -1761.7312     -774.60325    
    204000   204000         304.92731     -636.16948      22619.056      23249.893      5743.5311      17506.361      3088.6021      5207.3098     -5728.1613      219.13331     -3483.944       61887.626     -43684.205     -544.93058      67993.607      40.815272      40.815272      40.815272      1.2324568     -29.523282     -1610.8907     -268.09447    
    205000   205000         301.58077      112.90362      23351.612      23240.319      5680.4966      17559.823      2986.544       5347.2836     -5651.4121      219.93062     -3562.8714      61908.71      -43688.362     -548.18458      67590.001      40.734352      40.734352      40.734352      1.2398162     -438.15897     -956.14211      1733.0119    
    206000   206000         306.93721     -110.20616      23234.392      23343.475      5781.3891      17562.086      3088.0392      5338.5783     -5746.9971      194.05392     -3513.6604      61882.003     -43679.931     -545.92413      67869.863      40.790496      40.790496      40.790496      1.2347038     -541.35035     -142.94295      353.67481    
    207000   207000         305.65992      149.41358      23368.443      23220.361      5757.3304      17463.031      3068.6277      5181.3599     -5674.3823      223.35745     -3517.0787      61870.17      -43689.023     -545.22246      67957.207      40.807987      40.807987      40.807987      1.2331169     -681.81234      513.69873      616.35436    
    208000   208000         299.88552      458.94786      23566.406      23113.033      5648.5653      17464.468      3064.5129      5223.3287     -5709.0998      201.36817     -3494.8987      61860.098     -43680.841     -547.00759      67735.433      40.763547      40.763547      40.763547      1.2371543      2056.0668     -1037.3125      358.08929    
    209000   209000         303.86644      305.9028       23545.017      23242.099      5723.5488      17518.55       3029.6546      5240.3839     -5719.6333      193.18798     -3449.8018      61903.885     -43679.126     -545.68737      67899.31       40.796395      40.796395      40.796395      1.2341684      774.29235     -196.62336      340.03941    
    210000   210000         306.3908       647.42915      23798.334      23160.115      5771.097       17389.018      3036.2747      5188.0027     -5692.1163      195.6186      -3618.1844      61959.363     -43679.941     -548.15987      67593.047      40.734964      40.734964      40.734964      1.2397604      936.22743      400.76434      605.29567    
    211000   211000         302.59811     -754.5258       22486.55       23237.396      5699.659       17537.737      3116.2606      5302.1999     -5748.4457      217.73571     -3501.0357      61832.25      -43681.227     -543.01051      68234.03       40.863322      40.863322      40.863322      1.2281142     -1053.1105     -1209.1618     -1.3050823    
    212000   212000         314.56673     -1235.2343      22112.271      23331.026      5925.0968      17405.929      3082.3237      5242.5986     -5732.4983      216.29122     -3535.1918      61815.63      -43683.225     -547.66912      67653.615      40.747128      40.747128      40.747128      1.2386505     -2025.8547     -175.74565     -1504.1025    
    213000   213000         305.23391      25.460826      23236.6        23211.428      5749.3061      17462.122      3079.2681      5198.4599     -5760.5115      210.68107     -3518.4964      61928.173     -43675.452     -546.5723       67789.377      40.774366      40.774366      40.774366      1.2361698     -8.5385495     -27.583514      112.50454    
    214000   214000         300.61836     -452.32703      22720.229      23168.766      5662.3689      17506.397      3158.2948      5239.4241     -5730.104       217.6368      -3549.2667      61851.677     -43681.265     -544.92865      67993.848      40.81532       40.81532       40.81532       1.2324524     -1925.3429     -158.42542      726.78724    
    215000   215000         304.43887      60.518663      23369.715      23309.454      5734.3311      17575.123      2998.5264      5300.2112     -5648.8337      218.66519     -3522.9225      61917.763     -43688.286     -542.67291      68276.48       40.871795      40.871795      40.871795      1.2273506     -1175.5131      525.21901      831.85007    
    216000   216000         301.71082      765.72443      23939.583      23178.958      5682.9462      17496.011      3037.1072      5220.6046     -5706.1734      223.89915     -3531.0427      61933.784     -43682.167     -543.9845       68111.859      40.83892       40.83892       40.83892       1.230317       1440.1492      305.96301      551.06107    
    217000   217000         301.65008      764.30146      23902.124      23141.981      5681.8021      17460.179      3062.6801      5137.2368     -5733.2405      217.58568     -3425.709       61893.681     -43692.056     -543.31877      68195.317      40.855593      40.855593      40.855593      1.2288114      699.10641      1396.3897      197.40825    
    218000   218000         302.32928      302.67632      23548.843      23249.279      5694.5954      17554.683      3058.7808      5346.2314     -5714.0144      209.99384     -3534.9195      61873.546     -43684.935     -545.97549      67863.478      40.789217      40.789217      40.789217      1.23482       -270.3618       1119.0151      59.375687    
    219000   219000         304.62419      906.10828      24235.476      23335.484      5737.8216      17597.662      3027.8249      5302.3815     -5719.191       202.46538     -3453.2839      61924.04      -43686.575     -544.03435      68105.618      40.837672      40.837672      40.837672      1.2304298      1530.7734      1667.4414     -479.89002    
    220000   220000         299.69995     -482.82507      22667.415      23145.376      5645.07        17500.306      3022.7221      5208.3578     -5644.6409      223.91925     -3554.3206      61930.569     -43686.301     -545.86147      67877.654      40.792057      40.792057      40.792057      1.2345621      578.32638     -958.28988     -1068.5117    
    221000   221000         299.02008      349.06647      23653.648      23307.734      5632.2641      17675.469      3117.4527      5235.1396     -5702.8107      215.2567      -3492.2394      61982.655     -43679.985     -545.2858       67949.313      40.806407      40.806407      40.806407      1.2332602      1312.3346      4.2078718     -269.34307    
    222000   222000         303.43714     -1186.3888      21950.093      23128.357      5715.4626      17412.895      3002.1797      5185.5477     -5716.5486      211.07844     -3430.8487      61847.126     -43685.64      -544.08816      68098.883      40.836326      40.836326      40.836326      1.2305515     -895.10478     -1882.6082     -781.45336    
    223000   223000         301.23811     -1222.9905      21991.518      23207.3        5674.0424      17533.257      3089.0874      5231.8783     -5671.754       231.00621     -3542.4664      61886.26      -43690.755     -543.5663       68164.262      40.84939       40.84939       40.84939       1.2293712     -1404.5331     -1035.1655     -1229.2728    
    224000   224000         303.88792      106.25333      23253.534      23147.589      5723.9535      17423.636      2960.1719      5222.2477     -5718.1973      204.47725     -3489.649       61922.113     -43677.528     -541.93657      68369.248      40.890297      40.890297      40.890297      1.2256853     -221.40842      315.91021      224.2582     
    225000   225000         302.62555      585.89112      23788.318      23206.738      5700.1759      17506.562      3079.8374      5224.5777     -5717.5456      188.46387     -3479.7135      61900.121     -43689.179     -544.36776      68063.905      40.829333      40.829333      40.829333      1.2311838      941.30045     -516.38535      1332.7582    
    226000   226000         302.7921       298.99294      23552.227      23256.332      5703.3129      17553.019      3009.8735      5332.7614     -5697.5405      200.45874     -3503.0122      61886.989     -43676.511     -546.02015      67857.927      40.788105      40.788105      40.788105      1.234921      -95.961121      64.644239      928.29569    
    227000   227000         303.57921      1296.0152      24574.115      23291.052      5718.1387      17572.913      3034.7023      5296.8225     -5726.5876      202.94621     -3445.7917      61897.341     -43686.519     -545.81735      67883.14       40.793156      40.793156      40.793156      1.2344623      2359.6496     -575.41039      2103.8064    
    228000   228000         302.82335     -591.82201      22572.435      23163.105      5703.9015      17459.204      3070.0266      5175.8553     -5697.4282      186.23758     -3478.1639      61887.706     -43685.03      -541.41583      68435.006      40.903403      40.903403      40.903403      1.2245075     -1411.6315     -874.17788      510.34334    
    229000   229000         305.95593     -1728.2686      21588.232      23309.248      5762.906       17546.342      3111.9353      5315.7376     -5747.41        180.52473     -3501.8425      61869.627     -43682.229     -542.63935      68280.701      40.872637      40.872637      40.872637      1.2272748     -2379.295      -1441.1249     -1364.386     
    230000   230000         299.8443      -288.81995      22802.977      23090.392      5647.7888      17442.603      3058.753       5190.713      -5722.4753      199.55266     -3482.3181      61886.107     -43687.729     -543.00417      68234.828      40.863482      40.863482      40.863482      1.2280998     -509.20898     -363.61123      6.3603435    
    231000   231000         303.04017     -645.36141      22558.278      23199.967      5707.9855      17491.982      2941.351       5314.6143     -5671.7616      212.15224     -3528.3199      61909.188     -43685.242     -543.45452      68178.283      40.852191      40.852191      40.852191      1.2291184     -1811.3387      148.41845     -273.16396    
    232000   232000         297.35029     -220.10523      22895.151      23113.295      5600.8123      17512.483      3062.7491      5211.1091     -5721.4429      182.17644     -3473.757       61938.544     -43686.896     -545.21989      67957.528      40.808051      40.808051      40.808051      1.2331111     -74.09848      -461.95876     -124.25845    
    233000   233000         302.78426      1140.7488      24352.594      23221.177      5703.1653      17518.012      3012.4922      5217.3377     -5671.3036      224.37921     -3491.3295      61908.279     -43681.843     -544.8193       68007.495      40.81805       40.81805       40.81805       1.2322051      74.764659      1294.412       2053.0698    
    234000   234000         302.56495      1105.4563      24123.129      23029.98       5699.0343      17330.946      2936.5698      5213.7601     -5688.1605      215.83932     -3578.6325      61920.53      -43688.96      -546.4461       67805.033      40.777504      40.777504      40.777504      1.2358844      1342.8812      326.01454      1647.473     
    235000   235000         304.15231      323.61226      23552.376      23231.319      5728.9335      17502.386      3042.0632      5266.3435     -5721.9241      223.64295     -3490.0376      61873.248     -43690.95      -544.66371      68026.922      40.821937      40.821937      40.821937      1.2318532     -595.0482       1075.9116      489.97339    
    236000   236000         302.83425     -43.794404      23283.595      23327.132      5704.1068      17623.026      3058.4531      5273.274      -5683.8617      220.89457     -3430.669       61876.964     -43692.03      -543.554        68165.805      40.849699      40.849699      40.849699      1.2293434     -5.7071168     -469.50137      343.82528    
    237000   237000         302.19562     -1477.7951      21665.046      23136.903      5692.0777      17444.825      3057.7315      5287.5257     -5755.2909      214.16012     -3536.5556      61857.679     -43680.424     -542.54242      68292.901      40.875071      40.875071      40.875071      1.2270555     -2336.9507     -1107.3778     -989.05681    
    238000   238000         301.28247     -412.71526      22730.165      23142.638      5674.8779      17467.76       2995.2254      5220.7576     -5694.6264      206.71056     -3489.456       61906.216     -43677.067     -540.68095      68528.021      40.921926      40.921926      40.921926      1.2228455     -233.59694     -1053.6089      49.06001     
    239000   239000         304.6227       178.09197      23345.512      23168.443      5737.7935      17430.65       3029.1103      5188.1392     -5746.7819      198.64578     -3504.7717      61943.283     -43676.975     -543.48446      68174.527      40.851441      40.851441      40.851441      1.2291861     -1237.4831      2011.438      -239.67896    
    240000   240000         302.03977      299.4514       23562.229      23264.371      5689.1422      17575.229      2981.6398      5259.3399     -5692.8002      187.58358     -3429.3166      61947.248     -43678.466     -543.25421      68203.422      40.857211      40.857211      40.857211      1.2286653     -622.69132      514.3756       1006.6699    
    241000   241000         300.36388     -596.1488       22508.918      23101.727      5657.5756      17444.151      3047.1151      5216.1541     -5726.7156      208.11859     -3487.176       61872.11      -43685.455     -543.40646      68184.312      40.853395      40.853395      40.853395      1.2290097     -1991.8481      406.90201     -203.50028    
    242000   242000         302.90397      829.58435      23934.203      23113.8        5705.4201      17408.38       2984.7326      5204.2397     -5759.518       227.78647     -3444.4264      61873.277     -43677.712     -546.40934      67809.595      40.778419      40.778419      40.778419      1.2358012     -99.69217       1392.3862      1196.059     
    243000   243000         306.56598      36.860755      23171.644      23135.082      5774.3968      17360.685      2958.0218      5214.8461     -5758.3477      186.46194     -3410.8501      61864.579     -43694.026     -544.77548      68012.966      40.819145      40.819145      40.819145      1.232106      -74.315214     -1418.5043      1603.4018    
    244000   244000         297.57659      804.80944      23833.031      23036.994      5605.0748      17431.919      3006.4157      5221.8076     -5755.7066      195.35789     -3448.8143      61899.597     -43686.738     -546.31745      67821          40.780705      40.780705      40.780705      1.2355934     -772.11044      2367.3525      819.1863     
    245000   245000         303.96754     -958.97019      22179.742      23131.703      5725.4531      17406.25       3039.5843      5181.9736     -5740.9659      217.97183     -3458.7882      61862.043     -43695.569     -544.34109      68067.24       40.83          40.83          40.83          1.2311235     -1014.5132     -2093.8905      231.4931     
    246000   246000         304.8417      -936.90448      22310.681      23241.902      5741.9186      17499.984      3040.0035      5246.7761     -5697.8644      195.69462     -3464.2741      61869.848     -43690.2       -543.66044      68152.459      40.847032      40.847032      40.847032      1.2295841     -1375.617      -461.54253     -973.55391    
    247000   247000         300.78453      898.71415      23974.733      23081.49       5665.4989      17415.991      2935.1104      5275.7428     -5690.3222      207.78027     -3479.8523      61859.856     -43692.325     -543.67183      68151.031      40.846747      40.846747      40.846747      1.2296099      1573.8164     -242.7892       1365.1153    
    248000   248000         298.74674      405.6216       23388.214      22987.275      5627.1155      17360.159      2973.844       5236.2888     -5689.5163      213.92923     -3594.287       61906.208     -43686.308     -546.67215      67776.995      40.771883      40.771883      40.771883      1.2363956      1545.5258      1010.1271     -1338.7881    
    249000   249000         304.62981     -515.0395       22649.525      23158.654      5737.9276      17420.727      2931.4236      5325.1492     -5729.1025      204.51272     -3516.9892      61898.635     -43692.902     -546.6348       67781.626      40.772812      40.772812      40.772812      1.2363112     -36.509238     -618.26358     -890.34569    
    250000   250000         301.80796      2060.6198      25234.242      23187.173      5684.7759      17502.397      3018.1079      5235.4284     -5734.5535      192.47152     -3440.0587      61912.114     -43681.113     -543.93943      68117.502      40.840048      40.840048      40.840048      1.2302151      2363.0305      2140.0342      1678.7945    
Loop time of 1065.21 on 1 procs for 250000 steps with 6320 atoms

Performance: 20.278 ns/day, 1.184 hours/ns, 234.695 timesteps/s, 1.483 Matom-step/s
100.0% CPU use with 1 MPI tasks x 1 OpenMP threads

MPI task timing breakdown:
Section |  min time  |  avg time  |  max time  |%varavg| %total
---------------------------------------------------------------
Pair    | 404.19     | 404.19     | 404.19     |   0.0 | 37.94
Bond    | 148.49     | 148.49     | 148.49     |   0.0 | 13.94
Kspace  | 301.84     | 301.84     | 301.84     |   0.0 | 28.34
Neigh   | 79.616     | 79.616     | 79.616     |   0.0 |  7.47
Comm    | 7.6276     | 7.6276     | 7.6276     |   0.0 |  0.72
Output  | 2.9898     | 2.9898     | 2.9898     |   0.0 |  0.28
Modify  | 70.757     | 70.757     | 70.757     |   0.0 |  6.64
Other   |            | 49.69      |            |       |  4.66

Nlocal:           6320 ave        6320 max        6320 min
Histogram: 1 0 0 0 0 0 0 0 0 0
Nghost:          17710 ave       17710 max       17710 min
Histogram: 1 0 0 0 0 0 0 0 0 0
Neighs:              0 ave           0 max           0 min
Histogram: 1 0 0 0 0 0 0 0 0 0
FullNghs:  3.73168e+06 ave 3.73168e+06 max 3.73168e+06 min
Histogram: 1 0 0 0 0 0 0 0 0 0

Total # of neighbors = 3731676
Ave neighs/atom = 590.45506
Ave special neighs/atom = 5.5411392
Neighbor list builds = 8912
Dangerous builds = 0
System init for write_data ...
PPPM Kokkos initialization ...
  using 12-bit tables for long-range coulomb
  G vector (1/distance) = 0.33498887
  grid = 45 45 45
  stencil order = 5
  estimated absolute RMS force accuracy = 0.00041034121
  estimated relative force accuracy = 1.2357304e-06
  using double precision cuFFT
  3d grid and FFT values/proc = 140608 91125
Generated 21 of 21 mixed pair_coeff terms from sixthpower/sixthpower mixing rule
System init for write_restart ...
PPPM Kokkos initialization ...
  using 12-bit tables for long-range coulomb
  G vector (1/distance) = 0.33498887
  grid = 45 45 45
  stencil order = 5
  estimated absolute RMS force accuracy = 0.00041034121
  estimated relative force accuracy = 1.2357304e-06
  using double precision cuFFT
  3d grid and FFT values/proc = 140608 91125
Generated 21 of 21 mixed pair_coeff terms from sixthpower/sixthpower mixing rule
STAGE COMPLETE: NPT T=320.0->300.0K P=1.0->1.0atm steps=250000
