LAMMPS (22 Jul 2025 - Update 3)
KOKKOS mode with Kokkos version 4.6.2 is enabled
  will use up to 1 GPU(s) per node
  using 1 OpenMP thread(s) per MPI task
Reading data file ...
  orthogonal box = (4.4607306 4.4607306 4.4607306) to (47.744979 47.744979 47.744979)
  1 by 1 by 1 MPI processor grid
  reading atoms ...
  6500 atoms
  reading velocities ...
  6500 velocities
  scanning bonds ...
  4 = max bonds/atom
  scanning angles ...
  16 = max angles/atom
  scanning dihedrals ...
  38 = max dihedrals/atom
  scanning impropers ...
  12 = max impropers/atom
  orthogonal box = (4.4607306 4.4607306 4.4607306) to (47.744979 47.744979 47.744979)
  1 by 1 by 1 MPI processor grid
  reading bonds ...
  6970 bonds
  reading angles ...
  11760 angles
  reading dihedrals ...
  17500 dihedrals
  reading impropers ...
  4800 impropers
Finding 1-2 1-3 1-4 neighbors ...
  special bond factors lj:    0        0        1       
  special bond factors coul:  0        0        1       
     4 = max # of 1-2 neighbors
    10 = max # of 1-3 neighbors
    14 = max # of special neighbors
  special bonds CPU = 0.003 seconds
  read_data CPU = 0.249 seconds
PPPM Kokkos initialization ...
  using 12-bit tables for long-range coulomb
  G vector (1/distance) = 0.29864523
  grid = 30 30 30
  stencil order = 5
  estimated absolute RMS force accuracy = 0.00033980203
  estimated relative force accuracy = 1.0233037e-06
  using double precision cuFFT
  3d grid and FFT values/proc = 50653 27000
Generated 28 of 28 mixed pair_coeff terms from sixthpower/sixthpower mixing rule
Neighbor list info ...
  update: every = 1 steps, delay = 0 steps, check = yes
  max neighbors/atom: 4000, page size: 100000
  master list distance cutoff = 11.5
  ghost atom cutoff = 11.5
  binsize = 11.5, bins = 4 4 4
  1 neighbor lists, perpetual/occasional/extra = 1 0 0
  (1) pair lj/class2/coul/long/kk, perpetual
      attributes: full, newton off, kokkos_device
      pair build: full/bin/kk/device
      stencil: full/bin/3d
      bin: kk/device
Setting up Verlet run ...
  Unit style    : real
  Current step  : 0
  Time step     : 1
Per MPI rank memory allocation (min/avg/max) = 43.87 | 43.87 | 43.87 Mbytes
   Step          Time           Temp          Press         Enthalpy        TotEng         KinEng         PotEng         E_bond        E_angle        E_dihed        E_impro         E_vdwl         E_coul         E_long         E_tail         Volume           Lx             Ly             Lz          Density          Pxx            Pyy            Pzz      
         0   0              630.36236     -2009.1808      25632.813      28009.021      12211.559      15797.462      5395.939       5029.8263      3911.3886      464.16596      434.6245       4913.0532     -4351.5352     -485.66205      81094.173      43.284249      43.284249      43.284249      1.0878175     -78.069971     -4133.3781     -1816.0944    
      1000   1000           624.8793       594.10315      28246.869      27542.851      12105.339      15437.511      5292.3068      4882.1763      3786.4489      458.36466      455.91801      4912.341      -4350.0443     -484.70522      81254.258      43.312712      43.312712      43.312712      1.0856743     -37.379823      1608.3008      211.38848    
      2000   2000           618.39323      1327.5596      28851.455      27285.981      11979.69       15306.292      5290.1719      4892.0728      3675.0838      445.95358      440.34793      4918.7794     -4356.1176     -487.08856      80856.677      43.241953      43.241953      43.241953      1.0910127      1788.7792      700.1649       1493.7347    
      3000   3000           624.77054     -89.433798      27583.855      27691.384      12103.233      15588.151      5205.4867      4982.226       3756.3764      462.0517       622.25096      4907.3539     -4347.5943     -477.72011      82442.337      43.522794      43.522794      43.522794      1.0700286     -347.09122     -850.64332      929.43315    
      4000   4000           630.1426       1202.3594      29180.376      27745.294      12207.302      15537.992      5307.5271      4844.8021      3781.5485      472.6511       569.53977      4911.6542     -4349.7305     -481.235        81840.188      43.416573      43.416573      43.416573      1.0779015      1095.8981      2531.7987     -20.618649    
      5000   5000           617.90459      9.5033973      27682.765      27671.484      11970.224      15701.26       5383.9998      4879.7892      3813.6637      462.27244      593.95471      4919.7896     -4352.2094     -483.87738      81393.271      43.337398      43.337398      43.337398      1.0838201      536.73267      626.07282     -1134.2953    
      6000   6000           612.90043     -366.13005      26842.145      27282.225      11873.281      15408.943      5287.7288      4903.9846      3738.3409      451.18697      472.09469      4907.0388     -4351.4316     -477.8635       82417.6        43.51844       43.51844       43.51844       1.0703498     -638.72296     -634.26137      174.59419    
      7000   7000           625.68461     -16.500424      27737.265      27757.066      12120.94       15636.126      5347.056       4969.9297      3737.197       456.21837      561.85152      4909.4753     -4345.6023     -478.63437      82284.862      43.495065      43.495065      43.495065      1.0720764     -142.10696      100.54535     -7.9396664    
      8000   8000           620.7074      -422.08772      26869.059      27370.878      12024.52       15346.357      5183.4347      4946.277       3739.1606      466.2077       460.2638       4901.1122     -4350.0989     -483.12095      81520.71       43.360004      43.360004      43.360004      1.0821258      1276.3234     -2340.0534     -202.53313    
      9000   9000           620.51158     -1308.0255      25849.385      27410.234      12020.727      15389.507      5263.1578      4833.9396      3766.1051      466.99182      467.45381      4934.7541     -4342.8951     -481.34349      81821.742      43.413311      43.413311      43.413311      1.0781445     -219.88348     -994.55546     -2709.6374    
     10000   10000          626.10992     -418.0887       27185.827      27685.821      12129.18       15556.642      5226.5303      4810.5516      3942.9607      480.63149      539.29604      4904.0838     -4347.4124     -480.28992      82001.226      43.445031      43.445031      43.445031      1.0757847      367.19221     -1217.0624     -404.39588    
     11000   11000          620.32601      257.63715      27790.569      27483.215      12017.132      15466.083      5259.0908      4926.2606      3700.4441      449.79945      577.61771      4902.1066     -4349.2361     -481.47075      81800.114      43.409485      43.409485      43.409485      1.0784296     -343.16542     -370.08575      1486.1626    
     12000   12000          626.91168      1231.7079      29249.138      27774.359      12144.712      15629.648      5317.9037      4941.2003      3757.402       463.51059      568.56145      4927.4503     -4346.3806     -479.71187      82100.038      43.462475      43.462475      43.462475      1.0744899      1231.1671      900.10096      1563.8556    
     13000   13000          629.16036     -776.89926      26757.378      27691.563      12188.273      15503.289      5140.6539      4921.8654      3831.0321      483.41792      550.36815      4923.3558     -4347.4043     -477.67428      82450.247      43.524186      43.524186      43.524186      1.069926      -296.83607     -397.83807     -1636.0236    
     14000   14000          623.04297      877.39968      28647.288      27585.428      12069.766      15515.662      5312.1934      4757.6012      3763.6901      489.24767      614.7763       4924.86       -4346.7063     -474.60247      82983.897      43.617886      43.617886      43.617886      1.0630455      574.95484      632.15521      1425.089     
     15000   15000          634.3288       1020.9523      29063.171      27843.394      12288.398      15554.996      5233.3735      4832.3424      3888.949       485.66186      553.71484      4911.8152     -4350.8604     -480.75628      81921.682      43.430979      43.430979      43.430979      1.0768292      1360.3302     -866.80715      2569.334     
     16000   16000          619.07122     -122.19995      27474.138      27620.785      11992.824      15627.961      5370.7052      4884.0745      3748.2745      465.38039      588.80138      4919.4088     -4348.6839     -478.62872      82285.833      43.495236      43.495236      43.495236      1.0720638     -361.23486      688.86678     -694.23178    
     17000   17000          633.95395      585.68421      28585.04       27885.162      12281.136      15604.026      5259.0761      4976.4937      3766.9011      497.65247      531.53443      4922.4535     -4350.0853     -480.66359      81937.479      43.43377       43.43377       43.43377       1.0766216      559.62599      1796.79       -599.36341    
     18000   18000          623.07166     -188.46525      27272.25       27496.675      12070.321      15426.354      5263.771       4849.044       3818.8566      453.60249      470.73739      4916.7754     -4346.4329     -482.34592      81651.696      43.383215      43.383215      43.383215      1.0803898      2143.946      -3120.2221      410.88041    
     19000   19000          617.62667     -1508.9244      25591.362      27381.284      11964.84       15416.444      5207.422       4941.2742      3805.998       465.25241      437.88544      4908.1066     -4349.4941     -484.20929      81337.478      43.327494      43.327494      43.327494      1.0845635     -211.9556      -2906.0897     -1408.7281    
     20000   20000          629.29354      450.55727      28292.606      27752.032      12190.853      15561.178      5243.7225      4941.8039      3758.1505      466.81259      591.10532      4908.4295     -4348.8458     -478.73416      82267.709      43.492042      43.492042      43.492042      1.0723         388.24424      943.06281      20.364777    
     21000   21000          620.47687      1461.5126      29277.809      27530.343      12020.055      15510.288      5273.3684      4887.5174      3710.4217      448.52707      631.24483      4907.3867     -4348.1781     -480.38941      81984.244      43.442032      43.442032      43.442032      1.0760075      2142.9629      770.82879      1470.7462    
     22000   22000          617.4901      -578.96234      26861.735      27559.615      11962.194      15597.421      5316.4019      4982.0933      3728.6503      470.9053       533.77914      4915.6993     -4350.108      -476.50716      82652.194      43.559691      43.559691      43.559691      1.0673118     -2269.5609     -298.97637      831.6503     
     23000   23000          622.65916      551.33759      28353.755      27696.282      12062.33       15633.951      5253.1336      4949.8519      3829.666       450.79356      588.45319      4911.68       -4349.6269     -481.65822      81768.276      43.403853      43.403853      43.403853      1.0788495      364.09247     -169.46353      1459.3838    
     24000   24000          630.33929     -214.43928      27549.063      27806.78       12211.112      15595.668      5216.9896      4986.518       3833.2045      462.74908      528.73104      4912.7892     -4345.3135     -477.92704      82406.642      43.516511      43.516511      43.516511      1.0704921     -436.20872     -2212.3257      2005.2166    
     25000   25000          631.81692     -1606.3402      25815.884      27747.143      12239.737      15507.406      5300.598       4837.2349      3845.6603      459.48504      521.17889      4898.2445     -4354.9958     -477.74575      82437.913      43.522015      43.522015      43.522015      1.0700861     -1130.4218     -938.72504     -2749.8737    
     26000   26000          638.64097      2470.9135      30867.825      27936.461      12371.935      15564.526      5217.2124      4939.8825      3803.7685      480.7324       572.17419      4903.4342     -4352.6782     -484.15839      81346.03       43.329012      43.329012      43.329012      1.0844495      3451.6282      2795.4392      1165.6732    
     27000   27000          635.31275      737.36153      28451.489      27572.319      12307.459      15264.859      5140.7222      4700.0601      3835.6738      480.88649      535.96745      4922.5362     -4350.9869     -481.73388      81755.434      43.40158       43.40158       43.40158       1.0790189      1210.8632      1296.3503     -295.12892    
     28000   28000          619.2108      -533.66863      26916.014      27557.004      11995.528      15561.476      5338.0779      4835.6067      3814.4223      456.35312      558.32723      4909.2241     -4350.5353     -478.21176      82357.579      43.507873      43.507873      43.507873      1.0711299     -1790.8757     -56.727012      246.59684    
     29000   29000          620.55804     -1040.9912      26411.815      27643.317      12021.627      15621.691      5192.9194      4871.898       4022.433       489.15282      487.71611      4908.4585     -4350.8873     -485.52509      81117.049      43.288318      43.288318      43.288318      1.0875107     -1290.4697     -1805.2391     -27.264905    
     30000   30000          626.31687     -462.38783      27135.776      27688.682      12133.189      15555.494      5308.7226      4829.4242      3831.5584      482.85837      539.51746      4916.4219     -4353.0091     -480.34652      81991.565      43.443325      43.443325      43.443325      1.0759114     -2852.1152      1627.5894     -162.63767    
     31000   31000          631.98803     -1143.4623      26152.161      27515.232      12243.052      15272.18       5373.1864      4776.1423      3696.6947      451.76112      412.21422      4907.4559     -4345.2744     -481.84025      81737.386      43.398386      43.398386      43.398386      1.0792572     -1830.5234     -2101.7899      501.92654    
     32000   32000          614.66455      1183.3633      28734.002      27331.503      11907.456      15424.047      5232.7148      4850.2262      3802.1396      477.07083      497.32128      4914.8548     -4350.2804     -484.63563      81265.925      43.314785      43.314785      43.314785      1.0855185      1200.2786      1736.7399      613.07139    
     33000   33000          623.15854     -182.86952      27480.196      27698.529      12072.004      15626.524      5308.6893      4945.9615      3778.9437      477.48626      545.60617      4917.4808     -4347.6432     -481.08518      81865.675      43.421079      43.421079      43.421079      1.0775659      974.86345      484.34619     -2007.8182    
     34000   34000          621.46936      619.29894      28230.847      27495.88       12039.281      15456.599      5286.2252      4717.884       3905.7187      497.95293      491.75417      4906.818      -4349.7543     -483.98556      81375.077      43.334169      43.334169      43.334169      1.0840624     -613.71671      858.06036      1613.5532    
     35000   35000          620.0566       1938.1618      30053.06       27769.335      12011.913      15757.422      5352.3483      5041.8171      3767.7437      481.19855      546.0356       4916.5867     -4348.3074     -487.4678       80793.772      43.230736      43.230736      43.230736      1.0918622      2299.1337      2680.2961      835.05551    
     36000   36000          616.69349      453.35004      27985.57       27448.759      11946.762      15501.997      5279.7258      4911.8008      3731.1282      469.95511      550.79484      4906.2421     -4347.6495     -485.07827      81191.768      43.301606      43.301606      43.301606      1.0865099      861.48959      569.53173     -70.971204    
     37000   37000          609.74176     -1450.0609      25402.14       27127.109      11812.091      15315.019      5233.5253      4703.7337      3876.158       473.03788      475.23037      4903.9525     -4350.6192     -482.84137      81567.913      43.368372      43.368372      43.368372      1.0814996     -2328.5039     -410.92152     -1610.7572    
     38000   38000          626.71352      1938.0967      29794.712      27524.017      12140.873      15383.144      5194.4349      4888.9847      3788.5837      467.9303       492.85682      4904.0547     -4353.7009     -490.24859      80335.494      43.148843      43.148843      43.148843      1.0980907      2636.7739      2275.1864      902.32984    
     39000   39000          613.67483     -253.34623      27213.405      27515.22       11888.283      15626.937      5282.9629      4888.8889      3884.1007      480.16792      523.66661      4915.1669     -4348.0169     -482.14011      81686.551      43.389388      43.389388      43.389388      1.0799288      2119.0441     -681.38503     -2197.6978    
     40000   40000          618.64286      237.19918      28044.336      27762.973      11984.525      15778.447      5367.8065      5017.1667      3813.9492      480.06094      513.74832      4931.6994     -4345.984      -484.22306      81335.165      43.327083      43.327083      43.327083      1.0845944      151.58829      592.81504     -32.80579     
     41000   41000          614.95363      1264.2712      28945.878      27455.564      11913.057      15542.508      5285.8642      4988.5519      3680.1393      482.95216      546.29511      4911.2096     -4352.5044     -487.26183      80827.925      43.236826      43.236826      43.236826      1.0914008      1638.8361      1417.5899      736.38759    
     42000   42000          624.30499     -929.86951      26126.742      27226.358      12094.214      15132.144      5072.3188      4809.196       3805.4988      472.92049      423.48656      4902.2429     -4353.5192     -485.71409      81085.485      43.282703      43.282703      43.282703      1.0879341     -674.10071     -1398.5227     -716.98511    
     43000   43000          620.44168      1264.5296      28861.075      27363.923      12019.373      15344.551      5290.9483      4805.8408      3764.205       462.40629      450.65768      4919.3258     -4348.8334     -485.13537      81182.211      43.299907      43.299907      43.299907      1.0866378      917.55197      1570.569       1305.4679    
     44000   44000          623.17512      2291.8051      30291.49       27592.769      12072.326      15520.443      5289.5832      4851.4969      3806.6541      473.22303      539.09893      4913.2627     -4352.8759     -487.77471      80742.937      43.221667      43.221667      43.221667      1.0925496      3472.5504      1994.5431      1408.3218    
     45000   45000          609.00174     -812.84987      26392.162      27352.65       11797.755      15554.895      5225.431       4986.1388      3842.6929      464.80866      479.86055      4906.9298     -4350.9669     -486.09172      81022.492      43.271492      43.271492      43.271492      1.0887799     -2153.5482     -458.39129      173.38987    
     46000   46000          629.08139      1406.1317      29428.883      27760.296      12186.744      15573.553      5331.2446      4807.7436      3822.6928      483.29721      554.77889      4921.1639     -4347.3683     -484.03508      81366.753      43.332691      43.332691      43.332691      1.0841733      3547.6199     -499.51685      1170.2919    
     47000   47000          629.0908      -1247.6799      26076.606      27547.661      12186.926      15360.736      5078.299       4986.2697      3825.4045      488.1976       398.64063      4930.3807     -4346.4565     -487.16235      80844.431      43.239769      43.239769      43.239769      1.091178      -2572.9847     -781.21299     -388.84208    
     48000   48000          623.25592      92.753791      27565.037      27454.29       12073.891      15380.399      5196.8521      4897.6751      3684.9185      455.69234      564.783        4927.7366     -4347.2585     -481.0587       81870.181      43.421876      43.421876      43.421876      1.0775066      182.84335     -459.94775      555.36577    
     49000   49000          623.32371     -1211.9817      26102.128      27553.222      12075.204      15478.017      5196.654       4955.9975      3745.1188      450.48097      559.27706      4918.8506     -4348.3617     -479.73381      82096.283      43.461812      43.461812      43.461812      1.074539       299.50158     -1427.1227     -2508.3241    
     50000   50000          628.98036      53.465809      27467.093      27404.405      12184.787      15219.618      5190.451       4827.3067      3755.3283      449.20422      435.27965      4910.9846     -4348.9363     -489.8802       80395.906      43.159656      43.159656      43.159656      1.0972656      148.72719     -58.533451      70.203691    
     51000   51000          619.16933      535.09445      27957.586      27321.559      11994.724      15326.834      5207.6988      4829.4818      3750.5216      456.15232      529.94124      4901.4318     -4348.3934     -483.23051      81502.227      43.356727      43.356727      43.356727      1.0823712      1037.5985      1765.568      -1197.8831    
     52000   52000          618.89994      930.15593      28633.693      27530.456      11989.506      15540.95       5287.0743      4970.3483      3748.9367      474.48903      509.29767      4904.1539     -4353.3498     -484.26889      81327.468      43.325716      43.325716      43.325716      1.084697       2915.1972      317.97101     -442.70046    
     53000   53000          615.53578     -2775.933       24010.661      27283.097      11924.334      15358.763      5097.8251      4919.8358      3891.7549      462.43667      417.7416       4915.9788     -4346.8103     -487.23397      80832.546      43.23765       43.23765       43.23765       1.0913384     -4021.6718     -2790.5447     -1515.5827    
     54000   54000          610.67573     -529.57075      26585.742      27218.648      11830.184      15388.464      5131.9721      4930.4092      3780.0383      473.45476      498.3803       4920.6464     -4346.4373     -480.60116      81948.122      43.435651      43.435651      43.435651      1.0764818     -116.31469     -2190.9774      718.57981    
     55000   55000          619.40545     -1801.5606      25327.93       27428.899      11999.299      15429.6        5229.8857      4906.2723      3847.9537      469.8795       416.45158      4906.7735     -4347.6158     -492.5257       79964.076      43.082243      43.082243      43.082243      1.1031912     -966.94571     -2232.9334     -2204.8027    
     56000   56000          622.69785     -136.63129      27276.944      27438.447      12063.08       15375.368      5249.5306      4973.6221      3643.9344      443.63611      489.25374      4921.0556     -4345.6649     -485.92448      81050.378      43.276455      43.276455      43.276455      1.0884053      592.86941     -1491.1651      488.40183    
     57000   57000          622.54778      996.19764      28685.896      27510.127      12060.173      15449.955      5366.1295      4930.6995      3620.0858      449.7233       520.93723      4911.4041     -4349.0248     -486.65732      80928.327      43.254721      43.254721      43.254721      1.0900468      2751.6771      2005.8712     -1768.9554    
     58000   58000          623.54489      2078.9103      29861.707      27376.111      12079.489      15296.622      5218.138       4938.672       3545.1121      463.50519      558.79585      4921.5286     -4349.1293     -480.40229      81982.046      43.441644      43.441644      43.441644      1.0760364      792.66869      3888.6688      1555.3934    
     59000   59000          627.55022      598.7473       28251.086      27539.65       12157.081      15382.568      5238.5187      4847.5293      3683.1026      462.77627      599.01844      4904.2803     -4352.6572     -483.40046      81473.573      43.351646      43.351646      43.351646      1.0827518      370.79836     -467.04576      1892.4893    
     60000   60000          623.91417      1754.5014      29608.346      27488.283      12086.643      15401.641      5143.1412      4928.3628      3663.6723      454.65592      646.90289      4907.3347     -4342.4291     -475.34053      82855.048      43.595299      43.595299      43.595299      1.0646987      2182.2694      1441.9824      1639.2524    
     61000   61000          617.03745      1412.6581      28956.122      27282.076      11953.425      15328.651      5176.7078      4961.6348      3652.4073      442.60805      535.72451      4909.2589     -4349.69       -484.69597      81255.807      43.312987      43.312987      43.312987      1.0856536      1702.8361     -592.68737      3127.8255    
     62000   62000          628.19835     -3791.7566      23044.648      27595.476      12169.637      15425.839      5160.9909      4903.0467      3874.2658      443.8649       466.50948      4921.1028     -4343.9418     -478.57472      82295.117      43.496872      43.496872      43.496872      1.0719429     -1438.7685     -3759.976      -6176.5252    
     63000   63000          613.52954     -1208.3119      25765.745      27209.103      11885.469      15323.634      5242.0061      4702.4996      3799.2608      452.77575      571.46729      4906.7204     -4351.0959     -480.8446       81906.634      43.42832       43.42832       43.42832       1.0770271     -1258.0934      330.34482     -2697.1872    
     64000   64000          624.8973       1208.1411      28986.724      27539.102      12105.688      15433.414      5088.7513      4951.7547      3828.076       459.36508      542.07893      4910.7367     -4347.3491     -479.36045      82160.226      43.473093      43.473093      43.473093      1.0737028     -396.04321      2292.3956      1728.0709    
     65000   65000          634.45145      1312.891       29361.773      27807.277      12290.774      15516.503      5291.4401      4864.2511      3705.5022      462.21751      626.3285       4917.7139     -4350.9501     -485.10847      81186.714      43.300707      43.300707      43.300707      1.0865776      2009.8018      1761.074       167.79706    
     66000   66000          614.83743     -513.01848      26728.372      27341.881      11910.806      15431.076      5342.3861      4919.2628      3688.9906      448.27467      465.49701      4916.6469     -4349.9823     -480.29868      81999.731      43.444767      43.444767      43.444767      1.0758043     -644.57564      501.82548     -1396.3053    
     67000   67000          629.16005     -297.79749      27239.936      27593.849      12188.268      15405.581      5246.2365      4911.7684      3800.8383      444.86418      424.71726      4921.9436     -4344.7869     -483.30892      81489.004      43.354382      43.354382      43.354382      1.0825468     -1749.408       1151.5254     -295.50986    
     68000   68000          620.92798     -1295.8737      25906.31       27466.264      12028.794      15437.47       5262.9814      4770.7923      3813.6813      458.12051      560.39903      4916.6287     -4345.1327     -477.14529      82541.657      43.540264      43.540264      43.540264      1.0687411     -571.81922     -2278.6063     -1037.1957    
     69000   69000          624.80426      1087.0678      28791.802      27498.562      12103.886      15394.676      5187.2071      4902.2882      3781.7931      451.07729      502.56005      4922.3307     -4352.5801     -482.81107      81573.031      43.369279      43.369279      43.369279      1.0814317      1328.8442      1741.4321      190.92699    
     70000   70000          613.2416      -428.14323      26862.319      27374.731      11879.891      15494.84       5362.1675      4789.2146      3794.885       457.4692       538.25603      4902.059      -4349.2108     -479.92028      82064.385      43.456183      43.456183      43.456183      1.0749567     -2604.7836      1062.6928      257.66106    
     71000   71000          617.5401       742.58931      28230.017      27341.967      11963.162      15378.804      5176.0998      4871.9402      3754.5303      470.13302      556.57357      4899.5003     -4349.9729     -480.29798      81999.851      43.444789      43.444789      43.444789      1.0758027      1370.474       962.44053     -105.14657    
     72000   72000          625.37958      183.75659      27805.717      27585.935      12115.031      15470.903      5249.046       4922.0451      3769.0797      467.59027      494.67065      4918.9093     -4350.4376     -480.23115      82011.261      43.446804      43.446804      43.446804      1.075653       2351.8944      301.74304     -2102.3677    
     73000   73000          613.16778      876.91068      28363.961      27315.837      11878.461      15437.376      5382.6671      4785.7808      3663.0403      476.07175      568.57203      4906.538      -4345.2938     -480.55435      81956.104      43.437061      43.437061      43.437061      1.076377       3595.0189     -463.72268     -500.56417    
     74000   74000          611.49925      382.78515      27707.397      27252.523      11846.137      15406.386      5242.0157      4766.6405      3757.9635      479.16642      582.52242      4923.3011     -4345.2238     -483.35226      81481.698      43.353087      43.353087      43.353087      1.0826439      1221.5931     -443.56592      370.32823    
     75000   75000          618.76621     -471.25484      26650.583      27217.132      11986.915      15230.217      5258.3831      4714.8294      3670.0758      462.86423      548.73911      4919.2661     -4343.9402     -477.7687       82433.953      43.521318      43.521318      43.521318      1.0701375      145.25019      382.62391     -1941.6386    
     76000   76000          615.08732      147.35721      27457.198      27281.146      11915.647      15365.499      5265.3137      4789.9761      3762.2552      453.22935      525.51184      4917.0547     -4347.8415     -480.761        81920.877      43.430837      43.430837      43.430837      1.0768398     -2138.9908      2197.6862      383.37622    
     77000   77000          618.36925      277.60392      27471.331      27139.772      11979.225      15160.547      5182.2537      4730.1878      3679.9652      477.01563      535.18269      4908.5262     -4352.584      -480.91095      81895.334      43.426322      43.426322      43.426322      1.0771757      112.25424      258.52404      462.03347    
     78000   78000          623.82972     -1.8808085      27229.608      27231.844      12085.007      15146.837      5144.6238      4788.6243      3676.4236      448.12659      515.70129      4918.6048     -4345.2673     -483.1067       81523.114      43.360431      43.360431      43.360431      1.0820939     -113.70605      938.22442     -830.16079    
     79000   79000          614.28824     -1004.735       26006.133      27213.428      11900.167      15313.262      5213.0708      4843.7887      3736.8412      450.07395      517.66041      4900.9709     -4349.1444     -478.01079      82392.205      43.51397       43.51397       43.51397       1.0706797     -1016.4762     -2479.8183      482.08936    
     80000   80000          615.28649      2269.9695      29979.967      27323.391      11919.505      15403.886      5308.8787      4890.6898      3664.3192      474.65015      511.57112      4904.7234     -4350.9465     -490.79198      80246.548      43.132913      43.132913      43.132913      1.0993079      3063.3008      2601.643       1144.9648    
     81000   81000          614.70281     -1139.4069      25923.51       27292.032      11908.198      15383.835      5124.4841      4816.6087      3781.1296      473.30087      618.97335      4917.7403     -4348.4022     -478.21881      82356.364      43.50766       43.50766       43.50766       1.0711457     -223.81791     -2567.7635     -626.63918    
     82000   82000          614.34949     -334.75789      26498.798      26896.486      11901.353      14995.133      5212.5215      4722.3084      3557.3191      440.7395       517.01766      4895.2084     -4349.9815     -483.48982      81458.515      43.348975      43.348975      43.348975      1.082952      -575.79568     -113.27866     -315.19934    
     83000   83000          617.98096     -1005.7783      26099.045      27299.115      11971.703      15327.412      5129.3196      4743.1654      3855.0589      474.88634      561.15033      4910.6778     -4346.8467     -481.38832      81814.121      43.411963      43.411963      43.411963      1.0782449     -1616.4304     -53.561477     -1347.3431    
     84000   84000          616.91893      191.92456      27621.1        27394.004      11951.129      15442.875      5225.036       4949.4435      3718.5307      446.54368      534.85495      4914.9173     -4346.4509     -485.42473      81133.819      43.291301      43.291301      43.291301      1.087286       1219.0764     -44.652858     -598.64983    
     85000   85000          618.74734     -479.14093      26669.637      27237.453      11986.55       15250.903      5245.1292      4780.892       3730.205       460.74008      480.18471      4900.9999     -4347.248      -484.68089      81258.337      43.313437      43.313437      43.313437      1.0856198     -715.98665      633.06073     -1354.4969    
     86000   86000          618.65154      1201.0265      28862.932      27436.922      11984.694      15452.228      5206.2468      5003.9997      3719.2447      456.81574      500.20251      4910.8965     -4345.1777     -483.75982      81413.05       43.340908      43.340908      43.340908      1.0835568      1600.8081      249.09961      1753.1719    
     87000   87000          616.83442      486.12282      27853.479      27276.325      11949.492      15326.833      5172.2339      4759.6927      3818.3178      462.30982      557.00657      4908.3482     -4351.0762     -483.78631      81408.593      43.340117      43.340117      43.340117      1.0836161      841.35007      1811.6772     -1194.6589    
     88000   88000          617.59965     -582.87158      26630.256      27327.587      11964.316      15363.271      5202.2675      4850.0677      3745.4509      461.02877      548.51211      4906.1459     -4350.2019     -480.10163      82033.387      43.45071       43.45071       43.45071       1.0753629      108.52685     -3255.7035      1398.5619    
     89000   89000          624.39758      560.40005      28395.371      27729.224      12096.008      15633.216      5351.0768      4944.5749      3712.3419      469.56203      590.19399      4914.9133     -4349.4466     -483.20088      81507.225      43.357613      43.357613      43.357613      1.0823048     -1205.8684      2275.9906      611.07795    
     90000   90000          623.09762     -231.5599       26952.853      27227.559      12070.824      15156.734      5003.4343      4920.1088      3785.2582      461.67183      440.35253      4899.2339     -4353.3251     -484.1672       81344.549      43.328749      43.328749      43.328749      1.0844693      166.688       -1201.5735      340.2058     
     91000   91000          617.9691       494.77299      27970.387      27377.744      11971.473      15406.271      5208.6704      4853.2684      3737.1889      467.33612      563.9628       4926.1702     -4350.3256     -479.52647      82131.78       43.468075      43.468075      43.468075      1.0740746      772.4724       1455.6755     -743.8289     
     92000   92000          619.65298      112.12723      27463.763      27331.706      12004.094      15327.612      5136.28        4858.0175      3775.0432      458.60721      516.4357       4930.1605     -4346.9317     -487.69759      80755.705      43.223945      43.223945      43.223945      1.0923768      1385.6794      922.98737     -1972.2851    
     93000   93000          607.04497      444.22288      27647.899      27125.755      11759.848      15365.907      5241.5451      4853.3614      3661.8793      468.93154      558.55723      4934.7574     -4353.1248     -488.66412      80595.978      43.195429      43.195429      43.195429      1.0945417     -610.63226      1696.933       246.3679     
     94000   94000          622.54587     -978.15488      26128.683      27303.24       12060.136      15243.105      5076.4363      4809.6605      3788.2583      457.38467      563.17585      4899.6557     -4351.4666     -478.33613      82336.165      43.504102      43.504102      43.504102      1.0714084     -478.14769     -1144.6314     -1311.6856    
     95000   95000          609.58176     -707.49636      26136.406      26982.544      11808.991      15173.552      5079.8358      4842.7023      3701.1431      461.79377      522.16265      4915.9661     -4350.0513     -480.26696      82005.147      43.445724      43.445724      43.445724      1.0757332     -523.29441      453.04649     -2052.2412    
     96000   96000          617.49367     -811.03891      26460.752      27423.103      11962.263      15460.84       5074.3309      4918.3408      3906.0374      472.00635      515.70054      4919.5162     -4345.0919     -484.06946      81360.974      43.331665      43.331665      43.331665      1.0842503     -1363.1411      708.29882     -1778.2745    
     97000   97000          608.54201     -1446.1395      25389.217      27114.688      11788.849      15325.839      5157.2494      4844.6299      3817.7837      464.65658      488.85393      4903.4649     -4350.7995     -481.39584      81812.844      43.411737      43.411737      43.411737      1.0782618     -2550.9579      321.74827     -2109.2088    
     98000   98000          611.15748     -263.55547      26587.184      26898.911      11839.517      15059.394      5072.8538      4794.3393      3740.0167      451.91523      456.18431      4895.9897     -4351.9047     -485.62022      81101.16       43.285492      43.285492      43.285492      1.0877238     -1068.9478      1084.0946     -805.81322    
     99000   99000          616.79846     -660.98869      26494.121      27285.899      11948.795      15337.104      5202.5351      4879.3444      3705.0633      462.68076      508.25164      4926.1155     -4346.8869     -479.50177      82136.01       43.468822      43.468822      43.468822      1.0740193     -480.92024     -498.84693     -1003.1989    
    100000   100000         628.48911     -1082.6983      26021.918      27309.262      12175.27       15133.993      5162.6801      4788.3537      3648.2538      451.49613      505.9737       4925.4018     -4348.1666     -483.07256      81528.876      43.361452      43.361452      43.361452      1.0820174     -1219.155      -316.09065     -1712.8492    
    101000   101000         598.08385      793.23316      27855.584      26906.263      11586.25       15320.013      5326.9114      4906.552       3556.774       452.565        503.99489      4922.7778     -4349.5621     -479.9409       82060.859      43.45556       43.45556       43.45556       1.0750029      1847.1449      324.05442      208.50019    
    102000   102000         611.10758     -752.08516      26335.539      27225.859      11838.55       15387.309      5273.4766      4810.0505      3779.4017      422.84692      532.22434      4916.5921     -4347.2835     -485.20015      81171.373      43.29798       43.29798       43.29798       1.0867829     -457.06737     -519.92012     -1279.268     
    103000   103000         608.73886     -1111.3704      25898.677      27241.031      11792.662      15448.369      5169.4477      4910.8707      3825.294       447.15951      512.3989       4926.9729     -4343.7749     -475.54473      82819.47       43.589058      43.589058      43.589058      1.0651561      359.33136     -3073.4329     -620.00955    
    104000   104000         615.1135      -783.55451      26548.495      27489.115      11916.154      15572.961      5160.6689      4902.886       3869.832       476.06331      576.11079      4929.0928     -4341.6927     -478.47011      82313.109      43.500041      43.500041      43.500041      1.0717085     -1320.927      -1167.5568      137.82026    
    105000   105000         601.56774      457.68192      27523.683      26977.096      11653.741      15323.354      5284.2949      4825.455       3632.4842      453.44687      553.07662      4920.2513     -4345.6546     -480.95426      81887.958      43.425019      43.425019      43.425019      1.0772727     -1771.4936      2388.2263      756.3131     
    106000   106000         608.07539      103.9573       27437.741      27313.615      11779.809      15533.805      5242.416       4895.8961      3798.1733      466.0973       570.18946      4915.2777     -4354.2445     -481.05109      81871.475      43.422105      43.422105      43.422105      1.0774896     -76.563866      773.98112     -385.54536    
    107000   107000         618.04385      971.07828      28325.025      27175.265      11972.921      15202.344      5130.5449      4815.3747      3741.045       445.25015      490.3533       4927.38       -4347.6041     -485.11742      81185.216      43.300441      43.300441      43.300441      1.0865976     -301.56389      2226.7716      988.02711    
    108000   108000         604.46281      1.1250707      26943.952      26942.616      11709.826      15232.791      5035.0176      4840.9159      3795.1655      448.98084      556.33103      4907.1755     -4350.7957     -483.78579      81408.68       43.340133      43.340133      43.340133      1.0836149     -768.11491      773.74667     -2.2565517    
    109000   109000         617.65403     -732.04942      26486.905      27360.938      11965.37       15395.569      5350.7533      4774.1639      3731.4107      471.69746      514.26915      4902.3396     -4349.0654     -481.07454      81867.485      43.421399      43.421399      43.421399      1.0775421     -263.81299     -853.14723     -1079.188     
    110000   110000         610.99821     -605.76306      26553.075      27268.109      11836.431      15431.678      5295.336       4792.9645      3811.2397      476.9556       507.63945      4902.8404     -4355.2976     -486.60396      80937.202      43.256303      43.256303      43.256303      1.0899273      293.68045     -2026.9882     -83.981423    
    111000   111000         615.74491     -995.91209      26001.466      27205.279      11928.386      15276.894      5143.0283      4878.4891      3718.3506      455.83074      512.5847       4918.4393     -4349.829      -475.18394      82882.352      43.600087      43.600087      43.600087      1.064348      -1571.0056     -2103.7829      687.05224    
    112000   112000         615.25558     -879.89048      26330.997      27372.292      11918.906      15453.386      5176.8445      4855.9943      3867.1926      480.73512      496.79445      4924.07       -4348.2448     -485.34939      81146.413      43.293541      43.293541      43.293541      1.0871172     -1017.0477     -197.27981     -1425.344     
    113000   113000         607.64382     -1132.0862      25946.859      27313.604      11771.449      15542.155      5340.1958      4931.7854      3711.7558      457.74451      544.12602      4906.7069     -4350.1593     -475.76417      82781.271      43.582355      43.582355      43.582355      1.0656476     -811.73506     -1038.9505     -1545.573     
    114000   114000         613.35029     -1249.4444      25581.227      27066.686      11881.996      15184.689      5176.8818      4820.6974      3685.7076      436.94165      497.03287      4912.7187     -4345.2908     -483.12111      81520.683      43.36          43.36          43.36          1.0821261     -1987.2037     -1082.6453     -678.48405    
    115000   115000         599.70606     -1410.3771      25267.214      26965.209      11617.676      15347.533      5157.5902      4904.7873      3752.3968      442.89093      505.91912      4930.6339     -4346.6856     -477.08807      82551.557      43.542005      43.542005      43.542005      1.0686129     -346.59433     -1784.3446     -2100.1924    
    116000   116000         617.14089      1275.9152      28759.107      27252.036      11955.429      15296.608      5126.128       4907.1554      3726.341       490.91623      495.30793      4903.2521     -4352.4932     -486.2818       80990.821      43.265853      43.265853      43.265853      1.0892057      2544.2507      2233.8059     -950.31109    
    117000   117000         609.37188     -412.30431      26660.674      27149.621      11804.925      15344.695      5165.9057      4872.3243      3805.5869      474.51134      466.44125      4913.033      -4353.1073     -484.34621      81314.486      43.323411      43.323411      43.323411      1.0848702     -2682.7955     -568.6028       2014.4854    
    118000   118000         606.38151      748.51826      27896.944      27014.251      11746.995      15267.256      5137.9561      4892.2424      3756.352       466.6438       445.65359      4921.3931     -4352.9849     -487.07147      80859.514      43.242458      43.242458      43.242458      1.0909744      511.17785      1099.2546      635.12231    
    119000   119000         616.37972     -1687.9399      25364.832      27363.769      11940.683      15423.086      5112.8543      4809.1038      3919.9753      494.45516      528.492        4910.7359     -4352.5307     -485.0177       81201.908      43.303408      43.303408      43.303408      1.0863743     -2753.2796     -1503.6829     -806.85701    
    120000   120000         606.61782     -2062.6367      24656.295      27112.078      11751.573      15360.505      5141.8529      4888.3016      3784.8942      471.43392      500.19484      4926.1937     -4352.3664     -482.42795      81637.812      43.380756      43.380756      43.380756      1.0805736     -1382.5374     -2200.4322     -2604.9405    
    121000   121000         616.45994     -1947.204       24926.965      27244.361      11942.237      15302.124      5216.7029      4851.4452      3752.944       441.82487      471.24946      4920.9961     -4353.0383     -482.62611      81604.292      43.374818      43.374818      43.374818      1.0810174     -2119.8076      799.72641     -4521.5307    
    122000   122000         618.70897     -208.53234      27087.623      27335.113      11985.806      15349.307      5243.8403      4931.5531      3666.1383      460.73934      485.18363      4913.7738     -4351.9217     -483.96594      81378.377      43.334755      43.334755      43.334755      1.0840184      638.69418     -45.90146      -1218.3897    
    123000   123000         609.04968     -154.22784      27024.226      27208.236      11798.684      15409.552      5135.4285      4983.0532      3737.9669      442.1369       563.98083      4898.705      -4351.7193     -481.4181       81809.06       43.411068      43.411068      43.411068      1.0783116     -1914.5231      2175.4699     -723.63031    
    124000   124000         609.20029      474.70583      27560.268      26998.081      11801.601      15196.48       5190.0376      4809.9357      3627.8872      461.46277      541.43465      4917.9623     -4352.2404     -485.00233      81204.482      43.303866      43.303866      43.303866      1.0863398     -256.38876     -397.25294      2077.7592    
    125000   125000         613.12609     -835.96968      26222.832      27210.437      11877.653      15332.784      5181.2098      4844.5877      3862.8421      472.86964      387.74027      4932.3831     -4348.8487     -486.1913       81005.898      43.268537      43.268537      43.268537      1.089003      -613.79322     -262.80871     -1631.3071    
    126000   126000         612.95638     -523.71857      26533.714      27160.333      11874.365      15285.968      5292.8656      4740.6144      3787.9465      462.95072      438.20965      4913.8226     -4350.4417     -480.05816      82040.814      43.452022      43.452022      43.452022      1.0752656     -1081.8241     -1008.0708      518.73914    
    127000   127000         615.4238      -639.29613      26496.949      27255.558      11922.165      15333.393      5241.2309      4932.9753      3611.4907      441.49844      539.40603      4919.9229     -4353.1316     -484.04304      81365.415      43.332454      43.332454      43.332454      1.0841911     -757.00348     -760.0231      -400.8618     
    128000   128000         622.61327     -424.25723      27036.31       27545.925      12061.441      15484.484      5286.9345      4870.8634      3791.5907      460.33941      519.52879      4902.8101     -4347.583      -478.17451      82363.995      43.509003      43.509003      43.509003      1.0710464     -1392.2617     -11.010681      130.50073    
    129000   129000         614.20913     -862.71235      26081.418      27119.706      11898.634      15221.072      5159.5655      4788.8232      3742.6763      444.26529      499.13905      4932.4158     -4345.813      -477.25219      82523.167      43.537013      43.537013      43.537013      1.0689806     -1479.9578     -761.74614     -346.43309    
    130000   130000         604.78449      973.42605      28227.691      27067.985      11716.057      15351.928      5218.2472      4799.5801      3750.0888      464.87701      546.84007      4920.4202     -4348.1252     -482.11979      81689.993      43.389997      43.389997      43.389997      1.0798833      841.14824      1609.867       469.26291    
    131000   131000         608.29404      185.6705       27622.742      27398.62       11784.045      15614.575      5302.073       4817.2972      3851.1816      463.97879      631.42031      4898.7266     -4350.1025     -475.83667      82768.658      43.580142      43.580142      43.580142      1.06581        316.08707      1420.3571     -1179.4326    
    132000   132000         595.43932     -192.84393      26360.684      26587.918      11535.02       15052.898      5044.7077      4867.0886      3714.7796      447.13586      408.88221      4921.3836     -4351.0798     -487.45374      80796.103      43.231152      43.231152      43.231152      1.0918307      1821.9627     -2438.3135      37.818944    
    133000   133000         611.57241      611.41716      27928.591      27192.104      11847.555      15344.55       5254.9772      4804.8305      3702.5532      461.25457      571.92997      4901.3022     -4352.2982     -476.83984      82594.531      43.549559      43.549559      43.549559      1.0680569      2378.9972      769.72905     -1314.4748    
    134000   134000         613.41556     -145.25575      26978.645      27151.732      11883.261      15268.472      5206.7265      4818.4263      3703.6231      454.34808      531.14731      4909.4114     -4355.2112     -482.02387      81706.25       43.392875      43.392875      43.392875      1.0796685      2306.943      -3358.0385      615.32823    
    135000   135000         602.3837      -1335.4072      25399.07       27008.354      11669.549      15338.806      5060.6265      4807.7886      3874.4738      485.10894      542.13719      4919.3093     -4350.6385     -476.62918      82631.034      43.555974      43.555974      43.555974      1.0675851      345.58891     -1082.6577     -3269.1529    
    136000   136000         607.35096      604.73609      27608.454      26891.691      11765.776      15125.916      5061.5578      4803.5849      3720.8512      455.73782      512.97512      4925.0895     -4353.8808     -484.60732      81270.672      43.315628      43.315628      43.315628      1.0854551     -974.74151      1058.7046      1730.2451    
    137000   137000         614.71893      334.7612       27548.47       27149.347      11908.51       15240.837      5185.3114      4840.8371      3665.1717      450.9102       563.33342      4891.3376     -4356.0644     -481.75746      81751.433      43.400872      43.400872      43.400872      1.0790718     -621.66043     -143.44013      1769.3841    
    138000   138000         597.23562      1442.1162      28746.649      27021.311      11569.818      15451.492      5356.9105      4852.9005      3627.5231      456.54876      600.56458      4908.06       -4351.0151     -480.0933       82034.809      43.450961      43.450961      43.450961      1.0753443      1611.1614      1510.8809      1204.3062    
    139000   139000         609.71773      154.926        27167.427      26983.719      11811.625      15172.094      5130.9626      4787.6015      3772.7975      458.34362      455.54294      4920.1624     -4353.3165     -484.39061      81307.032      43.322087      43.322087      43.322087      1.0849697      1051.3819     -75.038764     -511.56513    
    140000   140000         610.17023     -1417.1043      25501.209      27177.861      11820.391      15357.469      5225.0614      4893.1214      3742.0951      456.50233      484.38286      4909.5875     -4353.2811     -485.4657       81126.973      43.290084      43.290084      43.290084      1.0873777     -2772.7582     -322.1424      -1156.4124    
    141000   141000         604.37073     -186.70078      26772.917      26994.038      11708.042      15285.996      5144.7115      4991.3983      3667.0511      443.8519       471.65275      4914.8745     -4347.5436     -484.97091      81209.742      43.304801      43.304801      43.304801      1.0862695      1789.8376     -1326.2728     -1023.6672    
    142000   142000         623.01773      1213.2031      28697.006      27268.021      12069.277      15198.744      5270.2389      4845.7262      3577.7318      458.07174      488.33655      4910.7879     -4352.1491     -487.64692      80764.095      43.225442      43.225442      43.225442      1.0922634      531.76857      1184.8099      1923.0306    
    143000   143000         615.47628      1133.4703      28428.267      27068.591      11923.182      15145.41       5040.5888      4840.6003      3735.0428      460.96375      507.39773      4910.9712     -4350.1549     -478.82246      82252.538      43.489369      43.489369      43.489369      1.0724978      2719.611       824.04512     -143.24517    
    144000   144000         612.73665     -474.931        26728.117      27296.015      11870.109      15425.906      5229.2636      4831.2387      3855.7994      452.19877      497.51447      4909.1283     -4349.2371     -480.35258      81990.53       43.443142      43.443142      43.443142      1.075925       99.944215     -1549.6527      24.915451    
    145000   145000         615.85963     -1756.5614      25000.01       27088.365      11930.608      15157.757      5110.0261      4730.5773      3808.1976      450.42551      475.28663      4933.2158     -4349.9724     -483.1242       81520.161      43.359907      43.359907      43.359907      1.0821331     -2599.0415     -249.15061     -2421.4921    
    146000   146000         620.743        169.04406      27522.306      27323.678      12025.21       15298.468      5215.242       4861.4672      3709.1105      460.91658      494.63915      4907.0983     -4350.0054     -488.83243      80568.228      43.190471      43.190471      43.190471      1.0949187      2268.9876     -84.961029     -1676.8944    
    147000   147000         616.14399     -508.06818      26668.046      27276.464      11936.117      15340.347      5274.3077      4773.4475      3789.3598      461.9033       492.69948      4901.3184     -4352.689      -479.6445       82111.568      43.464509      43.464509      43.464509      1.074339       1974.1764     -1973.7383     -1524.6426    
    148000   148000         605.17173      745.68434      27799.252      26915.388      11723.559      15191.829      5109.6883      4775.8733      3805.9627      462.5981       479.66912      4910.3593     -4352.3219     -484.58418      81274.554      43.316318      43.316318      43.316318      1.0854032      432.26887     -1274.3548      3079.139     
    149000   149000         615.40947      837.92235      28102.276      27099.113      11921.887      15177.226      5258.9931      4746.6288      3649.1209      461.23951      489.46323      4922.098      -4350.3176     -479.76895      82090.27       43.460751      43.460751      43.460751      1.0746178      137.13877      713.86873      1662.7596    
    150000   150000         605.94119      666.23149      27655.375      26859.021      11738.465      15120.556      5134.1642      4818.535       3692.3307      452.12049      450.47975      4923.5927     -4350.6671     -480.52785      81960.625      43.43786       43.43786       43.43786       1.0763176      2221.7953     -815.8387       592.73788    
    151000   151000         613.385       -1182.9325      25776.42       27187.08       11882.669      15304.411      5197.6143      4780.8807      3829.9612      472.05932      460.4421       4913.9712     -4350.5174     -481.65623      81768.614      43.403913      43.403913      43.403913      1.078845      -1726.2116     -641.73024     -1180.8558    
    152000   152000         605.89861      266.61827      27318.716      27002.834      11737.64       15265.194      5361.189       4671.9898      3689.0662      468.16112      492.58108      4930.1405     -4347.9334     -484.80376      81237.742      43.309777      43.309777      43.309777      1.0858951     -932.9821       1443.4749      289.36196    
    153000   153000         611.85843      795.15225      27923.761      26979.595      11853.096      15126.5        5218.9159      4660.501       3710.9593      448.0779       530.71745      4906.9077     -4349.5796     -483.72879      81418.273      43.341835      43.341835      43.341835      1.0834873      800.27829      1312.9244      272.25407    
    154000   154000         608.69498     -162.87756      26870.764      27064.217      11791.812      15272.404      5279.456       4852.2696      3632.8356      459.47378      485.96059      4913.5062     -4351.0973     -483.60018      81439.925      43.345677      43.345677      43.345677      1.0831992     -1379.984       0.67061316     890.68074    
    155000   155000         606.36719     -1224.3681      25399.661      26847.037      11746.718      15100.319      5151.2462      4757.2553      3682.5229      448.75089      508.05418      4906.792      -4354.3022     -485.88163      81057.525      43.277727      43.277727      43.277727      1.0883093      508.52259     -1874.5492     -2307.0777    
    156000   156000         617.70174      854.15588      28039.252      27024.478      11966.294      15058.184      5246.0839      4702.9592      3612.709       436.07063      491.13254      4920.276      -4351.047      -483.46806      81462.182      43.349625      43.349625      43.349625      1.0829033      1324.4377      1241.1461     -3.1161212    
    157000   157000         609.1337      -143.9393       26986.955      27159.049      11800.311      15358.737      5228.3605      4940.6214      3689.9047      452.68502      471.44625      4923.7362     -4348.0169     -480.41221      81980.353      43.441345      43.441345      43.441345      1.0760586      293.24171     -1026.8493      301.78965    
    158000   158000         609.80531      763.88526      28005.208      27098.293      11813.322      15284.971      5087.7313      4871.8423      3757.4931      471.62346      544.71429      4903.211      -4351.6441     -483.79488      81407.151      43.339861      43.339861      43.339861      1.0836353      2009.9124      484.27489     -202.53152    
    159000   159000         611.12605      850.86983      27891.102      26887.212      11838.908      15048.305      5211.1025      4843.5244      3590.894       435.85715      413.54645      4905.1949     -4351.8145     -486.82956      80899.694      43.24962       43.24962       43.24962       1.0904326      431.57531     -220.80822      2341.8424    
    160000   160000         607.71191     -1016.6794      25849.247      27073.04       11772.768      15300.272      5171.1111      4819.1227      3767.9839      455.35333      514.28178      4916.9938     -4344.5744     -477.17263      82536.928      43.539433      43.539433      43.539433      1.0688024     -628.0111      -397.46388     -2024.5632    
    161000   161000         606.72451     -2052.729       24626.735      27061.612      11753.64       15307.972      5239.6118      4845.8296      3736.2228      446.66323      474.56289      4911.8974     -4346.8159     -484.23294      81333.506      43.326788      43.326788      43.326788      1.0846165     -2337.4833     -2418.1038     -1402.5999    
    162000   162000         600.43771      1134.2088      27940.768      26601.452      11631.85       14969.602      5119.9902      4894.4804      3523.4786      437.12276      421.29032      4924.4447     -4351.2048     -486.41809      80968.129      43.261812      43.261812      43.261812      1.0895109      58.351485      1758.066       1586.2088    
    163000   163000         605.81271     -1545.0613      25175.559      26995.227      11735.976      15259.25       5212.6059      4818.2694      3760.5137      456.94933      450.8184       4912.1149     -4352.0213     -487.70055      80755.214      43.223858      43.223858      43.223858      1.0923835     -343.87169     -1398.7112     -2892.6009    
    164000   164000         612.10856      280.94365      27414.756      27081.263      11857.941      15223.321      5225.9442      4642.8661      3804.0681      473.08384      508.1042       4923.0061     -4353.7511     -483.87322      81393.971      43.337522      43.337522      43.337522      1.0838108      653.98371      961.66713     -772.81987    
    165000   165000         603.31898      669.36136      27558.566      26769.68       11687.667      15082.013      5051.0233      4733.8872      3809.7728      469.52515      468.53708      4900.3519     -4351.0847     -487.35526      80812.429      43.234063      43.234063      43.234063      1.0916101      588.29115      1400.191       19.601894    
    166000   166000         607.69987     -683.91309      26007.866      26829.697      11772.535      15057.162      5046.4597      4743.362       3718.3107      445.71553      547.52939      4905.5331     -4349.7484     -477.98945      82395.883      43.514618      43.514618      43.514618      1.0706319      441.64286     -1305.4088     -1187.9733    
    167000   167000         626.78921      369.59909      27834.886      27391.857      12142.339      15249.518      5286.5613      4780.0127      3703.79        460.20038      465.30276      4902.9356     -4349.2849     -479.17928      82191.289      43.478571      43.478571      43.478571      1.073297       239.40919      187.54538      681.84269    
    168000   168000         605.07758      576.30533      27642.11       26954.571      11721.735      15232.836      5159.0657      4877.4138      3672.426       449.62446      516.05756      4911.7371     -4353.4886     -481.4544       81802.893      43.409977      43.409977      43.409977      1.0783929      659.92336     -85.687109      1154.6797    
    169000   169000         611.76181      702.96143      28136.502      27299.045      11851.224      15447.822      5369.8876      4828.0504      3660.362       476.42713      545.94683      4913.5458     -4346.3982     -482.13525      81687.375      43.389533      43.389533      43.389533      1.0799179     -2422.7752      1179.7191      3351.9404    
    170000   170000         599.89139     -966.71227      25786.55       26945.952      11621.267      15324.686      5259.8209      4755.8888      3762.1295      461.00101      527.14412      4908.5279     -4349.8265     -478.91961      82235.854      43.486428      43.486428      43.486428      1.0727153     -1606.0404     -1584.9008      290.80439    
    171000   171000         605.51568      1497.6178      28620.632      26828.703      11730.222      15098.481      5181.5253      4768.0623      3537.7932      469.39897      570.9793       4917.0078     -4346.2861     -480.04277      82043.444      43.452486      43.452486      43.452486      1.0752311      3661.1086     -346.52777      1178.2727    
    172000   172000         593.03532     -22.452743      26741.377      26768.29       11488.449      15279.841      5134.6019      4823.8869      3798.5959      464.90438      487.29566      4916.3057     -4345.7492     -479.19555      82188.497      43.478079      43.478079      43.478079      1.0733334      1446.6838     -885.65459     -628.38745    
    173000   173000         599.99309      2472.9896      30020.297      27040.905      11623.237      15417.668      5280.6331      4876.9547      3621.9633      467.10763      587.8265       4924.4298     -4341.2472     -476.754        82609.402      43.552173      43.552173      43.552173      1.0678647      1754.0956      2568.8363      3096.0367    
    174000   174000         610.57605     -831.43208      25944.182      26953.143      11828.253      15124.89       5043.2131      4787.4544      3700.1009      454.35867      592.98617      4898.5193     -4351.7422     -473.3167       83209.323      43.657346      43.657346      43.657346      1.0601656     -1051.6514     -244.12546     -1198.5194    
    175000   175000         609.73404      705.87178      27882.852      27034.999      11811.941      15223.058      5118.095       4854.6151      3663.9565      441.5834       584.90346      4908.4062     -4348.5016     -478.19508      82360.45       43.508379      43.508379      43.508379      1.0710925      608.01777      897.30777      612.28982    
    176000   176000         608.21844     -2261.5022      24343.739      27042.212      11782.581      15259.631      5149.2958      4902.4316      3767.7348      452.09099      425.45051      4909.9935     -4347.3659     -481.36955      81817.313      43.412527      43.412527      43.412527      1.0782029     -1680.3724     -926.99863     -4177.1355    
    177000   177000         603.74974     -761.61722      26056.661      26962.396      11696.012      15266.384      5058.4524      4789.2283      3886.522       466.74061      502.66994      4908.1204     -4345.3496     -482.98699      81543.319      43.364013      43.364013      43.364013      1.0818257     -1414.584      -615.8882      -254.37944    
    178000   178000         614.96449      472.85056      27598.582      27032.327      11913.267      15119.06       5090.4471      4778.2896      3758.1442      455.95829      463.09321      4921.1368     -4348.0096     -479.63584      82113.052      43.464771      43.464771      43.464771      1.0743196      960.79041      1767.4091     -1309.6478    
    179000   179000         606.46464      1247.1516      28306.895      26831.379      11748.606      15082.773      5271.3539      4678.0934      3615.577       454.39936      500.36249      4911.5678     -4348.5806     -485.48402      81123.911      43.289539      43.289539      43.289539      1.0874188     -942.67838      1865.6437      2818.4894    
    180000   180000         617.97116      2242.5193      29820.235      27148.897      11971.513      15177.383      5346.8799      4788.3127      3544.6613      453.60745      496.96406      4902.746      -4355.788      -482.1775       81680.216      43.388266      43.388266      43.388266      1.0800126     -74.95328       4352.7361      2449.775     
    181000   181000         612.75254     -436.23778      26424.878      26941.661      11870.417      15071.245      5169.6479      4692.6465      3678.5289      433.46734      528.52147      4918.114      -4349.6813     -484.85769      81228.706      43.308171      43.308171      43.308171      1.0860159     -1258.3078     -1647.6175      1597.212     
    182000   182000         605.07235     -1567.4726      25068.889      26901.183      11721.634      15179.549      5162.1414      4789.37        3784.9385      460.18741      441.71548      4891.0355     -4349.8388     -491.36517      80152.94       43.116135      43.116135      43.116135      1.1005917     -81.738815     -2037.808      -2582.8709    
    183000   183000         594.59887      1899.7891      29005.665      26745.273      11518.739      15226.535      5266.3224      4852.4238      3604.7213      461.63752      484.47127      4906.4293     -4349.4708     -482.74899      81583.522      43.371138      43.371138      43.371138      1.0812926      1824.3457      938.67101      2936.3507    
    184000   184000         608.72174      529.98534      27334.666      26716.379      11792.331      14924.048      5067.9729      4850.225       3546.7443      452.70975      454.70388      4900.3043     -4348.612      -492.34943      79992.705      43.087384      43.087384      43.087384      1.1027963      2646.6682     -307.82821     -748.88402    
    185000   185000         612.48095      383.60273      27367.798      26917.213      11865.155      15052.058      5060.0084      4806.9731      3762.4514      447.57483      442.38962      4889.9468     -4357.2859     -488.99541      80541.374      43.185672      43.185672      43.185672      1.0952838     -870.53134      18.490703      2002.8488    
    186000   186000         601.30045     -1112.5863      25551.275      26868.151      11648.563      15219.588      5137.0374      4917.1357      3774.4049      457.11787      367.68316      4908.9021     -4342.693      -485.27554      81158.764      43.295737      43.295737      43.295737      1.0869518     -1535.3319      13.315906     -1815.7429    
    187000   187000         608.98859     -722.50746      26302.87       27159.511      11797.5        15362.011      5355.8089      4864.6181      3690.4472      443.03683      445.51697      4913.3943     -4350.8111     -484.44363      81298.132      43.320506      43.320506      43.320506      1.0850884      36.778183      208.67425     -2412.9748    
    188000   188000         600.9764      -710.66715      25951.086      26793.332      11642.286      15151.046      5110.7146      4855.9396      3670.5787      464.75285      477.77924      4917.8226     -4346.5416     -484.64865      81263.741      43.314397      43.314397      43.314397      1.0855476     -1423.9047     -793.41121      85.31445     
    189000   189000         609.9719       1912.5739      29106.275      26849.103      11816.549      15032.554      5151.5299      4706.7049      3750.2203      455.97392      406.26878      4914.5831     -4352.7271     -486.69104      80922.719      43.253722      43.253722      43.253722      1.0901223      1014.9728      316.81364      4405.9353    
    190000   190000         606.49333     -1620.2154      25083.666      27016.144      11749.161      15266.983      5298.673       4795.1606      3753.402       449.4572       422.21338      4895.1867     -4347.1102     -481.56834      81783.538      43.406553      43.406553      43.406553      1.0786482     -1777.8118     -2472.051      -610.78356    
    191000   191000         605.1246       580.46821      27452.687      26769.82       11722.646      15047.174      5116.5205      4710.5633      3731.1576      461.47048      466.79883      4910.1997     -4349.5365     -488.24948      80664.423      43.207653      43.207653      43.207653      1.093613       2005.4759     -169.64089     -94.430342    
    192000   192000         613.36267     -1584.2308      25054.553      26948.553      11882.236      15066.317      5123.5756      4678.6056      3814.4794      452.3503       423.87126      4924.5862     -4351.1512     -480.43889      81975.801      43.440541      43.440541      43.440541      1.0761183     -2551.9587     -763.10549     -1437.6281    
    193000   193000         611.70897      1610.7894      29068.885      27161.307      11850.2        15311.107      5244.2114      4924.4173      3561.9737      458.42595      558.61802      4912.5957     -4349.1354     -485.01598      81202.196      43.303459      43.303459      43.303459      1.0863704      217.75264      2984.021       1630.5946    
    194000   194000         597.98458      285.09208      27137.476      26795.851      11584.327      15211.523      5126.9409      4799.9829      3633.5218      468.14935      618.24631      4911.1171     -4346.4349     -479.33114      82165.248      43.473979      43.473979      43.473979      1.0736371     -151.63948      145.57162      861.34409    
    195000   195000         606.18785     -1751.3126      24842.356      26927.115      11743.243      15183.872      5065.1343      4796.4303      3821.8754      481.97917      448.01624      4918.4114     -4347.9749     -482.51125      81623.719      43.37826       43.37826       43.37826       1.0807601     -1957.8104     -879.21999     -2416.9073    
    196000   196000         600.9722      -0.69449119     26763.849      26764.683      11642.204      15122.478      5101.603       4913.4057      3627.7502      427.25751      485.10985      4914.1691     -4346.817      -478.469        82313.301      43.500075      43.500075      43.500075      1.071706       1986.9368     -556.31779     -1432.7024    
    197000   197000         616.97285      1004.6133      28312.169      27122.993      11952.174      15170.819      5156.8481      4733.2403      3757.5632      454.73449      513.41367      4903.0162     -4347.9968     -485.23522      81165.507      43.296936      43.296936      43.296936      1.0868615      2435.1835      498.63085      80.025595    
    198000   198000         600.23193      1009.393       28024.797      26819.706      11627.864      15191.842      5196.4147      4804.9606      3631.4423      452.33797      523.16593      4929.1331     -4345.6125     -481.10517      81862.273      43.420478      43.420478      43.420478      1.0776107      2728.9815     -477.55927      776.75684    
    199000   199000         609.31263     -1622.4408      25040.17       26985.574      11803.778      15181.797      5074.6645      4774.6033      3815.0025      442.83564      501.81383      4919.9351     -4347.0582     -479.02563      82217.651      43.483219      43.483219      43.483219      1.0729528     -1779.0473     -1475.3199     -1612.9551    
    200000   200000         604.64094     -46.061285      26961.542      27016.337      11713.276      15303.06       5168.7944      4887.1066      3690.1057      471.44184      506.78912      4925.6458     -4346.8231     -482.83654      81568.728      43.368516      43.368516      43.368516      1.0814888     -1109.6821     -895.86301      1867.3612    
    201000   201000         608.05332     -1669.5699      24949.861      26956.402      11779.382      15177.02       5048.0041      4789.634       3819.2414      457.00484      497.86115      4915.6939     -4350.4197     -477.92128      82407.635      43.516686      43.516686      43.516686      1.0704792     -3078.1154     -167.42023     -1763.174     
    202000   202000         605.25734      209.72579      26983.407      26734.822      11725.217      15009.605      5119.5619      4689.4454      3664.4678      450.00788      530.44662      4906.8111     -4351.1362     -484.59161      81273.307      43.316096      43.316096      43.316096      1.0854199      800.87744     -309.50704      137.80696    
    203000   203000         596.4021       743.91235      27627.935      26743.966      11553.671      15190.294      5233.132       4748.1959      3742.7336      444.88106      452.09719      4916.6503     -4347.3956     -483.37527      81477.819      43.352399      43.352399      43.352399      1.0826954     -1651.8792      1386.1311      2497.4852    
    204000   204000         615.5336       1078.7352      28144.872      26870.445      11924.292      14946.153      5104.1911      4791.0703      3677.2625      436.27455      387.26456      4903.4651     -4353.3756     -486.1827       81007.331      43.268792      43.268792      43.268792      1.0889837      352.04763      1615.1076      1269.0505    
    205000   205000         604.23287     -172.19194      26490.539      26693.164      11705.371      14987.793      5138.1822      4717.9396      3694.4055      437.04239      433.47432      4912.3262     -4345.5777     -488.11164      80687.202      43.21172       43.21172       43.21172       1.0933043      204.68465      944.31584     -1665.5763    
    206000   206000         601.56531      140.44599      26901.956      26735.307      11653.694      15081.613      5124.3604      4811.4292      3672.8427      469.23027      456.40377      4898.2924     -4350.9456     -484.07008      81360.87       43.331647      43.331647      43.331647      1.0842517      672.37647     -2255.4374      2004.3989    
    207000   207000         609.26973     -1128.6308      25404.643      26732.592      11802.946      14929.645      5058.4371      4824.0638      3647.5793      434.94546      409.30168      4907.2051     -4351.8873     -488.16925      80677.68       43.21002       43.21002       43.21002       1.0934333      706.03778     -1044.8926     -3047.0374    
    208000   208000         600.35679      1916.1359      28807.306      26555.203      11630.282      14924.92       5057.88        4723.5477      3622.8404      466.3164       493.04161      4909.6154     -4348.3211     -488.69483      80590.913      43.194524      43.194524      43.194524      1.0946105      630.52726      1093.9144      4023.9661    
    209000   209000         612.32887      996.8447       28148.991      26977.231      11862.209      15115.021      5037.6243      4740.6088      3789.8962      463.42586      506.4578       4920.1573     -4343.1487     -488.63934      80600.065      43.196159      43.196159      43.196159      1.0944862     -170.5351       1224.7812      1936.288     
    210000   210000         607.20126     -1481.8178      24918.156      26668.073      11762.876      14905.198      5191.5098      4702.9945      3620.6446      428.79616      417.75296      4897.2094     -4353.7098     -486.38135      80974.245      43.262901      43.262901      43.262901      1.0894287     -4825.4786     -196.51353      576.53873    
    211000   211000         616.84893      198.80015      27225.963      26991.03       11949.773      15041.257      5187.1528      4667.6808      3754.9155      434.63118      450.03808      4894.228      -4347.3893     -486.03995      81031.122      43.273028      43.273028      43.273028      1.088664       609.84197     -463.01544      449.57391    
    212000   212000         607.04009      1599.9602      28509.95       26620.98       11759.753      14861.227      4941.4229      4569.4414      3757.0007      452.46849      592.45681      4899.1365     -4350.6999     -486.50115      80954.305      43.259349      43.259349      43.259349      1.089697       3515.4402      108.66671      1175.7735    
    213000   213000         610.38276     -762.54728      26062.677      26971.832      11824.508      15147.323      5077.7643      4809.1396      3739.8009      472.37921      476.64675      4919.1568     -4347.5642     -481.75742      81751.44       43.400873      43.400873      43.400873      1.0790717      1624.5027     -2377.9219     -1534.2226    
    214000   214000         591.4458       537.79604      27303.77       26662.752      11457.656      15205.095      5128.0601      4822.1376      3757.8485      445.09069      493.87177      4905.9923     -4347.9055     -481.88878      81729.155      43.39693       43.39693       43.39693       1.0793659      259.7369       136.04808      1217.6031    
    215000   215000         606.39131      359.49518      27079.259      26658.023      11747.185      14910.838      5062.9487      4710.5734      3671.3738      450.95539      460.10766      4902.4706     -4347.5913     -490.19373      80344.485      43.150453      43.150453      43.150453      1.0979679      826.31033      1252.0688     -999.89361    
    216000   216000         606.14272     -441.78902      26355.59       26877.151      11742.369      15134.782      5138.7272      4779.8253      3721.0525      463.89997      472.07835      4906.3856     -4347.1871     -486.52941      80949.602      43.258512      43.258512      43.258512      1.0897603     -116.16884     -1105.772      -103.42623    
    217000   217000         604.33098     -747.43344      25811.912      26686.062      11707.272      14978.791      5045.7356      4760.4664      3720.2767      453.98006      436.04141      4910.7493     -4348.459      -491.11854      80193.19       43.123351      43.123351      43.123351      1.1000393     -1185.5579     -1341.5592      284.81677    
    218000   218000         601.61225      704.29887      27541.415      26710.622      11654.604      15056.018      5305.2406      4729.3196      3634.4201      439.82113      389.19329      4908.1981     -4350.1744     -486.92729      80883.458      43.246726      43.246726      43.246726      1.0906515      2168.129      -1286.2161      1230.9837    
    219000   219000         603.17578     -1886.7846      24637.852      26861.816      11684.893      15176.923      5227.6367      4770.3496      3753.6235      458.76238      397.51265      4913.4534     -4344.415      -487.29754      80822.002      43.23577       43.23577       43.23577       1.0914808     -310.90882     -2004.1676     -3345.2774    
    220000   220000         600.1801      -337.01921      26089.729      26482.497      11626.86       14855.637      5139.7736      4766.6527      3612.6123      449.25326      342.67554      4895.55       -4350.8802     -492.85369      79910.86       43.072684      43.072684      43.072684      1.1039258      1205.1276     -944.60919     -1271.576     
    221000   221000         602.99521     -1373.7176      25106.299      26733.209      11681.395      15051.814      5105.5537      4757.1041      3709.7794      437.58892      479.95574      4908.5913     -4346.7592     -484.99095      81206.386      43.304204      43.304204      43.304204      1.0863143     -4057.9668      223.85519     -287.04129    
    222000   222000         606.47601      41.974634      26797.19       26747.215      11748.826      14998.389      5099.1         4744.751       3672.0256      448.42569      501.05904      4883.7496     -4350.7222     -482.42283      81638.679      43.38091       43.38091       43.38091       1.0805621      702.63085     -372.5197      -204.18725    
    223000   223000         605.55991      651.08968      27760.05       26995.498      11731.079      15264.419      5101.9776      4879.3459      3804.0182      457.79637      464.98701      4906.4047     -4350.1106     -489.14036      80517.507      43.181405      43.181405      43.181405      1.0956085      230.09217      228.0248       1495.1521    
    224000   224000         608.78606     -1093.3636      25545.34       26836.591      11793.577      15043.014      5112.3925      4794.601       3703.8223      459.59053      426.97937      4897.1603     -4351.5317     -486.3553       80978.582      43.263673      43.263673      43.263673      1.0893703     -1929.1898      447.94193     -1798.8428    
    225000   225000         595.83503     -620.57845      25822.116      26554.733      11542.686      15012.047      4990.5535      4712.7845      3799.8818      448.10571      513.09884      4899.8603     -4352.2379     -486.5411       80947.658      43.258165      43.258165      43.258165      1.0897865     -1561.7889     -104.08119     -195.86524    
    226000   226000         597.63716      694.15846      27513.848      26699.961      11577.597      15122.364      5198.7036      4842.6853      3680.0729      453.4729       391.78439      4903.9979     -4348.3535     -489.88515      80395.094      43.159511      43.159511      43.159511      1.0972767      1641.9691     -450.41212      890.91841    
    227000   227000         594.19739      1303.9772      28188.917      26646.789      11510.961      15135.828      5099.8235      4854.2533      3726.2954      456.61081      439.22207      4910.904      -4351.2813     -485.67898      81091.346      43.283746      43.283746      43.283746      1.0878554      1913.1081      841.34425      1157.4791    
    228000   228000         603.33133      1101.0107      28053.331      26756.246      11687.906      15068.34       5115.2429      4778.7129      3736.7264      468.50727      386.53326      4926.8031     -4344.1862     -487.55399      80779.491      43.228189      43.228189      43.228189      1.0920552      291.51196      1515.1731      1496.347     
    229000   229000         607.40061     -29.194876      27051.885      27085.914      11766.737      15319.176      5224.6514      4907.8628      3795.7281      449.72128      369.45048      4920.0734     -4348.311      -492.78265      79922.381      43.074754      43.074754      43.074754      1.1037667     -2143.5828     -235.59742      2291.5956    
    230000   230000         596.90758      603.62296      27428.25       26715.852      11563.463      15152.389      5290.4039      4756.0112      3597.4438      458.86119      480.30201      4919.8363     -4350.4696     -486.67934      80924.665      43.254069      43.254069      43.254069      1.0900961      1788.431      -46.122607      68.560493    
    231000   231000         607.28991      924.08871      27716.744      26643.086      11764.593      14878.494      5143.6995      4755.0729      3605.2597      453.81105      370.16653      4902.6938     -4352.2098     -494.36478      79666.602      43.028753      43.028753      43.028753      1.1073105      1015.6984      1188.8184      567.7493     
    232000   232000         586.18256      1294.26        27868.047      26366.875      11355.695      15011.179      5337.1741      4758.0926      3507.2476      440.34566      418.28023      4901.761      -4351.7219     -495.21149      79530.389      43.004216      43.004216      43.004216      1.109207       247.29519      655.56756      2979.9171    
    233000   233000         602.67687     -810.94071      25732.887      26689.172      11675.228      15013.945      5115.8701      4647.2681      3803.3558      470.40786      428.69455      4896.5434     -4348.1952     -487.08106      80857.922      43.242175      43.242175      43.242175      1.0909959     -551.63227     -809.61254     -1071.5773    
    234000   234000         596.36937     -547.71118      26016.394      26658.371      11553.037      15105.334      5271.1431      4818.3017      3704.4528      452.3105       290.43823      4913.9771     -4345.2896     -490.04019      80369.659      43.154959      43.154959      43.154959      1.0976239      1822.1104     -1511.2256     -1954.0183    
    235000   235000         600.31891      2629.6541      29578.542      26508.872      11629.549      14879.323      5272.9452      4729.8092      3500.1088      435.10224      392.45439      4896.1257     -4347.2223     -492.04707      80041.86       43.096208      43.096208      43.096208      1.1021191      3256.0356      1791.9668      2840.9599    
    236000   236000         604.09093     -2303.7193      24172.351      26874.247      11702.621      15171.626      5296.8261      4731.9668      3777.7039      436.18066      361.48079      4919.6894     -4352.2219     -489.73438      80419.845      43.16394       43.16394       43.16394       1.096939      -2932.8537     -1585.3259     -2392.9783    
    237000   237000         594.57954     -479.056        25955.174      26516.585      11518.364      14998.221      5229.5046      4621.6696      3745.872       457.24718      389.77883      4905.6513     -4351.5026     -490.12337      80356.018      43.152517      43.152517      43.152517      1.0978103     -1698.0991      141.88252      119.04857    
    238000   238000         609.82713      682.10315      27516.296      26716.873      11813.745      14903.128      5171.0583      4821.9999      3527.0582      442.9551       374.86804      4914.4619     -4349.2735     -490.08641      80362.079      43.153602      43.153602      43.153602      1.0977275      332.66859      1284.4582      429.18263    
    239000   239000         595.79591     -234.4466       26273.435      26548.031      11541.928      15006.103      5137.8176      4760.3159      3663.3551      459.42823      417.69144      4911.5397     -4344.0448     -490.39829      80310.971      43.144452      43.144452      43.144452      1.098426      -1222.623       862.62773     -343.34451    
    240000   240000         611.89564      2082.3996      29160.967      26718.668      11853.816      14864.852      5083.1908      4665.43        3683.276       464.82703      409.84996      4904.096      -4345.8177     -489.73938      80419.022      43.163793      43.163793      43.163793      1.0969502      1605.0762      3167.0964      1475.0264    
    241000   241000         606.29582     -529.24205      25900.754      26523.083      11745.335      14777.748      5107.7819      4678.094       3659.6515      424.08374      339.15205      4915.6998     -4346.7149     -488.46574      80628.71       43.201276      43.201276      43.201276      1.0940974      701.17476     -82.795665     -2206.1053    
    242000   242000         598.19035     -175.16354      26343.579      26548.643      11588.314      14960.329      5286.4615      4653.3612      3635.7851      450.87253      379.19318      4903.2473     -4348.5915     -490.6309       80272.895      43.137633      43.137633      43.137633      1.0989471     -45.641777     -1037.5813      557.73244    
    243000   243000         597.75065      1635.4818      28841.839      26913.492      11579.796      15333.696      5414.892       4727.6685      3689.091       476.26769      473.61879      4903.3841     -4351.226      -487.14719      80846.947      43.240218      43.240218      43.240218      1.091144       419.5756       3238.6643      1248.2056    
    244000   244000         592.2943       466.6017       26832.184      26280.396      11474.094      14806.302      5036.6567      4681.8225      3665.1054      453.98489      418.05781      4900.2952     -4349.6201     -485.7068       81086.702      43.282919      43.282919      43.282919      1.0879178      1218.5854     -843.36345      1024.5832    
    245000   245000         597.3898       1624.9053      28657.667      26749.974      11572.805      15177.169      5129.7007      4788.7761      3774.9997      456.65364      475.095        4900.3973     -4348.4532     -489.23719      80501.571      43.178556      43.178556      43.178556      1.0958254      2174.2908      549.39767      2151.0275    
    246000   246000         602.5417      -691.42891      25794.206      26616.085      11672.609      14943.476      5032.3462      4763.8383      3658.6402      453.09164      468.64752      4911.3798     -4344.4679     -483.21385      81505.036      43.357225      43.357225      43.357225      1.0823339      278.64968     -2301.163      -51.773449    
    247000   247000         612.2369       112.08269      27048.867      26917.276      11860.427      15056.849      5182.3225      4748.6538      3701.4802      452.42419      420.02035      4905.8515     -4353.9036     -489.22959      80502.822      43.17878       43.17878       43.17878       1.0958083      1293.7238      37.20461      -994.68036    
    248000   248000         597.22332     -766.97965      25819.41       26718.198      11569.58       15148.618      5066.767       4722.0223      3936.4559      479.60335      386.08767      4907.7055     -4350.024      -490.14727      80352.1        43.151816      43.151816      43.151816      1.0978638     -1314.5935     -465.21475     -521.13073    
    249000   249000         593.3719      -189.90668      26424.934      26646.349      11494.969      15151.38       5114.4217      4698.3935      3848.7236      480.52736      442.14008      4919.9698     -4352.7961     -492.6423       79945.151      43.078844      43.078844      43.078844      1.1034523      1021.915       64.38234      -1656.0174    
    250000   250000         602.33641      523.78858      27004.653      26391.496      11668.632      14722.864      5039.6397      4622.2278      3684.34        446.06156      365.92249      4910.868      -4346.1956     -490.66433      80267.425      43.136653      43.136653      43.136653      1.099022      -264.205       -1129.9942      2965.5649    
Loop time of 538.919 on 1 procs for 250000 steps with 6500 atoms

Performance: 40.080 ns/day, 0.599 hours/ns, 463.891 timesteps/s, 3.015 Matom-step/s
100.0% CPU use with 1 MPI tasks x 1 OpenMP threads

MPI task timing breakdown:
Section |  min time  |  avg time  |  max time  |%varavg| %total
---------------------------------------------------------------
Pair    | 51.099     | 51.099     | 51.099     |   0.0 |  9.48
Bond    | 67.57      | 67.57      | 67.57      |   0.0 | 12.54
Kspace  | 231.98     | 231.98     | 231.98     |   0.0 | 43.04
Neigh   | 87.221     | 87.221     | 87.221     |   0.0 | 16.18
Comm    | 12.173     | 12.173     | 12.173     |   0.0 |  2.26
Output  | 2.2711     | 2.2711     | 2.2711     |   0.0 |  0.42
Modify  | 76.384     | 76.384     | 76.384     |   0.0 | 14.17
Other   |            | 10.22      |            |       |  1.90

Nlocal:           6500 ave        6500 max        6500 min
Histogram: 1 0 0 0 0 0 0 0 0 0
Nghost:          17023 ave       17023 max       17023 min
Histogram: 1 0 0 0 0 0 0 0 0 0
Neighs:              0 ave           0 max           0 min
Histogram: 1 0 0 0 0 0 0 0 0 0
FullNghs:  3.34644e+06 ave 3.34644e+06 max 3.34644e+06 min
Histogram: 1 0 0 0 0 0 0 0 0 0

Total # of neighbors = 3346438
Ave neighs/atom = 514.83662
Ave special neighs/atom = 5.7630769
Neighbor list builds = 16370
Dangerous builds = 0
System init for write_data ...
PPPM Kokkos initialization ...
  using 12-bit tables for long-range coulomb
  G vector (1/distance) = 0.29893064
  grid = 30 30 30
  stencil order = 5
  estimated absolute RMS force accuracy = 0.00033632217
  estimated relative force accuracy = 1.0128242e-06
  using double precision cuFFT
  3d grid and FFT values/proc = 50653 27000
Generated 28 of 28 mixed pair_coeff terms from sixthpower/sixthpower mixing rule
System init for write_restart ...
PPPM Kokkos initialization ...
  using 12-bit tables for long-range coulomb
  G vector (1/distance) = 0.29893064
  grid = 30 30 30
  stencil order = 5
  estimated absolute RMS force accuracy = 0.00033632217
  estimated relative force accuracy = 1.0128242e-06
  using double precision cuFFT
  3d grid and FFT values/proc = 50653 27000
Generated 28 of 28 mixed pair_coeff terms from sixthpower/sixthpower mixing rule
STAGE COMPLETE: NPT T=625.0->600.0K P=1.0->1.0atm steps=250000
