Authorization required, but no authorization protocol specified

Authorization required, but no authorization protocol specified

Authorization required, but no authorization protocol specified

Authorization required, but no authorization protocol specified

LAMMPS (22 Jul 2025 - Update 3)
KOKKOS mode with Kokkos version 4.6.2 is enabled
  will use up to 1 GPU(s) per node
  using 1 OpenMP thread(s) per MPI task
Reading data file ...
  orthogonal box = (4.9915449 4.9915449 4.9915449) to (46.055007 46.055007 46.055007)
  1 by 1 by 1 MPI processor grid
  reading atoms ...
  6320 atoms
  reading velocities ...
  6320 velocities
  scanning bonds ...
  4 = max bonds/atom
  scanning angles ...
  12 = max angles/atom
  scanning dihedrals ...
  21 = max dihedrals/atom
  scanning impropers ...
  8 = max impropers/atom
  orthogonal box = (4.9915449 4.9915449 4.9915449) to (46.055007 46.055007 46.055007)
  1 by 1 by 1 MPI processor grid
  reading bonds ...
  6310 bonds
  reading angles ...
  11200 angles
  reading dihedrals ...
  13970 dihedrals
  reading impropers ...
  6300 impropers
Finding 1-2 1-3 1-4 neighbors ...
  special bond factors lj:    0        0        1       
  special bond factors coul:  0        0        1       
     4 = max # of 1-2 neighbors
     6 = max # of 1-3 neighbors
    10 = max # of special neighbors
  special bonds CPU = 0.003 seconds
  read_data CPU = 0.251 seconds
PPPM Kokkos initialization ...
  using 12-bit tables for long-range coulomb
  G vector (1/distance) = 0.33460886
  grid = 45 45 45
  stencil order = 5
  estimated absolute RMS force accuracy = 0.00041682611
  estimated relative force accuracy = 1.2552594e-06
  using double precision cuFFT
  3d grid and FFT values/proc = 140608 91125
Generated 21 of 21 mixed pair_coeff terms from sixthpower/sixthpower mixing rule
Neighbor list info ...
  update: every = 1 steps, delay = 0 steps, check = yes
  max neighbors/atom: 4000, page size: 100000
  master list distance cutoff = 11.5
  ghost atom cutoff = 11.5
  binsize = 11.5, bins = 4 4 4
  1 neighbor lists, perpetual/occasional/extra = 1 0 0
  (1) pair lj/class2/coul/long/kk, perpetual
      attributes: full, newton off, kokkos_device
      pair build: full/bin/kk/device
      stencil: full/bin/3d
      bin: kk/device
Setting up Verlet run ...
  Unit style    : real
  Current step  : 0
  Time step     : 1
Per MPI rank memory allocation (min/avg/max) = 42.42 | 42.42 | 42.42 Mbytes
   Step          Time           Temp          Press         Enthalpy        TotEng         KinEng         PotEng         E_bond        E_angle        E_dihed        E_impro         E_vdwl         E_coul         E_long         E_tail         Volume           Lx             Ly             Lz          Density          Pxx            Pyy            Pzz      
         0   0              373.03934     -224.98202      25731.722      25958.913      7026.4716      18932.441      3523.2628      5782.3272     -5617.2161      254.95301     -3254.6697      61871.691     -43627.907     -535.1094       69241.535      41.063462      41.063462      41.063462      1.2102444     -635.93201     -1348.5453      1309.5312    
      1000   1000           373.43868      160.81286      26173.44       26010.301      7033.9935      18976.307      3489.6417      5826.6706     -5569.0092      256.0879      -3312.5034      61904.388     -43618.969     -532.65631      69560.418      41.126403      41.126403      41.126403      1.2046963      1489.3775     -2745.9921      1739.0532    
      2000   2000           369.38329      361.15407      26112.837      25748.813      6957.6072      18791.206      3530.6246      5773.6127     -5647.5127      274.52645     -3323.3339      61814.521     -43631.232     -536.10243      69113.277      41.038092      41.038092      41.038092      1.2124903      5.5242808     -1007.2097      2085.1477    
      3000   3000           376.16637     -1074.348       24803.43       25890.216      7085.3714      18804.844      3451.342       5815.7036     -5656.8105      257.86381     -3336.7756      61891.692     -43618.171     -534.17849      69362.202      41.087302      41.087302      41.087302      1.208139      -2235.5028     -874.68677     -112.85452    
      4000   4000           373.64878      687.45179      26530.684      25842.261      7037.9508      18804.31       3550.091       5722.7593     -5657.594       249.02712     -3317.2282      61879.957     -43622.702     -539.5999       68665.313      40.949236      40.949236      40.949236      1.2204005      1032.8099     -551.11761      1580.6631    
      5000   5000           371.82921      215.72757      26213.322      25996.17       7003.6777      18992.492      3450.4095      5899.6032     -5615.4211      275.95107     -3351.9544      61953.983     -43620.079     -536.81788      69021.166      41.019853      41.019853      41.019853      1.2141084     -1642.8533      233.02056      2057.0154    
      6000   6000           370.97565      250.82616      26031.578      25778.613      6987.6004      18791.012      3473.0568      5833.3556     -5628.8262      230.17788     -3349.1582      61869.672     -43637.266     -535.79303      69153.187      41.04599       41.04599       41.04599       1.2117906      1484.2077     -545.21297     -186.51628    
      7000   7000           371.24293      1851.325       27778.4        25908.251      6992.6349      18915.616      3444.5078      5831.349      -5612.805       238.97141     -3259.7471      61905.785     -43632.445     -534.92337      69265.614      41.068221      41.068221      41.068221      1.2098237      1610.1153      1355.437       2588.4227    
      8000   8000           370.07639      1471.0748      27332.68       25847.502      6970.6621      18876.84       3579.02        5673.2615     -5592.9556      259.21051     -3315.9562      61896.707     -43622.447     -535.23116      69225.782      41.060348      41.060348      41.060348      1.2105198      1553.0225      461.21239      2398.9894    
      9000   9000           368.62544      845.86826      26655.178      25803.348      6943.3325      18860.015      3553.5256      5816.1216     -5641.0486      256.48379     -3393.289       61882.28      -43614.057     -536.58024      69051.734      41.025907      41.025907      41.025907      1.213571      -673.93844      1792.3472      1419.196     
     10000   10000          375.45366      844.85523      26782.672      25937.671      7071.9471      18865.724      3500.797       5746.3761     -5606.9425      259.86435     -3298.6907      61893.627     -43629.307     -540.26926      68580.24       40.932317      40.932317      40.932317      1.2219144     -649.1231       1596.8038      1586.885     
     11000   11000          370.45364     -682.28337      25038.75       25727.92       6977.768       18750.152      3524.1214      5646.9564     -5594.0056      232.1333      -3310.1649      61875.371     -43624.26      -534.96312      69260.468      41.067204      41.067204      41.067204      1.2099136     -1327.2984     -545.67973     -173.87201    
     12000   12000          369.6534      -1666.1066      24217.567      25899.748      6962.6949      18937.053      3483.3741      5853.335      -5599.6778      268.61915     -3313.2742      61861.432     -43616.755     -535.19904      69229.937      41.061169      41.061169      41.061169      1.2104472     -1089.7697     -3767.7565     -140.79346    
     13000   13000          368.83663      65.119246      25855.43       25789.781      6947.3103      18842.471      3466.0939      5881.4186     -5619.6222      245.87035     -3375.7887      61865.66      -43621.161     -535.99921      69126.587      41.040726      41.040726      41.040726      1.2122569      342.60475      970.06244     -1117.3095    
     14000   14000          364.32831      204.26062      25837.829      25631.613      6862.3929      18769.22       3509.5304      5713.8331     -5605.6855      247.63763     -3378.3496      61909.553     -43627.299     -535.23819      69224.873      41.060168      41.060168      41.060168      1.2105357     -970.63021      1257.1463      326.26574    
     15000   15000          370.75266      758.60061      26699.495      25930.697      6983.4003      18947.297      3473.4626      5773.7472     -5578.2775      243.44743     -3256.6443      61922.775     -43631.214     -533.1954       69490.089      41.112538      41.112538      41.112538      1.2059156      929.31153      906.40939      440.08092    
     16000   16000          368.91186      1626.2416      27529.259      25881.124      6948.7273      18932.397      3529.7387      5734.9098     -5639.9293      263.2281      -3278.729       61937.069     -43613.891     -533.18432      69491.532      41.112823      41.112823      41.112823      1.2058905      26.720328      2096.2359      2755.7685    
     17000   17000          362.8691      -981.64011      24829.124      25825.086      6834.9076      18990.179      3587.5978      5853.2067     -5666.1973      252.80606     -3303.4359      61878.197     -43611.995     -532.59205      69568.811      41.128057      41.128057      41.128057      1.204551      -402.34143     -1497.4094     -1045.1695    
     18000   18000          369.22141      1005.3526      26904.413      25889.953      6954.5581      18935.395      3510.0549      5775.863      -5569.9096      244.22915     -3277.8208      61877.699     -43624.721     -535.51131      69189.567      41.053186      41.053186      41.053186      1.2111534      1359.0217     -509.15466      2166.1907    
     19000   19000          367.47761      892.18009      26563.404      25661.728      6921.7122      18740.015      3497.0177      5782.1702     -5626.2686      238.25729     -3362.7934      61839.045     -43627.413     -534.67134      69298.264      41.074673      41.074673      41.074673      1.2092537     -1961.6727      2070.1428      2568.0701    
     20000   20000          367.2151       498.66771      26242.155      25741.996      6916.7677      18825.228      3482.51        5727.7218     -5599.1411      249.85467     -3343.3074      61931.759     -43624.169     -538.75132      68773.466      40.970724      40.970724      40.970724      1.2184813      1579.8325      154.46473     -238.29414    
     21000   21000          363.17515     -1453.6812      24275.979      25745.227      6840.6722      18904.554      3561.9462      5823.9765     -5622.7411      248.50058     -3323.1256      61843.681     -43627.683     -534.6374       69302.663      41.075543      41.075543      41.075543      1.2091769     -1123.3559     -539.52639     -2698.1614    
     22000   22000          370.43154      277.56465      26015.923      25736.485      6977.3517      18759.133      3497.0238      5709.6331     -5628.5893      277.91494     -3337.8814      61875.006     -43633.974     -536.73953      69031.24       41.021848      41.021848      41.021848      1.2139313      1092.5905      366.02251     -625.91907    
     23000   23000          369.80843      934.55798      26744.255      25799.384      6965.615       18833.769      3534.7761      5782.4252     -5646.6949      263.59414     -3319.8836      61855.038     -43635.486     -534.46501      69325.017      41.079958      41.079958      41.079958      1.208787       1048.9678      1610.8904      143.81572    
     24000   24000          366.9197       381.04189      26104.048      25722.213      6911.2036      18811.01       3438.9778      5846.2239     -5590.6842      265.15845     -3365.5924      61858.387     -43641.461     -539.24063      68711.06       40.958328      40.958328      40.958328      1.2195879      260.94025      1264.8268     -382.64133    
     25000   25000          369.23608     -458.25354      25268.674      25731.228      6954.8343      18776.393      3408.7775      5820.986      -5618.3403      219.62308     -3351.5173      61918.06      -43621.196     -535.33929      69211.8        41.057583      41.057583      41.057583      1.2107644      324.51144      606.93185     -2306.2039    
     26000   26000          367.93458     -595.54259      25242.331      25845.418      6930.3196      18915.099      3598.0586      5782.0917     -5660.9114      250.52407     -3358.4829      61925.986     -43622.167     -533.6021       69437.125      41.10209       41.10209       41.10209       1.2068354     -977.81511     -21.780621     -787.03202    
     27000   27000          365.38199     -819.14748      24886.281      25718.962      6882.2397      18836.723      3539.2236      5819.4164     -5679.4582      244.54318     -3295.2661      61830.929     -43622.665     -531.57961      69701.311      41.154151      41.154151      41.154151      1.2022612     -1873.3748     -42.809617     -541.25803    
     28000   28000          364.81099      44.235838      25717.238      25672.674      6871.4846      18801.19       3588.4123      5817.6369     -5658.6896      246.53871     -3446.9662      61877.729     -43623.471     -536.38334      69077.082      41.030927      41.030927      41.030927      1.2131257      21.322202     -939.37084      1050.7562    
     29000   29000          368.83628     -1338.5073      24383.572      25734.31       6947.3037      18787.006      3460.4269      5833.8521     -5613.5186      246.09038     -3384.1813      61872.613     -43628.276     -535.46963      69194.953      41.054252      41.054252      41.054252      1.2110592     -2505.0511     -857.9287      -652.54212    
     30000   30000          365.871        535.38399      26257.395      25714.358      6891.4505      18822.907      3506.8756      5765.3086     -5567.3192      246.79033     -3402.314       61899.148     -43625.583     -532.74722      69548.549      41.124064      41.124064      41.124064      1.2049019     -401.71528      1859.4732      148.39401    
     31000   31000          363.47571      1008.0959      26670.907      25651.826      6846.3335      18805.493      3453.7176      5774.9224     -5570.1528      244.64039     -3363.6802      61895.882     -43629.837     -534.53783      69315.572      41.078093      41.078093      41.078093      1.2089517     -119.02396      1968.4753      1174.8363    
     32000   32000          362.81386      924.25914      26526.429      25597.248      6833.867       18763.381      3394.4075      5762.1755     -5588.326       273.41224     -3360.3873      61907.629     -43625.53      -537.50007      68933.565      41.002491      41.002491      41.002491      1.2156513      836.75803     -112.30199      2048.3214    
     33000   33000          367.9967       812.20856      26484.729      25667.148      6931.4897      18735.658      3408.1969      5804.2648     -5654.2797      228.65        -3333.4336      61915.475     -43633.215     -536.81168      69021.963      41.020011      41.020011      41.020011      1.2140944     -24.102141      300.05598      2160.6718    
     34000   34000          359.61104     -984.45224      24611.995      25604.372      6773.5396      18830.833      3544.7038      5713.8547     -5586.4187      274.96493     -3310.1727      61837.144     -43643.243     -536.04711      69120.41       41.039504      41.039504      41.039504      1.2123652     -1453.6623     -1458.9989     -40.69554     
     35000   35000          371.36767      826.94057      26670.615      25838.045      6994.9844      18843.061      3469.4699      5759.4605     -5588.2074      271.73911     -3291.7216      61841.033     -43618.713     -536.7091       69035.155      41.022624      41.022624      41.022624      1.2138624      2041.2374      492.53984     -52.955499    
     36000   36000          374.89473      1104.6468      26874.812      25770.739      7061.4192      18709.32       3433.4778      5742.6314     -5647.8476      251.61476     -3331.6385      61891.721     -43630.639     -540.64312      68532.816      40.92288       40.92288       40.92288       1.2227599      296.09993      1516.0235      1501.8172    
     37000   37000          361.2449       1206.56        26902.359      25693.812      6804.3146      18889.498      3568.4818      5825.064      -5574.9181      218.32895     -3367.8128      61848.034     -43627.68      -539.47404      68681.332      40.95242       40.95242       40.95242       1.2201158      948.97159      586.07282      2084.6355    
     38000   38000          363.46364      487.39352      26035.839      25545.853      6846.1061      18699.747      3431.9126      5718.3916     -5650.5242      272.64312     -3313.2609      61875.285     -43634.7       -537.50417      68933.039      41.002387      41.002387      41.002387      1.2156606      1401.7081     -977.60256      1038.075     
     39000   39000          366.73316     -1470.6767      24168.361      25659.388      6907.69        18751.698      3500.2431      5723.2324     -5602.8671      254.08388     -3390.2535      61892.112     -43624.853     -532.98736      69517.213      41.117887      41.117887      41.117887      1.2054451     -1961.2647     -1471.1878     -979.57761    
     40000   40000          368.05787      804.78351      26589.452      25779.78       6932.6419      18847.138      3557.4813      5780.2385     -5648.5318      250.45088     -3320.9285      61860.035     -43631.607     -537.09935      68984.995      41.012686      41.012686      41.012686      1.2147451      651.56185      1048.7968      713.99187    
     41000   41000          372.28119      1576.0841      27359.499      25777.156      7012.1912      18764.965      3463.9878      5709.7376     -5615.8081      250.66657     -3279.4259      61873.128     -43637.321     -538.22509      68840.708      40.984072      40.984072      40.984072      1.2172911      1944.1721      1651.2224      1132.8579    
     42000   42000          365.77744     -737.38454      25117.329      25867.465      6889.6883      18977.776      3574.7482      5797.1684     -5671.4195      246.1507      -3225.9405      61881.398     -43624.329     -531.1771       69754.128      41.164544      41.164544      41.164544      1.2013508     -1461.7193     -1134.8976      384.46333    
     43000   43000          366.40072      897.63103      26614.716      25705.93       6901.4282      18804.502      3469.5396      5835.2235     -5696.357       255.46981     -3280.5578      61855.899     -43634.715     -533.72958      69420.541      41.098818      41.098818      41.098818      1.2071237     -221.05906      1144.2032      1769.7489    
     44000   44000          372.17624      1544.9203      27462.299      25906.029      7010.2143      18895.814      3407.27        5893.3709     -5620.2619      236.48504     -3312.9272      61919.212     -43627.335     -536.42132      69072.19       41.029958      41.029958      41.029958      1.2132116      2613.9137      559.1259       1461.7213    
     45000   45000          372.94898     -113.84827      25588.53       25703.205      7024.7695      18678.436      3502.2391      5682.5248     -5717.1106      279.07025     -3301.5486      61859.024     -43625.763     -536.46529      69066.529      41.028837      41.028837      41.028837      1.213311      -408.06375      530.18461     -463.66568    
     46000   46000          363.59821     -2284.234       23288.874      25593.667      6848.6408      18745.026      3610.2937      5747.4554     -5687.7502      267.55793     -3362.915       61813.762     -43643.377     -535.54235      69185.558      41.052393      41.052393      41.052393      1.2112236     -2116.1486     -3027.1787     -1709.3747    
     47000   47000          360.5837       728.57205      26384.068      25648.243      6791.8604      18856.382      3463.7527      5801.6891     -5620.0086      274.18193     -3361.0731      61929.915     -43632.075     -535.03552      69251.095      41.065352      41.065352      41.065352      1.2100773      1017.2665      1685.5408     -517.0911     
     48000   48000          362.40187     -42.387684      25518.819      25561.419      6826.107       18735.312      3350.2814      5829.7094     -5530.2823      236.69519     -3355.268       61838.85      -43634.674     -537.66258      68912.73       40.99836       40.99836       40.99836       1.2160189     -954.84388      996.74201     -169.06119    
     49000   49000          360.00337     -903.13517      24634.935      25541.469      6780.9294      18760.539      3412.5022      5870.7556     -5622.0526      239.30384     -3363.9232      61849.87      -43625.917     -538.33641      68826.471      40.981247      40.981247      40.981247      1.2175429     -203.74628     -781.46093     -1724.1983    
     50000   50000          364.85445     -1066.3444      24619.201      25692.558      6872.303       18820.255      3574.6245      5774.4575     -5629.2721      253.38692     -3374.9518      61863.209     -43641.199     -536.83199      69019.351      41.019493      41.019493      41.019493      1.2141404     -690.89611     -800.38907     -1707.7479    
     51000   51000          356.12326     -836.05803      24544.756      25386.798      6707.8447      18678.953      3434.3452      5708.1481     -5637.5869      266.05692     -3317.999       61865.093     -43639.104     -536.52222      69059.201      41.027386      41.027386      41.027386      1.2134398      440.22498     -1769.2022     -1179.1968    
     52000   52000          366.65403      376.85311      26086.118      25706.823      6906.1994      18800.624      3403.8267      5711.1022     -5579.2385      278.686       -3300.584       61915.61      -43628.779     -536.88414      69012.647      41.018165      41.018165      41.018165      1.2142583      873.39858      1068.4869     -811.32614    
     53000   53000          369.23947     -412.47041      25460.608      25878.501      6954.8983      18923.603      3484.4852      5854.0384     -5648.3088      254.15301     -3357.3255      61946.767     -43610.206     -533.35021      69469.918      41.10856       41.10856       41.10856       1.2062657      1040.2569     -1153.7289     -1123.9393    
     54000   54000          362.69438     -1666.143       23924.433      25608.275      6831.6166      18776.659      3528.3587      5787.8146     -5636.1997      251.92201     -3439.8397      61910.653     -43626.051     -534.68265      69296.799      41.074384      41.074384      41.074384      1.2092792     -1101.2966     -2568.4294     -1328.703     
     55000   55000          364.39377      794.32251      26476.014      25672.149      6863.6258      18808.523      3511.4358      5660.5921     -5607.0191      239.36791     -3266.3734      61910.009     -43639.489     -533.94822      69392.114      41.093207      41.093207      41.093207      1.2076182      1619.5698      343.55495      419.84283    
     56000   56000          366.65659      454.07237      26029.301      25570.674      6906.2477      18664.427      3463.4931      5702.8435     -5678.6065      240.02846     -3299.4921      61874.15      -43637.989     -534.99616      69256.19       41.066359      41.066359      41.066359      1.2099883      432.15476      254.84484      675.21751    
     57000   57000          365.93162     -862.78808      24904.392      25773.741      6892.5923      18881.149      3470.6802      5830.1759     -5616.0473      261.32201     -3298.8411      61860.738     -43626.879     -536.28457      69089.804      41.033446      41.033446      41.033446      1.2129023     -82.66279      -1611.5762     -894.1253     
     58000   58000          367.43097     -739.49776      24857.69       25604.523      6920.8338      18683.689      3454.7773      5789.9542     -5644.4319      244.34724     -3400.7167      61870.906     -43631.147     -535.05492      69248.584      41.064856      41.064856      41.064856      1.2101212     -400.90102      802.23923     -2619.8315    
     59000   59000          366.31252      1820.8612      27508.657      25670.199      6899.7668      18770.432      3486.9916      5835.2623     -5688.8311      277.00046     -3317.4246      61812.48      -43635.047     -535.19029      69231.069      41.061393      41.061393      41.061393      1.2104274      2283.8058      1119.1259      2059.652     
     60000   60000          366.87369      359.77227      25863.38       25501.469      6910.337       18591.132      3520.8178      5641.4014     -5657.4916      262.93359     -3390.398       61848.621     -43634.752     -537.16917      68976.028      41.010909      41.010909      41.010909      1.214903       38.522077      421.17817      619.61656    
     61000   61000          366.04186     -363.12998      25206.496      25572.03       6894.6689      18677.362      3319.9551      5837.7266     -5606.5238      250.96376     -3412.9101      61922.824     -43634.674     -536.80727      69022.53       41.020123      41.020123      41.020123      1.2140845     -847.48548     -35.009019     -206.89544    
     62000   62000          364.31341      788.78189      26413.016      25620.025      6862.1121      18757.913      3519.0584      5795.8593     -5691.2134      263.34442     -3327.8635      61832.371     -43633.642     -537.49489      68934.229      41.002623      41.002623      41.002623      1.2156396      1125.7445      917.25525      323.34592    
     63000   63000          362.48783     -1183.3833      24320.019      25520.619      6827.726       18692.893      3431.7546      5865.7303     -5673.3625      245.93388     -3383.666       61838.618     -43632.115     -532.61363      69565.992      41.127502      41.127502      41.127502      1.2045998     -1246.5187     -1787.9214     -515.70993    
     64000   64000          364.24482     -1099.7377      24536.685      25647.256      6860.8202      18786.436      3522.0571      5783.4637     -5699.326       247.36006     -3314.4237      61865.526     -43618.222     -535.09122      69243.887      41.063927      41.063927      41.063927      1.2102033     -2126.5145     -1487.8847      315.18619    
     65000   65000          361.25592      323.06984      25866.896      25541.388      6804.522       18736.866      3519.0366      5808.5244     -5730.687       235.76954     -3379.1835      61905.123     -43621.717     -536.31552      69085.817      41.032656      41.032656      41.032656      1.2129723     -313.20106      351.73424      930.67634    
     66000   66000          368.50539      307.13763      26068.851      25760.082      6941.0712      18819.011      3459.8952      5826.0508     -5583.5937      277.90155     -3409.1399      61888.714     -43640.817     -537.50834      68932.504      41.002281      41.002281      41.002281      1.2156701     -172.00366      331.16572      762.25083    
     67000   67000          362.2036      -442.49498      25127.889      25573.169      6822.3723      18750.796      3425.2739      5780.9587     -5633.3264      222.42104     -3350.748       61930.188     -43623.971     -536.98295      68999.948      41.015649      41.015649      41.015649      1.2144818     -282.8717       464.79219     -1509.4054    
     68000   68000          375.15752      128.80436      26003.884      25873.712      7066.3689      18807.343      3526.2986      5784.071      -5616.4412      217.97781     -3354.1431      61873.169     -43623.589     -534.68797      69296.109      41.074248      41.074248      41.074248      1.2092913      757.75225     -995.22958      623.8904     
     69000   69000          367.4131       284.82012      25880.028      25592.043      6920.4971      18671.545      3441.7796      5701.6174     -5672.1224      242.9097      -3358.623       61944.544     -43628.56      -534.42318      69330.443      41.08103       41.08103       41.08103       1.2086924     -506.68919      1786.1444     -424.99488    
     70000   70000          364.21934      112.50907      25757.219      25643.34       6860.3403      18783          3451.0584      5780.3085     -5678.1548      233.24805     -3273.0348      61900.451     -43630.876     -533.86313      69403.174      41.09539       41.09539       41.09539       1.2074258      49.427566      718.33143     -430.23179    
     71000   71000          353.35354     -738.59239      24736.109      25483.707      6655.675       18828.032      3492.3233      5832.5935     -5694.1566      254.60223     -3326.4052      61898.168     -43629.093     -533.85289      69404.506      41.095653      41.095653      41.095653      1.2074026     -1230.5187     -1459.9743      474.71582    
     72000   72000          359.58752     -162.07718      25314.057      25478.26       6773.0967      18705.164      3375.6683      5819.5342     -5645.1996      241.84885     -3370.3429      61907.386     -43623.731     -533.36707      69467.722      41.108127      41.108127      41.108127      1.2063039      1636.398      -2180.9258      58.296291    
     73000   73000          362.2365       2498.1221      28104.146      25590.6        6822.9921      18767.607      3552.65        5790.3329     -5664.5708      236.0253      -3413.1869      61888.889     -43622.532     -537.04647      68991.787      41.014032      41.014032      41.014032      1.2146255      1253.9559      3455.1958      2785.2146    
     74000   74000          362.82591     -132.62458      25405.843      25540.371      6834.0941      18706.277      3489.4942      5750.5688     -5683.6685      249.57747     -3367.9406      61895.749     -43627.504     -532.71659      69552.547      41.124852      41.124852      41.124852      1.2048327     -181.2903       285.92565     -502.50907    
     75000   75000          354.73345     -896.01545      24475.397      25383.425      6681.6666      18701.759      3439.5918      5730.7621     -5680.29        255.64428     -3301.7065      61883.855     -43626.098     -533.21382      69487.688      41.112065      41.112065      41.112065      1.2059572     -1582.4065      956.8186      -2062.4584    
     76000   76000          362.46954      1806.9371      27554.494      25725.785      6827.3815      18898.404      3551.1369      5848.3324     -5678.1967      250.23378     -3276.776       61844.601     -43640.928     -533.92916      69394.591      41.093696      41.093696      41.093696      1.2075751      425.36918      1983.1742      3012.268     
     77000   77000          356.30791     -1108.2113      24330.964      25452.155      6711.3228      18740.833      3371.3052      5808.4832     -5672.4368      256.77435     -3307.1968      61907.216     -43623.313     -534.10674      69371.518      41.089141      41.089141      41.089141      1.2079767     -207.16081     -2185.9347     -931.53855    
     78000   78000          359.93203     -1195.6478      24332.297      25540.92       6779.5856      18761.335      3497.5616      5799.8219     -5639.8826      244.5865      -3393.6961      61894.713     -43641.769     -534.56105      69312.562      41.077498      41.077498      41.077498      1.2090042     -2030.3532     -1008.6036     -547.98647    
     79000   79000          368.06978      1009.3894      26786.6        25774.451      6932.8662      18841.585      3515.4556      5710.1299     -5641.0203      288.0758      -3284.6315      61877.525     -43623.95      -538.88896      68755.9        40.967235      40.967235      40.967235      1.2187926      1068.331       1646.7217      313.11552    
     80000   80000          355.84202     -494.21191      24917.432      25419.662      6702.5473      18717.115      3469.0335      5714.8702     -5671.9546      246.00065     -3268.7226      61861.853     -43633.965     -531.73561      69680.863      41.150126      41.150126      41.150126      1.202614      -290.97854     -3.1476276     -1188.5096    
     81000   81000          367.23952      1662.9808      27290.552      25611.455      6917.2276      18694.228      3442.0983      5679.8393     -5636.7411      252.99212     -3306.5991      61898.239     -43635.601     -535.17601      69232.916      41.061758      41.061758      41.061758      1.2103951     -312.05275      2219.86        3081.1351    
     82000   82000          361.92763     -891.32121      24735.029      25636.376      6817.1742      18819.202      3512.5492      5796.1952     -5657.4716      232.69667     -3343.2502      61901.974     -43623.491     -534.35151      69339.742      41.082867      41.082867      41.082867      1.2085303     -314.93533     -2490.1994      131.17112    
     83000   83000          361.78897      852.94038      26411.476      25542.729      6814.5624      18728.167      3443.7694      5735.5259     -5635.4379      210.3543      -3265.8285      61870.067     -43630.283     -530.53058      69839.133      41.181258      41.181258      41.181258      1.1998886      198.53979      2254.1735      106.10786    
     84000   84000          360.32574      778.32009      26312.572      25527.586      6787.0015      18740.584      3474.0625      5625.0476     -5607.1151      247.90181     -3272.4586      61893.652     -43620.506     -535.77392      69155.654      41.046478      41.046478      41.046478      1.2117473      1152.6967      556.60241      625.66121    
     85000   85000          361.52634      227.6971       25759.653      25529.166      6809.6156      18719.55       3445.9749      5787.2004     -5630.3247      239.42744     -3397.309       61897.505     -43622.924     -533.82223      69408.492      41.09644       41.09644       41.09644       1.2073333     -677.42443     -84.016496      1444.5322    
     86000   86000          356.08452      370.30396      25803.683      25427.993      6707.1149      18720.878      3478.3802      5759.0256     -5691.1245      247.30437     -3337.9137      61894.225     -43629.018     -532.6154       69565.762      41.127456      41.127456      41.127456      1.2046038      644.76867      1462.7604     -996.6172     
     87000   87000          363.21664     -1620.0287      23906.652      25549.014      6841.4538      18707.56       3396.3833      5688.0092     -5619.3082      278.33704     -3293.7358      61882.241     -43624.366     -533.01446      69513.679      41.11719       41.11719       41.11719       1.2055063     -1115.2672     -2348.0421     -1396.7766    
     88000   88000          369.07557     -268.43339      25370.167      25640.352      6951.811       18688.541      3567.1069      5764.9987     -5728.2445      233.51687     -3372.2798      61850.098     -43626.655     -536.85984      69015.772      41.018784      41.018784      41.018784      1.2142033      801.24022     -1096.3297     -510.21065    
     89000   89000          365.5321       1417.9969      27043.625      25611.655      6885.067       18726.588      3526.9645      5672.813      -5698.7705      233.22503     -3284.5494      61904.246     -43627.34      -535.08979      69244.071      41.063963      41.063963      41.063963      1.2102001      2632.4295      736.50243      885.05872    
     90000   90000          354.59235     -1463.6813      23867.675      25345.448      6679.0088      18666.439      3497.0991      5710.924      -5672.9551      253.78358     -3391.1923      61894.755     -43625.975     -535.20994      69228.527      41.06089       41.06089       41.06089       1.2104718     -1847.3375     -1587.7241     -955.9824     
     91000   91000          363.72762      130.94829      25748.22       25615.643      6851.0784      18764.565      3426.7566      5766.3147     -5637.7287      227.71627     -3326.0362      61940.841     -43633.299     -533.72618      69420.982      41.098905      41.098905      41.098905      1.207116      -848.92529      1161.5879      80.182303    
     92000   92000          356.23017      1482.0075      26872.429      25374.22       6709.8583      18664.362      3391.3599      5702.0063     -5655.3459      259.87853     -3287.9897      61882.016     -43627.563     -534.51915      69317.995      41.078571      41.078571      41.078571      1.2089095     -488.26548      1848.9034      3085.3847    
     93000   93000          364.45663      1070.1692      26668.756      25592.28       6864.8099      18727.47       3468.176       5731.925      -5652.5889      255.44919     -3375.2988      61931.689     -43631.881     -537.19653      68972.515      41.010213      41.010213      41.010213      1.2149648      1387.2539     -163.52354      1986.7771    
     94000   94000          370.4959       741.18035      26374.818      25630.143      6978.564       18651.579      3354.9643      5754.7037     -5627.376       253.10078     -3315.3927      61862.645     -43631.066     -537.82684      68891.682      40.994186      40.994186      40.994186      1.2163904      87.233415      1452.2545      684.05309    
     95000   95000          358.2645       168.82644      25590.628      25420.781      6748.1765      18672.604      3413.9202      5694.5159     -5621.7224      262.21093     -3380.0706      61928.062     -43624.312     -537.11302      68983.239      41.012338      41.012338      41.012338      1.214776       67.076699      793.87835     -354.47574    
     96000   96000          360.73109      169.84638      25590.824      25419.278      6794.6365      18624.642      3345.2385      5773.8154     -5627.9081      226.37546     -3322.9772      61859.525     -43629.428     -535.00769      69254.698      41.066064      41.066064      41.066064      1.2100144     -1236.7476      371.01583      1375.2709    
     97000   97000          360.75063     -531.27744      25058.118      25597.215      6795.0046      18802.21       3449.9753      5776.2511     -5613.8563      275.1979      -3333.1571      61883.336     -43635.537     -532.52469      69577.611      41.129791      41.129791      41.129791      1.2043987     -650.36589     -1126.7367      183.27029    
     98000   98000          363.1355       1112.3649      26572.698      25454.542      6839.9254      18614.616      3303.5191      5683.0103     -5629.0215      246.03777     -3264.6651      61903.132     -43627.396     -537.56352      68925.428      41.000878      41.000878      41.000878      1.2157949      864.16407      202.67379      2270.2568    
     99000   99000          364.0747      -758.54874      24733.379      25496.978      6857.616       18639.362      3462.8587      5673.4311     -5626.7134      240.01059     -3340.9993      61874.012     -43643.238     -536.78867      69024.921      41.020597      41.020597      41.020597      1.2140424     -1757.9548      416.90842     -934.5999     
    100000   100000         356.19804     -1325.4948      24126.975      25462.828      6709.2532      18753.574      3452.921       5709.735      -5620.8838      241.48174     -3339.4398      61936.431     -43626.671     -536.17284      69104.201      41.036296      41.036296      41.036296      1.2126496     -948.85881     -917.77912     -2109.8465    
    101000   101000         360.21371     -193.85886      25402.267      25598.518      6784.8913      18813.627      3415.0696      5814.0181     -5590.8956      243.98485     -3286.0283      61857.534     -43640.056     -533.77514      69414.615      41.097649      41.097649      41.097649      1.2072268      370.93569     -683.00045     -269.51182    
    102000   102000         357.68139     -315.23632      25173.306      25491.371      6737.1933      18754.178      3512.2668      5783.1296     -5631.8439      254.85059     -3371.3271      61836.366     -43629.264     -535.55551      69183.857      41.052057      41.052057      41.052057      1.2112534      787.71894     -2786.5104      1053.0825    
    103000   103000         355.37512     -1279.8629      24060.071      25349.441      6693.753       18655.688      3571.7594      5631.9056     -5655.6766      255.16817     -3322.5991      61814.107     -43638.977     -536.37788      69077.785      41.031066      41.031066      41.031066      1.2131133     -1382.2219     -2018.7748     -438.59195    
    104000   104000         358.97177      1326.0042      26738.029      25403.577      6761.4984      18642.079      3356.9687      5655.1047     -5617.0409      259.94547     -3305.1765      61919.111     -43626.833     -536.9416       69005.262      41.016702      41.016702      41.016702      1.2143883     -229.02532      168.56661      4038.4714    
    105000   105000         359.15941      1045.4798      26646.572      25600.74       6765.0329      18835.707      3437.6031      5821.8302     -5627.1483      249.42722     -3326.1593      61909.397     -43629.243     -540.18028      68591.537      40.934565      40.934565      40.934565      1.2217131     -590.63161      1704.7576      2022.3133    
    106000   106000         355.84697      345.80136      25766.273      25418.393      6702.6406      18715.752      3511.9947      5701.6618     -5635.8156      220.06201     -3320.1819      61863.117     -43625.085     -537.13393      68980.553      41.011806      41.011806      41.011806      1.2148233     -790.11952      1072.4014      755.12215    
    107000   107000         357.77304     -518.40428      25103.06       25627.032      6738.9195      18888.112      3519.1794      5862.2759     -5677.4293      251.88405     -3308.2995      61861.409     -43620.908     -534.62107      69304.78       41.075961      41.075961      41.075961      1.20914       -2415.0769      1067.0923     -207.2283     
    108000   108000         358.63564     -438.80934      24984.752      25429.77       6755.1672      18674.603      3407.2565      5697.927      -5595.2342      236.91138     -3329.7779      61885.924     -43628.404     -532.82333      69538.613      41.122105      41.122105      41.122105      1.2050741     -294.71896     -1075.278       53.568974    
    109000   109000         358.53573      2227.525       27830.965      25604.032      6753.2853      18850.747      3448.5274      5852.5671     -5641.624       230.99636     -3314.9243      61908.895     -43633.691     -540.50607      68550.193      40.926339      40.926339      40.926339      1.22245        1163.7993      2495.2492      3023.5265    
    110000   110000         356.44113      929.62655      26367.953      25427.63       6713.8321      18713.798      3397.8476      5803.3112     -5612.4611      229.04069     -3356.4657      61886.798     -43634.272     -534.21571      69357.368      41.086348      41.086348      41.086348      1.2082232      582.34299      1546.7361      659.80059    
    111000   111000         364.5693       275.7555       25753.056      25474.83       6866.932       18607.898      3442.591       5702.2936     -5664.247       234.54138     -3329.2591      61858.999     -43637.021     -535.56443      69182.705      41.051829      41.051829      41.051829      1.2112735      1593.7813     -1363.6669      597.15213    
    112000   112000         357.08048     -243.02573      25112.18       25357.74       6725.8745      18631.865      3369.5076      5798.6597     -5658.7801      244.02673     -3365.2613      61873.048     -43629.335     -534.78666      69283.321      41.071721      41.071721      41.071721      1.2095145      881.76206      298.01332     -1908.8526    
    113000   113000         361.61381     -750.61622      24821.383      25576.898      6811.2632      18765.635      3527.8873      5768.6882     -5626.2821      249.37615     -3398.2763      61872         -43627.758     -536.85861      69015.93       41.018815      41.018815      41.018815      1.2142006     -426.42176      153.23631     -1978.6632    
    114000   114000         358.11117     -460.94788      24977.377      25441.311      6745.2885      18696.022      3497.2386      5737.4706     -5656.0866      239.98603     -3346.8914      61859.092     -43634.787     -536.88408      69012.655      41.018167      41.018167      41.018167      1.2142582     -792.18348     -1045.5203      454.86017    
    115000   115000         351.95988      204.70206      25492.991      25287.123      6629.4244      18657.698      3528.9577      5648.7055     -5682.9688      234.51114     -3324.8288      61878.533     -43625.212     -537.30178      68959.004      41.007535      41.007535      41.007535      1.2152029      746.10801     -493.02172      361.0199     
    116000   116000         357.3092       294.61231      25668.357      25370.698      6730.1827      18640.516      3529.3584      5607.4408     -5683.0071      230.04971     -3290.0633      61871.644     -43624.907     -534.833        69277.318      41.070535      41.070535      41.070535      1.2096193     -293.29236      662.72373      514.40556    
    117000   117000         360.30422      11.785297      25391.773      25379.903      6786.5962      18593.307      3403.2938      5763.1154     -5650.9385      231.87248     -3414.5804      61885.592     -43625.048     -536.51245      69060.458      41.027635      41.027635      41.027635      1.2134177      1106.6825      387.62155     -1458.9482    
    118000   118000         359.14383     -695.54882      24633.12       25337.253      6764.7393      18572.514      3422.9382      5657.9801     -5719.4934      236.32052     -3293.753       61900.113     -43631.591     -533.77431      69414.722      41.09767       41.09767       41.09767       1.2072249     -2776.9504     -824.99328      1515.2972    
    119000   119000         353.32453     -375.2392       25037.568      25416.855      6655.1285      18761.727      3496.789       5748.4036     -5626.676       245.53777     -3336.3711      61863.746     -43629.702     -534.59577      69308.061      41.076609      41.076609      41.076609      1.2090828      302.06446     -2376.4825      948.70047    
    120000   120000         359.90365      852.74285      26365.854      25504.314      6779.0511      18725.263      3468.7675      5714.5893     -5657.3091      252.6551      -3314.7938      61893.582     -43632.227     -534.84517      69275.742      41.070223      41.070223      41.070223      1.2096468      2544.8662     -442.60894      455.97129    
    121000   121000         360.30862     -778.51173      24612.38       25395.38       6786.6791      18608.701      3468.3957      5698.8618     -5621.6455      258.79393     -3426.5565      61869.367     -43638.515     -537.26479      68963.752      41.008476      41.008476      41.008476      1.2151192     -1180.5793     -19.90115      -1135.0547    
    122000   122000         356.86614     -2059.7441      23314.65       25402.487      6721.8374      18680.65       3427.4896      5745.2491     -5666.0291      245.65625     -3341.9067      61902.836     -43632.645     -533.09169      69503.608      41.115204      41.115204      41.115204      1.205681      -1498.1232     -2829.0994     -1852.0096    
    123000   123000         358.06312      519.74514      25949.68       25423.723      6744.3833      18679.34       3478.8134      5741.6062     -5653.1131      236.8048      -3334.2357      61843.805     -43634.341     -533.98045      69387.926      41.092381      41.092381      41.092381      1.2076911      694.7551      -470.88899      1335.3693    
    124000   124000         357.14087     -239.52238      25034.822      25276.709      6727.012       18549.697      3404.0226      5663.0737     -5627.0092      242.76412     -3384.5083      61890.648     -43639.294     -535.07888      69245.483      41.064243      41.064243      41.064243      1.2101754      86.739349     -335.10579     -470.2007     
    125000   125000         357.2101       1565.3601      26923.593      25336.349      6728.3161      18608.033      3261.0538      5629.2419     -5596.5575      261.98516     -3279.1197      61951.168     -43619.739     -532.91241      69526.99       41.119814      41.119814      41.119814      1.2052755      2471.5439      781.24835      1443.2881    
    126000   126000         360.26265     -482.75155      25039.714      25527.119      6785.8132      18741.306      3422.2103      5801.5581     -5607.1892      227.78566     -3401.3988      61931.258     -43632.919     -535.20354      69229.355      41.061054      41.061054      41.061054      1.2104573      148.4444      -1181.8714     -414.82765    
    127000   127000         356.51062     -1195.814       24148.649      25357.424      6715.1409      18642.283      3425.1957      5651.4629     -5529.949       247.83646     -3402.2058      61877.618     -43627.676     -534.5685       69311.596      41.077307      41.077307      41.077307      1.2090211     -2767.0624     -470.14861     -350.23104    
    128000   128000         357.95751      958.7444       26196.136      25232.317      6742.3941      18489.923      3383.6151      5637.3317     -5649.0692      240.94683     -3356.3615      61864.6       -43631.14      -537.51714      68931.375      41.002057      41.002057      41.002057      1.21569        482.78826      1233.3799      1160.065     
    129000   129000         358.36496     -1298.2645      24071.517      25383.138      6750.0688      18633.069      3435.2095      5691.3627     -5660.3883      239.83676     -3352.0319      61903.249     -43624.169     -534.85995      69273.827      41.069845      41.069845      41.069845      1.2096803     -338.89479     -3063.0507     -492.84814    
    130000   130000         353.11965     -718.07728      24491.259      25219.538      6651.2695      18568.269      3424.2033      5654.3519     -5665.1233      246.54307     -3317.3113      61855.081     -43629.476     -532.79269      69542.612      41.122894      41.122894      41.122894      1.2050048     -804.30218     -1597.7942      247.86453    
    131000   131000         355.76163      9.7694301      25442.862      25432.957      6701.033       18731.924      3425.5228      5770.3211     -5669.5158      242.32367     -3313.8258      61907.743     -43630.645     -532.98697      69517.264      41.117897      41.117897      41.117897      1.2054442      1269.0719     -1573.7499      333.9863     
    132000   132000         355.55027      674.02358      26055.377      25377.883      6697.052       18680.831      3384.7623      5831.3259     -5644.0844      240.06955     -3376.3102      61875.149     -43630.081     -537.59408      68921.51       41.000101      41.000101      41.000101      1.215864      -187.1462       801.87572      1407.3412    
    133000   133000         353.94378      1620.2877      26846.077      25222.268      6666.7925      18555.475      3342.0663      5699.1831     -5639.9475      238.61604     -3382.6159      61937.662     -43639.488     -539.19048      68717.452      40.959598      40.959598      40.959598      1.2194745      1207.6689      2518.1413      1135.053     
    134000   134000         361.76142      2764.8981      28097.068      25327.952      6814.0436      18513.908      3338.2028      5636.236      -5668.8556      255.39545     -3289.0276      61871.882     -43629.925     -539.53939      68673.014      40.950767      40.950767      40.950767      1.2202636      1424.9571      2906.2844      3963.4529    
    135000   135000         363.98913     -158.32543      25298.683      25458.476      6856.0041      18602.472      3497.21        5632.4221     -5616.7032      244.61256     -3433.4597      61915.272     -43636.882     -535.39858      69204.135      41.056067      41.056067      41.056067      1.2108985     -1655.3651      1851.6246     -671.23584    
    136000   136000         349.94973     -60.592516      25217.915      25279.156      6591.5617      18687.594      3420.5088      5722.7494     -5607.7826      256.31447     -3337.1581      61862.481     -43629.519     -534.64582      69301.572      41.075327      41.075327      41.075327      1.209196       282.68663     -2164.8858      1700.4216    
    137000   137000         362.4141       635.21144      25959.856      25319.332      6826.3373      18492.995      3328.0301      5625.601      -5608.7245      231.38783     -3365.2026      61907.367     -43625.464     -535.88102      69141.832      41.043743      41.043743      41.043743      1.2119896      666.85512      691.04598      547.73321    
    138000   138000         352.63152     -639.43359      24650.143      25293.211      6642.0751      18651.135      3539.8633      5755.1912     -5678.7005      248.67403     -3444.8524      61861.384     -43630.425     -537.30922      68958.049      41.007345      41.007345      41.007345      1.2152197     -289.68375     -1916.659       288.04198    
    139000   139000         359.18521      99.875658      25569.328      25468.723      6765.5188      18703.204      3550.6654      5744.1553     -5714.0276      235.5121      -3415.6125      61924.795     -43622.284     -536.4469       69068.897      41.029306      41.029306      41.029306      1.2132694     -1775.7957      367.83664      1707.5861    
    140000   140000         355.30049      1481.9131      26759.681      25270.737      6692.3473      18578.39       3428.1972      5719.4742     -5694.6719      261.01193     -3372.812       61859.483     -43622.293     -537.81076      68893.743      40.994594      40.994594      40.994594      1.216354       2289.8913      1116.8584      1038.9897    
    141000   141000         357.6191      -430.92533      25009.063      25442.992      6736.0199      18706.972      3322.3014      5810.6387     -5628.3194      260.25306     -3374.7674      61936.677     -43619.812     -536.62175      69046.392      41.02485       41.02485       41.02485       1.2136649     -1164.4395      517.74198     -646.07844    
    142000   142000         361.09339     -669.48724      24758.581      25435.497      6801.4608      18634.036      3415.8015      5699.3498     -5666.0578      258.7648      -3309.8683      61861.969     -43625.923     -534.4318       69329.324      41.080809      41.080809      41.080809      1.2087119      0.018506206   -860.41781     -1148.0624    
    143000   143000         356.91459     -657.55132      24653.736      25316.124      6722.75        18593.374      3438.2895      5647.5141     -5652.8699      252.5162      -3361.6611      61894.494     -43624.909     -536.41678      69072.775      41.030074      41.030074      41.030074      1.2132013     -1098.908      -1442.9531      569.20713    
    144000   144000         353.48477      955.10041      26221.746      25261.452      6658.1467      18603.305      3275.5451      5734.3917     -5571.9149      254.61633     -3399.9093      61934.778     -43624.202     -537.44019      68941.245      41.004014      41.004014      41.004014      1.2155159      995.65713      2450.669      -581.02488    
    145000   145000         357.29206     -145.83289      25172.287      25319.278      6729.8599      18589.418      3356.5789      5750.5473     -5687.764       246.16343     -3349.8873      61895.174     -43621.394     -536.1044       69113.023      41.038042      41.038042      41.038042      1.2124948     -1556.3801      920.87808      198.00338    
    146000   146000         359.53207      102.91615      25516.361      25412.44       6772.0521      18640.388      3389.1732      5715.5928     -5662.5325      257.51158     -3315.8021      61873.889     -43617.444     -535.13889      69237.719      41.062708      41.062708      41.062708      1.2103111      933.95808     -436.31057     -188.89905    
    147000   147000         354.64303     -1098.5544      24032.434      25141.626      6679.9634      18461.663      3386.7161      5601.6077     -5683.2151      238.63998     -3344.9646      61882.802     -43619.923     -535.17997      69232.404      41.061657      41.061657      41.061657      1.210404      -1956.9954     -563.72629     -774.94136    
    148000   148000         355.15635      490.60836      25714.968      25223.404      6689.6322      18533.772      3346.3775      5625.0748     -5661.6092      256.40404     -3317.9052      61912.043     -43626.613     -539.31222      68701.94       40.956516      40.956516      40.956516      1.2197498     -973.85988      1437.3117      1008.3733    
    149000   149000         356.47167      1188.5271      26483.666      25290.298      6714.4073      18575.89       3335.1998      5695.7531     -5628.9363      247.42232     -3352.2376      61906.572     -43627.884     -538.17019      68847.729      40.985466      40.985466      40.985466      1.2171669     -331.95627      340.26928      3557.2682    
    150000   150000         351.86336      512.26087      25744.147      25229.724      6627.6064      18602.117      3375.4436      5753.8603     -5663.1243      247.6779      -3422.3581      61938.694     -43628.076     -538.09123      68857.833      40.98747       40.98747       40.98747       1.2169884     -570.16606      819.6677       1287.281     
    151000   151000         351.57291     -1634.5312      23496.221      25136.924      6622.1354      18514.788      3405.1591      5666.5555     -5623.875       249.81708     -3427.0565      61880.12      -43635.932     -538.32994      68827.299      40.981411      40.981411      40.981411      1.2175283     -1408.7013     -194.78883     -3300.1036    
    152000   152000         359.70593      41.057737      25443.146      25401.787      6775.3269      18626.46       3311.4668      5807.8942     -5602.6097      238.43661     -3401.0576      61896.662     -43624.332     -536.43045      69071.016      41.029726      41.029726      41.029726      1.2132322      374.18206     -617.86734      366.85849    
    153000   153000         352.27238     -91.229473      25121.834      25213.826      6635.3106      18578.515      3426.8258      5700.4672     -5716.3264      250.25843     -3331.696       61876.387     -43627.401     -535.88209      69141.695      41.043716      41.043716      41.043716      1.211992       41.677143      910.31732     -1225.6829    
    154000   154000         347.65109     -864.37073      24374.606      25246.156      6548.265       18697.891      3511.464       5739.8426     -5662.6051      255.73812     -3392.4011      61878.12      -43632.268     -535.91141      69137.912      41.042967      41.042967      41.042967      1.2120583     -1168.9692     -1124.5213     -299.62171    
    155000   155000         351.07477      758.64518      25916.271      25152.031      6612.7525      18539.278      3366.6378      5661.6357     -5662.8897      225.07651     -3316.2205      61894.071     -43629.033     -536.40659      69074.088      41.030334      41.030334      41.030334      1.2131782      1444.3922      446.46853      385.0748     
    156000   156000         356.24469     -1860.4685      23475.603      25357.1        6710.1319      18646.968      3435.5946      5708.4479     -5652.189       250.79468     -3358.7935      61893.074     -43629.961     -534.32322      69343.413      41.083592      41.083592      41.083592      1.2084663     -2044.7642     -2590.4619     -946.17953    
    157000   157000         355.31126      1959.3417      27204.589      25233.293      6692.55        18540.743      3411.2297      5670.0718     -5658.8995      259.2328      -3376.1739      61868.294     -43633.012     -537.08566      68986.753      41.013034      41.013034      41.013034      1.2147141      3072.5766      2457.7021      347.74638    
    158000   158000         356.56124      1541.7519      26825.919      25269.53       6716.0944      18553.436      3367.8706      5673.4996     -5672.492       257.15765     -3365.4284      61926.333     -43633.505     -535.28062      69219.386      41.059083      41.059083      41.059083      1.2106317      878.65322      1783.8004      1962.8021    
    159000   159000         349.60983      614.39349      25796.566      25178.105      6585.1594      18592.946      3314.6876      5753.4003     -5616.5627      218.14233     -3363.672       61921.706     -43634.756     -536.80918      69022.284      41.020074      41.020074      41.020074      1.2140888      927.98938      1882.7137     -967.5226     
    160000   160000         356.96944     -689.95897      24557.513      25256.252      6723.7831      18532.469      3364.486       5670.0006     -5674.3515      240.81088     -3326.2736      61879.976     -43622.179     -533.57227      69441.007      41.102856      41.102856      41.102856      1.2067679      308.48824     -1561.2797     -817.0855     
    161000   161000         359.8764       96.489653      25418.003      25320.767      6778.5378      18542.229      3445.2017      5656.1592     -5656.8962      228.11846     -3390.9983      61891.331     -43630.687     -536.21282      69099.049      41.035276      41.035276      41.035276      1.21274        386.47004      81.656551     -178.65763    
    162000   162000         357.0746       249.78803      25467.571      25218.333      6725.7639      18492.569      3347.8942      5633.187      -5649.3063      250.91681     -3350.2415      61882.828     -43622.709     -541.55332      68417.632      40.899941      40.899941      40.899941      1.2248185      1139.9608     -268.81933     -121.77741    
    163000   163000         355.10241     -212.41075      24920.64       25134.483      6688.6163      18445.866      3331.9622      5726.7617     -5674.9749      234.64763     -3407.4852      61863.598     -43628.643     -536.74428      69030.63       41.021727      41.021727      41.021727      1.213942      -1116.4941     -55.690084      534.95187    
    164000   164000         358.90494     -694.80991      24661.447      25360.164      6760.2396      18599.924      3454.0761      5686.9412     -5668.4558      269.01599     -3436.2846      61914.139     -43619.507     -537.34085      68953.99       41.006541      41.006541      41.006541      1.2152913     -596.2801      -26.12214      -1462.0275    
    165000   165000         354.4656       428.37055      25570.154      25138.593      6676.6214      18461.972      3298.6687      5650.4656     -5639.5118      252.55288     -3354.3483      61888.819     -43634.675     -536.36695      69079.193      41.031345      41.031345      41.031345      1.2130886      554.41914      1061.477      -330.78448    
    166000   166000         360.16029      875.58398      26264.377      25386.615      6783.8851      18602.729      3375.8328      5690.7975     -5671.699       263.52557     -3333.6104      61905.82      -43627.937     -539.02137      68739.01       40.963881      40.963881      40.963881      1.219092       503.20826      1030.2243      1093.3193    
    167000   167000         350.29137     -1316.7447      23867.688      25199.043      6597.9968      18601.046      3463.238       5705.7382     -5710.815       273.95329     -3396.849       61892.897     -43627.116     -534.4323       69329.26       41.080796      41.080796      41.080796      1.2087131     -2628.2046     -1117.7473     -204.28237    
    168000   168000         352.61331      1244.549       26547.687      25293.775      6641.7322      18652.043      3414.9237      5705.5164     -5693.3952      250.38151     -3310.5912      61919.029     -43633.821     -536.32728      69084.302      41.032356      41.032356      41.032356      1.2129989     -100.61754      2374.767       1459.4976    
    169000   169000         349.11352      1067.634       26252.625      25175.655      6575.8111      18599.844      3380.2627      5722.5754     -5649.968       240.70184     -3347.6044      61893.109     -43639.233     -535.67832      69167.996      41.04892       41.04892       41.04892       1.2115311      1152.7557      2.1686536      2047.9777    
    170000   170000         351.22106     -466.18142      24762.945      25231.451      6615.5081      18615.943      3463.6035      5667.2307     -5677.8463      237.39454     -3360.1558      61908.893     -43623.177     -537.68172      68910.276      40.997873      40.997873      40.997873      1.2160622     -1332.7515     -751.96173      686.16896    
    171000   171000         351.90565      100.08788      25319.86       25219.588      6628.4029      18591.185      3389.8248      5680.096      -5674.6581      253.64405     -3331.5823      61903.065     -43629.205     -539.3698       68694.606      40.955058      40.955058      40.955058      1.2198801      270.44581      54.591953     -24.774136    
    172000   172000         353.7753      -1802.7164      23457.586      25283.029      6663.6191      18619.41       3542.9619      5659.3886     -5679.555       219.79399     -3357.4637      61864.873     -43630.589     -533.63505      69432.838      41.101244      41.101244      41.101244      1.2069099     -3565.3325     -991.11754     -851.69901    
    173000   173000         352.95531      867.26311      26009.714      25137.772      6648.1739      18489.598      3378.4228      5613.0775     -5596.6239      251.31107     -3421.8592      61903.392     -43638.122     -537.46291      68938.331      41.003436      41.003436      41.003436      1.2155673      1138.5896      1013.1117      450.08797    
    174000   174000         355.25457     -606.95273      24567.9        25179.72       6691.4822      18488.238      3406.3333      5656.8888     -5650.0151      231.25809     -3376.6804      61851.26      -43630.806     -536.06299      69118.362      41.039098      41.039098      41.039098      1.2124011     -1052.0347     -1102.381       333.55749    
    175000   175000         356.24535      658.35601      25967.329      25304.779      6710.1443      18594.635      3439.1469      5644.2734     -5640.2732      233.6836      -3357.1897      61900.265     -43625.271     -536.94197      69005.215      41.016692      41.016692      41.016692      1.2143891      2366.6091     -244.41114     -147.12998    
    176000   176000         349.90235     -433.93128      24800.451      25236.841      6590.6691      18646.172      3487.582       5734.9424     -5688.0451      246.16019     -3340.4375      61845.762     -43639.791     -537.317        68957.051      41.007147      41.007147      41.007147      1.2152373      57.525214     -135.65183     -1223.6672    
    177000   177000         346.30149     -597.51212      24412.488      25014.346      6522.8443      18491.502      3371.6741      5609.5199     -5591.2953      220.68248     -3321.8842      61834.988     -43632.184     -536.46099      69067.082      41.028947      41.028947      41.028947      1.2133013      19.311427     -1253.9752     -557.87254    
    178000   178000         350.77785      350.18668      25471.883      25118.778      6607.1599      18511.618      3453.2677      5636.9401     -5661.3237      231.99335     -3429.0076      61907.785     -43628.037     -535.89626      69139.867      41.043354      41.043354      41.043354      1.212024      -533.69497      1419.2888      164.96616    
    179000   179000         355.02085     -1176.7127      24189.947      25376.992      6687.08        18689.912      3412.8381      5820.0503     -5552.699       208.7921      -3458.6598      61895.839     -43636.248     -535.65884      69170.511      41.049417      41.049417      41.049417      1.2114871     -2833.3321      1593.3331     -2290.1391    
    180000   180000         346.44744     -568.81047      24512.181      25084.365      6525.5934      18558.772      3403.9335      5619.7616     -5605.0091      243.81091     -3361.2093      61895.886     -43638.402     -537.17607      68975.143      41.010733      41.010733      41.010733      1.2149186     -806.31431     -466.27311     -433.844      
    181000   181000         352.88141     -283.75658      24973.763      25260.433      6646.782       18613.651      3396.5642      5662.7805     -5608.7913      251.25826     -3291.6538      61839.133     -43635.64      -534.86999      69272.527      41.069588      41.069588      41.069588      1.209703       750.92343      238.15212     -1840.3453    
    182000   182000         356.00793      969.37139      26045.666      25072.456      6705.6724      18366.783      3281.676       5665.705      -5716.9826      245.12265     -3373.6551      61902.847     -43637.93      -538.23099      68839.953      40.983922      40.983922      40.983922      1.2173044      560.07403      1653.2166      694.82353    
    183000   183000         350.31617      1189.2024      26307.531      25121.367      6598.4638      18522.903      3377.6444      5649.4438     -5655.3291      276.21461     -3414.0733      61919.087     -43630.084     -541.74637      68393.251      40.895082      40.895082      40.895082      1.2252551      1755.4688      929.23442      882.90414    
    184000   184000         349.51521      159.99048      25155.38       24994.324      6583.3773      18410.947      3263.3712      5650.6955     -5673.8122      240.55149     -3290.5752      61853.257     -43632.541     -536.78651      69025.199      41.020652      41.020652      41.020652      1.2140375      1147.2648     -103.00568     -564.28765    
    185000   185000         347.73413     -42.87589       25151.934      25195.159      6549.8293      18645.33       3388.3972      5756.179      -5657.9197      253.27604     -3377.4405      61917.016     -43634.178     -535.99144      69127.589      41.040925      41.040925      41.040925      1.2122393      669.09402     -618.59981     -179.12188    
    186000   186000         351.1279      -738.73413      24307.63       25050.237      6613.7535      18436.484      3349.9558      5605.434      -5609.6422      242.20505     -3382.3168      61859.876     -43629.028     -537.54422      68927.903      41.001369      41.001369      41.001369      1.2157512     -678.29015     -1111.1899     -426.72233    
    187000   187000         353.35317     -458.96518      24724.291      25190.632      6655.6679      18534.964      3344.7593      5758.8922     -5643.1353      212.45368     -3410.6735      61898.712     -43626.045     -531.81659      69670.251      41.148037      41.148037      41.148037      1.2027972     -1652.5219      173.10774      102.51859    
    188000   188000         357.64343      663.09817      25915.268      25244.448      6736.4782      18507.97       3340.5838      5706.5553     -5660.451       233.98819     -3354.5547      61880.955     -43639.107     -534.142        69366.939      41.088237      41.088237      41.088237      1.2080565      366.15384      1161.8065      461.33414    
    189000   189000         348.69576     -899.27512      24212.289      25121.942      6567.9423      18554          3406.7623      5661.7725     -5651.602       244.25299     -3364.3379      61887.047     -43629.895     -534.19801      69359.666      41.086801      41.086801      41.086801      1.2081832     -1318.2604     -1378.1395     -1.4254353    
    190000   190000         349.91334      185.12877      25388.366      25201.496      6590.8763      18610.62       3369.948       5720.5        -5617.0701      258.66374     -3411.2384      61922.641     -43632.824     -535.32814      69213.241      41.057868      41.057868      41.057868      1.2107392      1010.9989     -327.89989     -127.71271    
    191000   191000         343.47939      1074.6715      25976.062      24896.115      6469.688       18426.427      3333.0753      5631.6983     -5679.5214      233.36774     -3357.4802      61898.333     -43633.046     -537.723        68904.986      40.996824      40.996824      40.996824      1.2161555      707.23813      256.45567      2260.3206    
    192000   192000         351.21666     -171.87498      24987.309      25160.242      6615.4253      18544.817      3393.2665      5658.7709     -5641.2632      279.37968     -3392.5382      61876.179     -43628.978     -537.05575      68990.595      41.013796      41.013796      41.013796      1.2146464     -26.281741      827.13192     -1316.4751    
    193000   193000         359.53753      1053.9482      26363.118      25301.987      6772.155       18529.832      3318.3077      5666.3402     -5627.7627      242.93557     -3342.931       61906.934     -43633.991     -536.70468      69035.723      41.022736      41.022736      41.022736      1.2138524      2161.5065      312.82492      687.51304    
    194000   194000         349.1935       760.52859      25828.746      25064.229      6577.3175      18486.911      3341.6904      5734.1872     -5669.8863      212.89654     -3354.5207      61860.197     -43637.653     -537.54343      68928.004      41.001389      41.001389      41.001389      1.2157494     -142.55244      1704.2615      719.87668    
    195000   195000         355.72798     -349.62837      24795.565      25149.309      6700.3993      18448.909      3386.1789      5594.9176     -5665.5691      245.22964     -3354.5303      61875.189     -43632.506     -534.07542      69375.587      41.089945      41.089945      41.089945      1.2079059      549.62257     -1754.1859      155.67819    
    196000   196000         350.05166      903.00322      25908.815      24999.323      6593.4816      18405.842      3338.2363      5490.8543     -5585.7417      255.54216     -3376.2123      61910.884     -43627.721     -536.50737      69061.112      41.027765      41.027765      41.027765      1.2134062     -148.84515      425.92439      2431.9304    
    197000   197000         348.92396     -954.35519      24086.522      25048.646      6572.2405      18476.406      3434.6078      5623.6288     -5652.8415      236.00041     -3399.3392      61858.607     -43624.257     -535.99922      69126.585      41.040726      41.040726      41.040726      1.2122569      91.787238     -1879.6771     -1075.1757    
    198000   198000         355.69043      426.27032      25707.052      25273.184      6699.6919      18573.492      3352.4374      5667.2622     -5651.0381      254.78325     -3279.2365      61851.521     -43622.238     -530.89972      69790.573      41.171712      41.171712      41.171712      1.2007235      716.1963       1114.0514     -551.43675    
    199000   199000         354.74305      329.1155       25548.882      25216.475      6681.8475      18534.627      3378.6067      5549.3095     -5677.3983      249.21169     -3280.0161      61932.085     -43617.171     -535.01212      69254.124      41.065951      41.065951      41.065951      1.2100244      23.990384      437.83049      525.52564    
    200000   200000         345.96009      1658.1329      26781.655      25102.662      6516.4139      18586.248      3428.7949      5677.4757     -5688.1885      224.22456     -3363.529       61928.465     -43620.995     -533.64866      69431.067      41.100895      41.100895      41.100895      1.2069407      1110.0424      3048.2522      816.10405    
    201000   201000         353.66217      334.47472      25468.913      25130.977      6661.4882      18469.488      3340.4176      5626.6984     -5732.5537      251.80357     -3314.8162      61918.187     -43620.248     -534.82689      69278.11       41.070691      41.070691      41.070691      1.2096055     -89.899084     -1047.9533      2141.2765    
    202000   202000         351.53437     -569.48935      24711.886      25285.491      6621.4095      18664.082      3444.3789      5717.2688     -5629.464       248.08934     -3387.9049      61892.609     -43620.896     -536.4852       69063.966      41.02833       41.02833       41.02833       1.213356      -2522.5006     -296.20888      1110.2415    
    203000   203000         345.2089       387.09042      25437.39       25048.017      6502.2647      18545.753      3347.2365      5720.495      -5675.5432      256.11391     -3388.9816      61914.756     -43628.324     -537.19468      68972.753      41.01026       41.01026       41.01026       1.2149607      726.49182     -607.81719      1042.5966    
    204000   204000         351.8845      -12.474754      25210.001      25222.522      6628.0044      18594.517      3340.2719      5705.931      -5585.0574      248.56361     -3387.5092      61893.672     -43621.355     -538.39276      68819.269      40.979817      40.979817      40.979817      1.2176703     -2115.6324     -510.87159      2589.0797    
    205000   205000         346.77557     -1258.6301      23730.021      24999.791      6531.7741      18468.017      3294.4783      5666.9747     -5629.9206      208.37741     -3332.5537      61894.46      -43633.799     -535.62141      69175.345      41.050373      41.050373      41.050373      1.2114024     -1912.4311     -929.00776     -934.45151    
    206000   206000         348.30778     -808.4698       24230.7        25044.839      6560.6343      18484.205      3351.4373      5649.6233     -5634.3768      238.21327     -3356.1384      61855.326     -43619.88      -536.59961      69049.242      41.025414      41.025414      41.025414      1.2136148     -2304.132      -1463.7005      1342.4231    
    207000   207000         352.48042     -1445.1256      23593.978      25052.884      6639.2291      18413.655      3352.8581      5628.945      -5624.2175      248.83718     -3463.721       61894.382     -43623.429     -535.25854      69222.241      41.059648      41.059648      41.059648      1.2105817     -2245.3542     -377.88307     -1712.1395    
    208000   208000         356.01708      488.85916      25733.796      25242.696      6705.8446      18536.851      3457.8844      5640.8236     -5686.3004      225.00383     -3356.7086      61884.081     -43627.932     -537.896        68882.825      40.992429      40.992429      40.992429      1.2165468      499.17144      550.47512      416.9309     
    209000   209000         348.95767      30.956909      25116.336      25085.109      6572.8755      18512.233      3374.0584      5639.4561     -5639.967       248.69772     -3349.9079      61872.198     -43632.302     -535.68317      69167.37       41.048796      41.048796      41.048796      1.2115421      471.36221      662.45622     -1040.9477    
    210000   210000         353.81608      515.60914      25586.626      25068.19       6664.3873      18403.803      3304.1566      5629.4737     -5664.2426      231.64876     -3316.4125      61844.834     -43625.655     -537.41641      68944.296      41.004619      41.004619      41.004619      1.2154621      1612.4333      627.14802     -692.75387    
    211000   211000         344.69673     -941.44676      24098.611      25045.195      6492.6175      18552.577      3356.854       5695.9158     -5628.5553      216.87996     -3352.308       61885.496     -43621.705     -537.43006      68942.545      41.004272      41.004272      41.004272      1.215493       308.80809     -352.13421     -2781.0142    
    212000   212000         349.8434      -489.25882      24567.48       25061.832      6589.5589      18472.273      3449.3729      5590.7768     -5704.4563      238.97294     -3358.8294      61883.982     -43627.546     -534.79581      69282.135      41.071486      41.071486      41.071486      1.2095352      119.29509     -686.31296     -900.75859    
    213000   213000         353.13207     -612.26867      24489.363      25108.393      6651.5035      18456.89       3326.2991      5612.0039     -5592.3849      230.58103     -3382.0348      61892.008     -43629.583     -534.45997      69325.67       41.080087      41.080087      41.080087      1.2087756     -1286.4362     -913.01858      362.64874    
    214000   214000         356.15452     -1111.5733      24125.604      25247.513      6708.4335      18539.08       3509.8383      5611.5346     -5695.1015      250.94997     -3351.0937      61852.714     -43639.761     -535.38386      69206.038      41.056444      41.056444      41.056444      1.2108652     -1313.9914     -1899.7864     -120.94211    
    215000   215000         344.18478     -728.62599      24220.501      24953.483      6482.9746      18470.508      3300.3166      5744.2904     -5636.0862      245.60233     -3471.5622      61916.37      -43628.423     -537.15107      68978.352      41.011369      41.011369      41.011369      1.214862      -888.88057     -448.36874     -848.62867    
    216000   216000         350.5317      -74.830781      25153.546      25229.433      6602.5235      18626.91       3438.576       5750.0551     -5673.0723      240.82821     -3384.9195      61882.058     -43626.616     -532.83778      69536.728      41.121734      41.121734      41.121734      1.2051068      3.8987808     -609.86185      381.47073    
    217000   217000         351.25344      0.71605522     25099.31       25098.586      6616.1181      18482.468      3360.5272      5617.199      -5630.8025      230.93785     -3339.1632      61868.196     -43624.427     -534.41165      69331.938      41.081325      41.081325      41.081325      1.2086664      796.73516     -459.21675     -335.37024    
    218000   218000         345.99062     -557.29177      24348.207      24911.822      6516.9889      18394.833      3280.2608      5616.2484     -5620.3844      236.03764     -3419.8464      61928.335     -43625.818     -534.3001       69346.414      41.084184      41.084184      41.084184      1.208414       517.95193     -1339.3481     -850.47912    
    219000   219000         342.97251     -1239.3286      23537.065      24782.607      6460.1406      18322.467      3233.6298      5570.9668     -5575.0395      213.7909      -3425.1651      61934.499     -43630.215     -537.66658      68912.217      40.998258      40.998258      40.998258      1.2160279     -1599.0208     -699.33924     -1419.6257    
    220000   220000         352.42024      74.192272      25154.602      25080.01       6638.0955      18441.914      3410.9137      5638.2538     -5647.0787      237.37568     -3425.7981      61854.07      -43625.822     -537.46445      68938.133      41.003397      41.003397      41.003397      1.2155708      391.94439     -85.057699     -84.309871    
    221000   221000         347.59692     -300.5353       24636.684      24938.539      6547.2447      18391.295      3252.294       5599.8792     -5560.4779      244.10849     -3434.5006      61926.723     -43636.731     -537.99975      68869.541      40.989793      40.989793      40.989793      1.2167815     -1633.7381      512.97015      219.16206    
    222000   222000         352.66322      1502.027       26638.377      25120.117      6642.6722      18477.445      3302.6124      5613.7778     -5626.704       230.88851     -3297.1203      61881.288     -43627.297     -534.58524      69309.425      41.076878      41.076878      41.076878      1.209059       1638.9389     -17.827681      2884.9699    
    223000   223000         347.72838     -75.895202      25020.579      25096.944      6549.721       18547.223      3295.8761      5680.6786     -5641.5301      262.40097     -3343.1115      61930.345     -43637.436     -537.04224      68992.331      41.01414       41.01414       41.01414       1.2146159      1021.6597     -1851.4873      602.14201    
    224000   224000         351.51527      182.8936       25388.718      25203.904      6621.0498      18582.854      3394.0819      5624.5549     -5610.0088      246.49575     -3291.164       61851.714     -43632.82      -534.74697      69288.463      41.072737      41.072737      41.072737      1.2094247     -542.10164      1112.1974     -21.414969    
    225000   225000         354.13343      22.859977      25019.372      24996.245      6670.3648      18325.88       3309.2403      5677.2654     -5703.5755      222.23873     -3423.3836      61870.558     -43626.463     -534.13541      69367.796      41.088406      41.088406      41.088406      1.2080416      891.41933     -670.94711     -151.89229    
    226000   226000         348.09164     -1592.005       23451.63       25060.911      6556.5632      18504.348      3389.0255      5601.7181     -5671.3004      248.30704     -3340.2287      61912.26      -43635.433     -534.56161      69312.489      41.077484      41.077484      41.077484      1.2090055     -1023.4956     -2469.6709     -1282.8487    
    227000   227000         350.15843     -201.12847      24917.774      25120.021      6595.4927      18524.529      3388.2911      5674.8919     -5647.5558      263.29762     -3386.2163      61852.649     -43620.828     -537.37335      68949.819      41.005714      41.005714      41.005714      1.2153648     -554.37686     -805.497        756.48846    
    228000   228000         339.66626      785.46377      25717.28       24924.275      6397.865       18526.41       3302.3643      5719.0965     -5656.5622      250.77712     -3344.4243      61885.761     -43630.602     -535.22432      69226.667      41.060523      41.060523      41.060523      1.2105043      1623.0416     -504.37321      1237.7229    
    229000   229000         346.64496      423.64647      25406.748      24978.959      6529.3138      18449.645      3353.2132      5672.5199     -5668.3394      229.17519     -3364.8708      61851.001     -43623.054     -535.12979      69238.896      41.06294       41.06294       41.06294       1.2102905     -308.92102      444.03287      1135.8276    
    230000   230000         352.25886      405.14575      25467.552      25061.485      6635.0558      18426.43       3304.1327      5575.2851     -5656.4325      234.46508     -3365.6958      61960.2       -43625.525     -539.13747      68724.209      40.96094       40.96094       40.96094       1.2193546      266.96275     -556.84117      1505.3157    
    231000   231000         351.45588     -299.13942      24746.324      25048.411      6619.9312      18428.48       3308.1502      5693.2478     -5600.7241      225.84478     -3461.5492      61901.013     -43637.503     -535.08934      69244.13       41.063975      41.063975      41.063975      1.2101991      556.77506      909.25261     -2363.4459    
    232000   232000         344.74872      781.92824      25674.939      24887.686      6493.5967      18394.089      3334.9522      5699.6522     -5733.5537      224.71448     -3384.6639      61885.655     -43632.667     -536.70759      69035.349      41.022662      41.022662      41.022662      1.213859       633.60681      1145.0739      567.104      
    233000   233000         344.61204      1251.1721      26250.945      24992.761      6491.0223      18501.739      3429.6215      5664.3198     -5676.3563      231.64418     -3396.2109      61893.929     -43645.208     -537.35118      68952.665      41.006278      41.006278      41.006278      1.2153146      2237.0455     -58.206177      1574.6769    
    234000   234000         349.95968      3.573251       25003.973      25000.375      6591.7491      18408.626      3301.3224      5659.1446     -5658.5859      238.07237     -3411.5611      61926.935     -43646.702     -536.5854       69051.07       41.025776      41.025776      41.025776      1.2135827     -671.20769      1109.5207     -427.5933     
    235000   235000         343.87573      1114.0173      25934.598      24810.985      6477.1533      18333.831      3231.0273      5656.8259     -5680.5489      227.62311     -3353.579       61898.197     -43645.714     -535.74732      69159.087      41.047157      41.047157      41.047157      1.2116872      1063.9979      1861.5562      416.4979     
    236000   236000         351.2963      -622.99201      24449.754      25075.887      6616.9254      18458.962      3355.9369      5644.6279     -5623.898       235.67202     -3437.2606      61913.399     -43629.515     -537.65103      68914.21       40.998654      40.998654      40.998654      1.2159928     -402.81768     -847.08905     -619.06931    
    237000   237000         350.22355      524.8802       25517.876      24990.855      6596.7193      18394.136      3288.8633      5669.2264     -5636.7766      225.67489     -3433.9842      61915.68      -43634.548     -538.16688      68848.153      40.98555       40.98555       40.98555       1.2171595      436.59652      630.34279      507.70127    
    238000   238000         347.5438      -900.49073      24144.088      25051.914      6546.2442      18505.67       3411.8649      5641.5161     -5618.3055      240.16018     -3410.7048      61868.906     -43627.767     -535.99591      69127.012      41.04081       41.04081       41.04081       1.2122494      732.62558     -3308.977      -125.12075    
    239000   239000         348.84124      147.40564      25063.533      24915.886      6570.6824      18345.204      3351.114       5537.1502     -5644.3884      217.82273     -3361.7793      61874.063     -43628.778     -539.47954      68680.632      40.952281      40.952281      40.952281      1.2201283      1324.2382      780.37687     -1662.3982    
    240000   240000         347.7818      -1377.3272      23646.809      25039.647      6550.7271      18488.919      3406.1766      5668.3541     -5655.4916      239.07442     -3398.4044      61872.714     -43643.504     -534.34499      69340.588      41.083034      41.083034      41.083034      1.2085156     -2781.4363     -1255.8558     -94.68958     
    241000   241000         341.46478      722.26229      25493.556      24767.216      6431.7415      18335.475      3248.1145      5598.019      -5642.4653      238.21749     -3363.6338      61883.197     -43625.974     -537.32865      68955.556      41.006851      41.006851      41.006851      1.2152637      1296.7333     -34.15341       904.207      
    242000   242000         344.54161      224.52501      25190.996      24965.93       6489.6957      18476.234      3434.0853      5567.1976     -5625.3416      233.999       -3402.4203      61900.017     -43631.302     -539.06483      68733.469      40.96278       40.96278       40.96278       1.2191903      409.55294      541.71177     -277.68966    
    243000   243000         340.70479     -202.15586      24563.382      24768.369      6417.4265      18350.943      3287.0204      5582.8289     -5685.8617      236.15103     -3368.648       61929.804     -43630.351     -532.89716      69528.979      41.120206      41.120206      41.120206      1.2052411     -427.7794      -74.365897     -104.32229    
    244000   244000         350.09382      2270.1663      27205.336      24925.451      6594.2758      18331.175      3270.7018      5562.4862     -5658.5507      235.01519     -3373.0581      61932.111     -43637.531     -538.05885      68861.976      40.988293      40.988293      40.988293      1.2169151      1587.1447      1667.4286      3555.9257    
    245000   245000         352.25706      641.79874      25744.451      25099.174      6635.022       18464.152      3301.9009      5603.2415     -5619.5229      252.42462     -3356.21        61908.038     -43625.72      -537.44983      68940.008      41.003769      41.003769      41.003769      1.2155377      275.81778      706.77747      942.80096    
    246000   246000         346.30395     -133.68013      24842.09       24977.765      6522.8906      18454.875      3312.2073      5650.2635     -5652.5257      254.59229     -3389.7581      61916.279     -43636.184     -532.41505      69591.939      41.132614      41.132614      41.132614      1.2041507      492.57552     -463.50134     -430.11456    
    247000   247000         344.22627      247.69723      25075.235      24825.315      6483.7561      18341.559      3339.5389      5594.3291     -5639.1773      231.09206     -3389.9477      61841.624     -43635.9       -535.55629      69183.756      41.052037      41.052037      41.052037      1.2112551      966.73351     -1310.023       1086.3811    
    248000   248000         352.31393      884.97435      25736.199      24852.017      6636.093       18215.924      3207.6761      5557.4865     -5660.7132      234.15006     -3417.0364      61927.62      -43633.259     -540.84684      68507.002      40.917742      40.917742      40.917742      1.2232207     -273.7275       2295.8492      632.80134    
    249000   249000         338.55709      484.95655      25260.044      24773.196      6376.9729      18396.224      3310.3141      5637.7092     -5640.5854      246.8345      -3380.5964      61861.666     -43639.118     -538.2633       68835.82       40.983102      40.983102      40.983102      1.2173775      365.1922      -50.973841      1140.6513    
    250000   250000         346.37975     -531.83844      24341.416      24876.514      6524.3185      18352.196      3276.722       5610.8609     -5631.4127      211.86966     -3369.6184      61889.706     -43635.932     -537.07081      68988.661      41.013412      41.013412      41.013412      1.2146805      944.74956     -1564.7484     -975.51654    
Loop time of 1059.87 on 1 procs for 250000 steps with 6320 atoms

Performance: 20.380 ns/day, 1.178 hours/ns, 235.877 timesteps/s, 1.491 Matom-step/s
100.0% CPU use with 1 MPI tasks x 1 OpenMP threads

MPI task timing breakdown:
Section |  min time  |  avg time  |  max time  |%varavg| %total
---------------------------------------------------------------
Pair    | 395.9      | 395.9      | 395.9      |   0.0 | 37.35
Bond    | 147.26     | 147.26     | 147.26     |   0.0 | 13.89
Kspace  | 300.58     | 300.58     | 300.58     |   0.0 | 28.36
Neigh   | 85.41      | 85.41      | 85.41      |   0.0 |  8.06
Comm    | 7.9415     | 7.9415     | 7.9415     |   0.0 |  0.75
Output  | 3.0021     | 3.0021     | 3.0021     |   0.0 |  0.28
Modify  | 70.654     | 70.654     | 70.654     |   0.0 |  6.67
Other   |            | 49.12      |            |       |  4.63

Nlocal:           6320 ave        6320 max        6320 min
Histogram: 1 0 0 0 0 0 0 0 0 0
Nghost:          17730 ave       17730 max       17730 min
Histogram: 1 0 0 0 0 0 0 0 0 0
Neighs:              0 ave           0 max           0 min
Histogram: 1 0 0 0 0 0 0 0 0 0
FullNghs:  3.68483e+06 ave 3.68483e+06 max 3.68483e+06 min
Histogram: 1 0 0 0 0 0 0 0 0 0

Total # of neighbors = 3684830
Ave neighs/atom = 583.04272
Ave special neighs/atom = 5.5411392
Neighbor list builds = 9692
Dangerous builds = 0
System init for write_data ...
PPPM Kokkos initialization ...
  using 12-bit tables for long-range coulomb
  G vector (1/distance) = 0.3346941
  grid = 45 45 45
  stencil order = 5
  estimated absolute RMS force accuracy = 0.00041536508
  estimated relative force accuracy = 1.2508596e-06
  using double precision cuFFT
  3d grid and FFT values/proc = 140608 91125
Generated 21 of 21 mixed pair_coeff terms from sixthpower/sixthpower mixing rule
System init for write_restart ...
PPPM Kokkos initialization ...
  using 12-bit tables for long-range coulomb
  G vector (1/distance) = 0.3346941
  grid = 45 45 45
  stencil order = 5
  estimated absolute RMS force accuracy = 0.00041536508
  estimated relative force accuracy = 1.2508596e-06
  using double precision cuFFT
  3d grid and FFT values/proc = 140608 91125
Generated 21 of 21 mixed pair_coeff terms from sixthpower/sixthpower mixing rule
STAGE COMPLETE: NPT T=370.0->345.0K P=1.0->1.0atm steps=250000
