LAMMPS (22 Jul 2025 - Update 3)
KOKKOS mode with Kokkos version 4.6.2 is enabled
  will use up to 1 GPU(s) per node
  using 1 OpenMP thread(s) per MPI task
Reading data file ...
  orthogonal box = (3.5918481 3.5918481 3.5918481) to (47.930209 47.930209 47.930209)
  1 by 1 by 1 MPI processor grid
  reading atoms ...
  8000 atoms
  reading velocities ...
  8000 velocities
  scanning bonds ...
  4 = max bonds/atom
  scanning angles ...
  10 = max angles/atom
  scanning dihedrals ...
  16 = max dihedrals/atom
  scanning impropers ...
  7 = max impropers/atom
  orthogonal box = (3.5918481 3.5918481 3.5918481) to (47.930209 47.930209 47.930209)
  1 by 1 by 1 MPI processor grid
  reading bonds ...
  7990 bonds
  reading angles ...
  14820 angles
  reading dihedrals ...
  17070 dihedrals
  reading impropers ...
  9120 impropers
Finding 1-2 1-3 1-4 neighbors ...
  special bond factors lj:    0        0        1       
  special bond factors coul:  0        0        1       
     4 = max # of 1-2 neighbors
     6 = max # of 1-3 neighbors
     8 = max # of special neighbors
  special bonds CPU = 0.003 seconds
  read_data CPU = 0.195 seconds
PPPM Kokkos initialization ...
  using 12-bit tables for long-range coulomb
  G vector (1/distance) = 0.30200671
  grid = 32 32 32
  stencil order = 5
  estimated absolute RMS force accuracy = 0.00030569977
  estimated relative force accuracy = 9.2060578e-07
  using double precision cuFFT
  3d grid and FFT values/proc = 59319 32768
Generated 10 of 10 mixed pair_coeff terms from sixthpower/sixthpower mixing rule
Neighbor list info ...
  update: every = 1 steps, delay = 0 steps, check = yes
  max neighbors/atom: 4000, page size: 100000
  master list distance cutoff = 11.5
  ghost atom cutoff = 11.5
  binsize = 11.5, bins = 4 4 4
  1 neighbor lists, perpetual/occasional/extra = 1 0 0
  (1) pair lj/class2/coul/long/kk, perpetual
      attributes: full, newton off, kokkos_device
      pair build: full/bin/kk/device
      stencil: full/bin/3d
      bin: kk/device
Setting up Verlet run ...
  Unit style    : real
  Current step  : 0
  Time step     : 1
Per MPI rank memory allocation (min/avg/max) = 34.64 | 34.64 | 34.64 Mbytes
   Step          Time           Temp          Press         Enthalpy        TotEng         KinEng         PotEng         E_bond        E_angle        E_dihed        E_impro         E_vdwl         E_coul         E_long         E_tail         Volume           Lx             Ly             Lz          Density          Pxx            Pyy            Pzz      
         0   0              480.63744      1480.3069      16657.452      14775.682      11460.079      3315.6035      4273.9609      8049.6387     -9115.6246     -96.433658     -2364.3159      8032.5084     -5464.1304     -478.57415      87164.352      44.338361      44.338361      44.338361      0.95712908     907.63792      1225.5168      2307.766     
      1000   1000           469.3308       100.72577      14661.014      14532.852      11190.489      3342.3629      4296.1443      8092.8974     -9089.8127     -93.988301     -2454.8326      8046.4759     -5454.5211     -478.12864      87245.57       44.352128      44.352128      44.352128      0.95623807    -400.44396      1511.2379     -808.61658    
      2000   2000           475.96637      163.91681      14980.367      14770.906      11348.704      3422.202       4398.4094      8045.3717     -9100.0544     -91.908103     -2397.5498      8032.1919     -5464.2588     -476.08495      87620.089      44.415501      44.415501      44.415501      0.95215077     937.6067       925.35374     -1371.21      
      3000   3000           472.52478      1293.2175      16231.133      14589.96       11266.644      3323.3153      4293.6615      8024.9566     -9069.9386     -89.484653     -2402.212       8030.2943     -5463.9619     -479.38129      87017.593      44.313463      44.313463      44.313463      0.95874331     2302.8659      1966.4568     -389.6704     
      4000   4000           476.49512      319.20231      15156.949      14746.199      11361.311      3384.8882      4299.8957      8155.9669     -9157.0167     -100.27574     -2384.1244      8035.5219     -5465.0795     -472.77285      88233.928      44.51898       44.51898       44.51898       0.94552671     957.77713     -267.3463       267.17612    
      5000   5000           475.81342      962.02748      15968.613      14739.229      11345.057      3394.1721      4416.6987      7941.3206     -9093.8541     -90.192875     -2352.217       8043.04       -5470.6231     -476.06243      87624.234      44.416201      44.416201      44.416201      0.95210573     1295.3628      1682.4872     -91.76756     
      6000   6000           469.3317       555.18304      15310.532      14598.453      11190.51       3407.9431      4300.8481      8045.0981     -9057.8236     -92.794157     -2320.7059      8003.3241     -5470.0035     -474.32106      87945.929      44.47049       44.47049       44.47049       0.94862305     359.80144      76.561757      1229.1859    
      7000   7000           471.41728      893.70996      15723.935      14574.148      11240.238      3333.9102      4259.8028      8018.6643     -9030.7579     -92.506421     -2335.2115      7989.8412     -5475.9222     -472.87141      88215.539      44.515887      44.515887      44.515887      0.94572381     1917.5107      970.2474      -206.6282     
      8000   8000           476.04151     -1128.0752      13201.697      14640.494      11350.496      3289.9982      4299.7826      8127.9143     -9058.6546     -92.000273     -2524.5097      8008.3643     -5470.8985     -476.98261      87455.191      44.387621      44.387621      44.387621      0.95394606    -581.74131     -2360.8326     -441.65168    
      9000   9000           475.88656     -1496.9931      12787.64       14710.206      11346.801      3363.4049      4338.0838      8009.2924     -9051.5312     -90.629571     -2394.973       8021.5505     -5468.388      -473.69921      88061.38       44.489941      44.489941      44.489941      0.94737938    -2782.3099     -955.49362     -753.17581    
     10000   10000          474.68065     -1025.4798      13196.984      14506.949      11318.048      3188.901       4296.3667      7980.2058     -9107.0898     -87.738402     -2441.8908      8017.7284     -5468.6809     -476.24602      87590.456      44.410493      44.410493      44.410493      0.95247289    -2782.8299      143.26107     -436.87056    
     11000   11000          464.97618      1322.0139      16165.796      14476.226      11086.659      3389.5669      4236.1186      8000.0827     -8968.8019     -93.479751     -2346.058       8031.8292     -5470.124      -476.01869      87632.285      44.417561      44.417561      44.417561      0.95201826     1815.5093      2038.3407      112.19153    
     12000   12000          467.3249       204.30018      14572.22       14312.036      11142.661      3169.3747      4305.5456      8041.0404     -9206.287      -90.420664     -2420.5867      8018.0846     -5478.0014     -477.69696      87324.411      44.365484      44.365484      44.365484      0.95537473    -728.88356      514.94495      826.83915    
     13000   13000          470.51174      21.36369       14718.882      14691.678      11218.647      3473.0312      4329.9435      8127.7537     -9059.5303     -88.53949      -2398.0484      8027.4318     -5465.9796     -477.75542      87313.725      44.363674      44.363674      44.363674      0.95549165    -1163.8237     -192.26453      1420.1793    
     14000   14000          470.66154     -936.36878      13303.347      14512.433      11222.218      3290.2151      4310.2611      7961.7626     -9062.073      -92.318476     -2352.1398      7999.5554     -5474.8327     -471.14418      88538.939      44.570219      44.570219      44.570219      0.94226943    -1511.9498     -437.73944     -859.41713    
     15000   15000          479.12435      618.24111      15552.249      14764.458      11424.001      3340.4565      4276.1255      8048.5088     -9013.8563     -91.410427     -2443.4687      8030.4448     -5465.8873     -477.43091      87373.074      44.373723      44.373723      44.373723      0.95484263     1228.2582      981.25117     -354.786      
     16000   16000          464.90114      216.71191      14831.933      14554.785      11084.87       3469.9148      4344.9683      8153.668      -9043.6505     -87.178411     -2449.6099      8017.2274     -5465.5103     -475.7028       87690.478      44.427391      44.427391      44.427391      0.95138649    -280.72627      342.8806       587.98139    
     17000   17000          470.99546      187.13028      14618.664      14378.682      11230.18       3148.5017      4208.5496      7863.7414     -9072.1531     -90.583805     -2335.5171      8034.5073     -5460.0426     -474.38193      87934.643      44.468587      44.468587      44.468587      0.9487448     -763.0047      -303.44132      1627.8369    
     18000   18000          469.86456      551.90758      15202.227      14491.644      11203.215      3288.4285      4290.9677      7928.4888     -9066.2049     -88.325366     -2336.4627      8025.3996     -5465.4347     -472.51476      88282.122      44.527084      44.527084      44.527084      0.94501054     1129.3801     -313.0832       839.42586    
     19000   19000          472.31566      33.69146       14592.487      14549.511      11261.658      3287.8527      4249.7408      7934.2439     -9043.7395     -92.496997     -2339.902       8039.5637     -5459.5573     -476.93006      87464.828      44.389251      44.389251      44.389251      0.95384096     882.73369     -1750.1962      968.53686    
     20000   20000          473.78281      685.15535      15563.24       14682.1        11296.64       3385.4598      4276.447       8069.4485     -9061.0521     -93.003484     -2381.0005      8033.9134     -5459.2931     -473.05107      88182.034      44.51025       44.51025       44.51025       0.94608314     1811.338      -753.58403      997.71208    
     21000   21000          471.11192      1400.6165      16196.618      14403.567      11232.957      3170.6096      4176.9717      8063.1387     -9172.47       -89.637478     -2386.1126      8040.4886     -5461.7693     -475.21549      87780.399      44.442572      44.442572      44.442572      0.95041189     722.50598      135.65158      3343.692     
     22000   22000          476.32969      775.58448      15404.213      14408.698      11357.367      3051.3312      4190.3365      7962.591      -9180.3845     -94.762386     -2380.0938      8022.7361     -5469.0917     -473.9638       88012.219      44.48166       44.48166       44.48166       0.94790856     1150.5928      742.88226      433.27839    
     23000   23000          471.41616      484.84607      15161.782      14546.455      11240.211      3306.2445      4254.4172      8069.3725     -9013.9568     -93.035777     -2475.9543      8028.1723     -5462.7707     -479.36024      87021.413      44.314111      44.314111      44.314111      0.95870122     411.21107     -836.72907      1880.0562    
     24000   24000          475.4301       1021.6693      15909.797      14608.639      11335.917      3272.7216      4263.2374      7970.0702     -9009.82       -89.479466     -2383.1426      7994.2879     -5472.4319     -477.68804      87326.041      44.36576       44.36576       44.36576       0.9553569      717.2976      -67.358164      2415.0685    
     25000   25000          477.24921     -726.49864      13580.991      14505.879      11379.291      3126.5878      4240.1188      7913.7661     -9073.8183     -85.236042     -2428.6248      8022.5615     -5462.1795     -477.86985      87292.819      44.360133      44.360133      44.360133      0.95572049    -2131.5432      380.91185     -428.86453    
     26000   26000          469.53407     -201.8142       14025.101      14279.894      11195.335      3084.5589      4169.5522      7966.3883     -9026.6012     -88.060946     -2501.9501      8024.0653     -5458.8347     -481.86838      86568.465      44.237092      44.237092      44.237092      0.9637174     -147.79201      594.90314     -1052.5537    
     27000   27000          475.79913      285.15336      14973.401      14609.449      11344.716      3264.7323      4226.7905      8037.8145     -9111.2607     -89.557639     -2324.1012      7994.0069     -5468.96       -476.64899      87516.405      44.397974      44.397974      44.397974      0.95327882     803.61067      390.87796     -339.02856    
     28000   28000          471.42006     -482.53691      13835.755      14450.446      11240.304      3210.1422      4249.6787      8049.446      -9110.7312     -94.656596     -2410.8145      8003.0516     -5475.8317     -477.57022      87347.586      44.369408      44.369408      44.369408      0.95512125     915.90954     -729.34751     -1634.1728    
     29000   29000          473.81183      10.51884       14703.216      14689.736      11297.332      3392.4036      4305.7307      8023.6016     -9001.5486     -93.423923     -2377.8277      8001.3984     -5465.5268     -474.731        87869.985      44.457686      44.457686      44.457686      0.94944292    -828.08877      1050.4914     -190.84613    
     30000   30000          469.79283     -1654.8017      12306.796      14444.59       11201.505      3243.0844      4240.8041      7998.9199     -9078.8192     -90.783681     -2366.9449      8012.4172     -5472.5089     -470.91691      88581.669      44.577388      44.577388      44.577388      0.9418149     -946.90394     -3206.8667     -810.63451    
     31000   31000          475.13364      896.12156      15781.235      14626.355      11328.849      3297.5066      4310.0663      7895.255      -9038.7426     -83.795884     -2357.4826      8037.0757     -5464.8694     -472.05697      88367.736      44.541473      44.541473      44.541473      0.94409498     788.93661      398.51852      1500.9096    
     32000   32000          480.83327      557.70704      15359.256      14641.514      11464.748      3176.766       4232.3668      7856.5177     -9041.5987     -91.813772     -2309.3238      8003.5875     -5472.9698     -472.71745      88244.268      44.520719      44.520719      44.520719      0.94541592     1259.6866      303.4366       109.99789    
     33000   33000          468.78891     -68.059157      14281.523      14368.813      11177.568      3191.2444      4290.0741      7842.4608     -8984.156      -86.621603     -2414.5991      8013.2645     -5469.1783     -474.34017      87942.385      44.469893      44.469893      44.469893      0.94866127    -712.22987      1296.3057     -788.25326    
     34000   34000          473.4716      -351.35739      14165.811      14616.71       11289.22       3327.4898      4260.174       8073.0694     -9079.1184     -92.161945     -2353.1663      7993.2458     -5474.5529     -474.06094      87994.184      44.478622      44.478622      44.478622      0.94810283    -1858.5157      776.34932      28.094181    
     35000   35000          469.59029      58.11599       14591.479      14516.375      11196.676      3319.6987      4242.0466      8101.6852     -9058.209      -92.542272     -2401.4234      8000.6993     -5472.5578     -470.75515      88612.106      44.582493      44.582493      44.582493      0.94149139    -319.94337      1616.5075     -1122.2162    
     36000   36000          476.68293     -152.4696       14457.976      14653.197      11365.789      3287.4074      4321.3444      7909.6319     -9016.5086     -89.343395     -2350.729       7986.691      -5473.6788     -475.13863      87794.6        44.444968      44.444968      44.444968      0.95025816    -40.659552     -57.421093     -359.32815    
     37000   37000          475.05791      655.96154      15753.404      14907.675      11327.043      3580.6323      4375.6559      8100.4388     -9057.7288     -94.381307     -2307.8351      8031.5292     -5467.0464     -471.85816      88404.968      44.547728      44.547728      44.547728      0.94369736     802.86916      1522.587      -357.57157    
     38000   38000          466.81961     -242.78134      14131.365      14446.392      11130.613      3315.7788      4278.2871      7960.5159     -9070.5779     -90.38778      -2322.073       8023.8792     -5463.8647     -468.84774      88972.607      44.64287       44.64287       44.64287       0.93767664    -668.14704      1123.5928     -1183.7898    
     39000   39000          472.98203      987.7402       15901.256      14624.918      11277.547      3347.3711      4342.1239      8003.3609     -9100.5285     -92.250458     -2364.4851      8028.5916     -5469.4412     -470.8049       88602.743      44.580923      44.580923      44.580923      0.94159088    -477.90705      1546.4979      1894.6298    
     40000   40000          468.81848      462.62533      15184.831      14586.921      11178.273      3408.6478      4175.3655      8174.1811     -9049.481      -95.110653     -2359.6588      8031.1868     -5467.8351     -470.71428      88619.801      44.583784      44.583784      44.583784      0.94140964     16.642015     -563.99792      1935.2319    
     41000   41000          470.20534     -864.69569      13420.396      14532.83       11211.341      3321.4894      4283.327       8142.3096     -9147.6193     -97.777874     -2414.9866      8023.0381     -5466.8016     -472.88242      88213.483      44.515541      44.515541      44.515541      0.94574585    -22.416347     -2121.3526     -450.3181     
     42000   42000          467.53002     -7.7976508      14581.609      14591.579      11147.552      3444.0273      4195.2385      8208.5373     -9081.6653     -92.623614     -2329.6563      8011.686      -5467.4892     -475.81572      87669.667      44.423876      44.423876      44.423876      0.95161232    -1105.2122      639.93955      441.87973    
     43000   43000          470.50465      519.3657       15190.246      14517.367      11218.478      3298.8893      4265.7599      7855.303      -8936.7431     -88.234709     -2322.5531      8004.7373     -5479.3799     -469.5701       88835.737      44.619966      44.619966      44.619966      0.93912133     484.15993     -690.38845      1764.3256    
     44000   44000          471.63322      1011.8317      15945.272      14663.035      11245.386      3417.6487      4316.756       8080.8811     -8987.7257     -93.100194     -2426.1321      8003.0019     -5476.0324     -480.06936      86892.872      44.292281      44.292281      44.292281      0.96011943     1288.3357      1040.6202      706.53931    
     45000   45000          468.21654     -209.93086      14183.132      14455.294      11163.921      3291.3734      4156.0304      8014.7207     -8976.3399     -89.459656     -2356.3923      8010.1587     -5467.3445     -469.25831      88894.762      44.629846      44.629846      44.629846      0.93849776     934.31928     -674.37089     -889.74096    
     46000   46000          467.4156       878.96983      15347.033      14219.31       11144.824      3074.4867      4163.3804      7871.2535     -9005.8474     -88.587487     -2392.3781      7996.7938     -5470.1281     -474.17183      87973.606      44.475154      44.475154      44.475154      0.94832461     1371.3523      1895.6605     -630.10324    
     47000   47000          467.96613      1023.6098      15866.751      14547.003      11157.95       3389.0527      4252.5369      8035.5278     -8976.317      -91.039936     -2340.6567      7988.658      -5479.6564     -471.85361      88405.821      44.547871      44.547871      44.547871      0.94368826     1482.801       1489.5365      98.491789    
     48000   48000          473.39197      273.20293      14985.66       14636.734      11287.321      3349.4123      4313.9986      8142.5505     -9143.7741     -94.54041      -2404.3284      8006.6121     -5471.1061     -476.33866      87573.421      44.407614      44.407614      44.407614      0.95265818    -736.67148      2112.3351     -556.05485    
     49000   49000          459.11729     -1216.8961      12612.746      14176.118      10946.963      3229.1556      4257.5622      7995.9517     -9090.7176     -87.374307     -2386.1903      8005.123      -5465.1993     -473.53842      88091.281      44.494976      44.494976      44.494976      0.94705781    -1560.7647      654.47848     -2744.4022    
     50000   50000          467.1297       790.31535      15397.795      14398.774      11138.007      3260.7669      4293.2683      8149.7996     -9159.1835     -89.862458     -2480.3635      8009.8736     -5462.7652     -481.2712       86675.882      44.255382      44.255382      44.255382      0.96252306    -421.73106      1251.669       1541.0081    
     51000   51000          466.6772       1215.8816      15778.147      14219.306      11127.218      3092.0889      4221.8614      7861.6898     -9088.0639     -90.859393     -2337.6446      7997.9417     -5472.8362     -474.5189       87909.26       44.464308      44.464308      44.464308      0.94901874     316.37699      1405.6477      1925.6201    
     52000   52000          466.79232     -906.72243      13078.44       14237.694      11129.963      3107.7316      4184.984       7990.5331     -9099.5125     -94.807138     -2404.3507      8004.6385     -5473.7536     -475.83854      87665.463      44.423166      44.423166      44.423166      0.95165796    -512.31877     -750.21587     -1457.6326    
     53000   53000          464.70085     -1569.0015      12489.784      14501.854      11080.095      3421.7591      4342.1627      8227.5235     -9097.2456     -90.796506     -2471.757       7983.0735     -5471.2016     -474.39973      87931.344      44.468031      44.468031      44.468031      0.9487804     -2484.9832     -384.23263     -1837.7886    
     54000   54000          475.5832       127.59196      14686.545      14523.082      11339.568      3183.5139      4161.7902      8000.2754     -9021.5237     -91.265345     -2372.4701      7986.6114     -5479.904      -474.86039      87846.041      44.453647      44.453647      44.453647      0.94970171     1033.3247     -112.73352     -537.81533    
     55000   55000          469.18774      86.927351      14369.249      14257.762      11187.078      3070.6841      4230.9865      7924.0427     -9090.8016     -88.455616     -2418.596       7983.2597     -5469.7516     -474.34775      87940.979      44.469656      44.469656      44.469656      0.94867644     501.35646      602.15458     -842.72898    
     56000   56000          472.23377      230.56424      14664.083      14367.443      11259.706      3107.7369      4126.5983      7868.1421     -9004.96       -89.879019     -2303.72        7985.1166     -5473.5611     -472.85214      88219.133      44.516491      44.516491      44.516491      0.94568528     1260.007      -431.96487     -136.3494     
     57000   57000          474.70872      70.832774      14763.259      14671.617      11318.717      3352.8997      4305.7158      8014.453      -9085.4017     -94.296952     -2293.0655      7977.7797     -5472.2847     -470.22183      88712.609      44.599342      44.599342      44.599342      0.94042477     141.38832      2.5499499      68.560047    
     58000   58000          471.79848     -247.11289      13988.266      14302.843      11249.327      3053.5161      4158.0534      7939.5959     -9040.1191     -89.394142     -2384.3292      7952.2158     -5482.5066     -477.89549      87288.134      44.359339      44.359339      44.359339      0.95577178    -978.88979     -935.16681      1172.7179    
     59000   59000          470.46257      687.89514      15225.519      14340.261      11217.474      3122.787       4219.3131      7933.3016     -9061.0297     -90.258517     -2380.6658      7981.4836     -5479.3573     -472.73343      88241.286      44.520217      44.520217      44.520217      0.94544787     506.22243      1326.3808      231.08219    
     60000   60000          469.36491     -883.42126      13213.817      14340.354      11191.302      3149.0524      4160.2823      8124.0573     -9137.6094     -86.644487     -2432.2305      8002.0175     -5480.8204     -477.07464      87438.321      44.384766      44.384766      44.384766      0.95413011    -1640.3626     -591.61176     -418.2894     
     61000   61000          470.62053      909.80011      15649.891      14481.975      11221.24       3260.7344      4239.0038      7877.6223     -8982.6371     -86.224268     -2299.6179      7983.0252     -5470.4376     -473.9128       88021.69       44.483256      44.483256      44.483256      0.94780657     913.63702     -949.7514       2765.5147    
     62000   62000          471.12683      1686.5842      16425.2        14265.498      11233.312      3032.186       4184.7694      7955.6873     -9102.8401     -95.612288     -2414.9058      7983.4539     -5478.3664     -475.09274      87803.079      44.446399      44.446399      44.446399      0.9501664      2392.5897      394.1282       2273.0346    
     63000   63000          466.98856      25.040495      14367.55       14335.59       11134.642      3200.948       4226.214       8107.615      -9166.4787     -92.480656     -2393.6106      7997.7434     -5478.0544     -476.6484       87516.513      44.397993      44.397993      44.397993      0.95327765    -1658.2575      64.045814      1669.3331    
     64000   64000          466.00569      343.10275      14749.362      14313.771      11111.206      3202.5649      4290.1557      7898.0603     -9043.03       -84.030266     -2394.6942      8006.2992     -5470.1958     -479.19193      87051.979      44.319299      44.319299      44.319299      0.9583646     -1214.217       1608.9164      634.60882    
     65000   65000          469.45735      950.89249      15495.715      14270.522      11193.506      3077.0163      4160.0188      7895.2257     -9111.5857     -85.778027     -2325.5037      8014.7809     -5470.1418     -472.16201      88348.077      44.53817       44.53817       44.53817       0.94430506     1347.5228      1021.4421      483.71259    
     66000   66000          475.89299     -154.8214       14343.174      14538.675      11346.954      3191.7207      4237.9547      8038.5452     -9076.2584     -89.931098     -2458.3573      8005.2628     -5465.4951     -481.77702      86584.88       44.239888      44.239888      44.239888      0.96353469     1558.501      -2757.4018      734.43663    
     67000   67000          466.60078     -1040.182       12971.097      14313.041      11125.396      3187.6449      4242.0242      7886.7323     -9016.6209     -89.122253     -2379.9107      8010.2317     -5465.6894     -471.56233      88460.429      44.557042      44.557042      44.557042      0.94310571    -298.11075     -2099.9779     -722.45731    
     68000   68000          469.72574     -1316.4195      12802.592      14495.376      11199.906      3295.4705      4215.9819      7911.8588     -8876.5515     -93.465184     -2405.2017      8013.7363     -5470.8882     -473.10415      88172.14       44.508586      44.508586      44.508586      0.9461893     -2525.3228     -224.06896     -1199.8668    
     69000   69000          461.21721     -1574.719       12275.443      14278.644      10997.032      3281.6117      4316.6128      8046.5933     -9165.9862     -92.514236     -2379.5916      8022.0966     -5465.599      -478.23636      87225.918      44.348798      44.348798      44.348798      0.95645351    -2252.6412     -818.20355     -1653.3123    
     70000   70000          465.55428     -374.51995      13711.944      14191.125      11100.443      3090.6812      4199.6829      7878.0165     -9012.4631     -88.073336     -2421.1379      8000.7611     -5466.1048     -475.48776      87730.135      44.434088      44.434088      44.434088      0.95095642     391.90794     -1154.0964     -361.37135    
     71000   71000          470.99328      2286.2057      17236.818      14294.077      11230.128      3063.9493      4225.6019      7793.5541     -9098.8898     -85.734879     -2320.8591      8017.4812     -5467.2041     -472.63658      88259.369      44.523258      44.523258      44.523258      0.94525416     1932.1354      1982.3286      2944.1532    
     72000   72000          463.84809      263.16102      14518.295      14182.403      11059.762      3122.6409      4120.9141      7989.9779     -9050.3015     -84.861649     -2375.5433      7998.0185     -5475.5632     -476.63399      87519.159      44.39844       44.39844       44.39844       0.95324883     623.12877     -1739.3803      1905.7346    
     73000   73000          466.19717     -440.9404       13568.346      14133.014      11115.772      3017.2424      4151.1549      7911.1316     -9101.2404     -88.440609     -2379.5913      7999.3861     -5475.1578     -475.06251      87808.667      44.447342      44.447342      44.447342      0.95010593    -397.46217     -671.80329     -253.55573    
     74000   74000          471.95113      119.77354      14549.186      14395.559      11252.966      3142.5922      4280.3413      7863.7932     -9019.4546     -87.718409     -2404.4787      7981.6988     -5471.5894     -474.30365      87949.156      44.471034      44.471034      44.471034      0.94858825     1595.5405      200.31173     -1436.5316    
     75000   75000          467.64142     -643.46461      13508.329      14338.47       11150.208      3188.2618      4216.0965      7973.3389     -9032.8285     -94.664189     -2388.1677      7986.6807     -5472.1938     -471.55992      88460.88       44.557117      44.557117      44.557117      0.9431009      900.9521      -1093.627      -1737.7189    
     76000   76000          467.08803     -121.06068      13975.355      14129.159      11137.013      2992.1456      4142.2485      7944.7585     -9089.7366     -86.615851     -2419.2521      7985.1526     -5484.4095     -478.85109      87113.941      44.329812      44.329812      44.329812      0.95768294    -513.21839      531.30513     -381.26879    
     77000   77000          472.57998      170.34415      14787.458      14568.94       11267.96       3300.9793      4287.9658      8034.3149     -9083.3308     -87.244692     -2388.9199      8011.8215     -5473.6273     -474.24669      87959.719      44.472814      44.472814      44.472814      0.94847433    -971.58634      1534.3585     -51.739675    
     78000   78000          466.70971      1116.8153      15682.366      14253.337      11127.993      3125.3445      4165.6447      8037.3834     -9115.643      -91.812915     -2397.6683      8006.3625     -5478.9219     -475.44947      87737.201      44.43528       44.43528       44.43528       0.95087984     1080.4515      301.44849      1968.546     
     79000   79000          468.47982     -55.361944      14341.744      14412.43       11170.199      3242.2318      4236.418       8179.4033     -9174.8562     -91.431676     -2397.9871      7967.2615     -5476.5761     -476.47404      87548.538      44.403408      44.403408      44.403408      0.95292894    -1127.9065      20.984864      940.83579    
     80000   80000          464.43782      1175.988       15569.987      14076.96       11073.823      3003.1371      4213.8774      7893.7144     -9055.8499     -84.745844     -2457.7551      7973.0701     -5479.1738     -479.18061      87054.036      44.319648      44.319648      44.319648      0.95834196     1780.2107      2210.7669     -463.01345    
     81000   81000          469.59579     -44.044389      14402.821      14459.421      11196.807      3262.6137      4317.8956      7922.9279     -9022.0078     -93.820521     -2395.3826      8007.5222     -5474.5211     -473.414        88114.433      44.498874      44.498874      44.498874      0.94680897    -531.64019      412.2747      -12.767673    
     82000   82000          465.18232      1346.5743      15832.897      14118.89       11091.574      3027.3152      4156.0406      7984.4162     -9117.1037     -91.325507     -2428.8939      7998.0507     -5473.8692     -477.94921      87278.324      44.357678      44.357678      44.357678      0.95587921     876.82141      2208.149       954.75247    
     83000   83000          457.16331     -4.4980511      13947.792      13953.522      10900.373      3053.1489      4183.284       7864.4016     -9081.7749     -90.02656      -2361.2763      8008.2161     -5469.675      -477.5577       87349.876      44.369796      44.369796      44.369796      0.95509621     1165.381      -1794.5849      615.70972    
     84000   84000          470.27369     -668.04482      13461.89       14311.619      11212.97       3098.6489      4235.129       7938.0625     -9058.774      -86.417009     -2458.8476      8002.3588     -5472.8628     -478.28766      87216.563      44.347212      44.347212      44.347212      0.9565561     -2234.2426      555.47393     -325.36578    
     85000   85000          469.12418      608.20925      14814.019      14045.366      11185.562      2859.8033      4180.6335      7840.4396     -9105.1118     -89.167391     -2486.7086      7990.9521     -5471.2342     -481.37823      86656.61       44.252101      44.252101      44.252101      0.96273713    -1522.4865      1311.3975      2035.7167    
     86000   86000          472.22994      570.40584      14978.678      14256.651      11259.614      2997.0364      4205.6624      7919.7296     -9096.8854     -90.510815     -2474.7747      8008.1128     -5474.2975     -480.61181      86794.799      44.275611      44.275611      44.275611      0.96120431     1452.6329     -909.52871      1168.1133    
     87000   87000          457.32813      1162.6247      15421.838      13935.288      10904.303      3030.9847      4261.8705      7844.9353     -9104.9303     -90.772452     -2412.7895      8002.87       -5470.199      -475.79964      87672.629      44.424377      44.424377      44.424377      0.95158017     1326.374       1494.0218      667.47818    
     88000   88000          470.74262     -314.55012      13803.608      14205.109      11224.152      2980.9578      4177.7607      7906.7211     -9089.5412     -86.778085     -2456.2379      8006.4756     -5477.4423     -476.61459      87522.72       44.399042      44.399042      44.399042      0.95321004    -1128.6107      603.12397     -418.1636     
     89000   89000          459.48261     -244.76628      13772.546      14085.998      10955.673      3130.3248      4285.0984      7966.3221     -9098.3794     -89.815234     -2441.231       7987.3486     -5479.0187     -475.05494      87810.067      44.447578      44.447578      44.447578      0.95009079    -612.28496     -294.97654      172.96267    
     90000   90000          461.48748      133.84583      14213.222      14044.254      11003.477      3040.7778      4208.5776      7925.8556     -9109.1152     -91.484509     -2423.0385      7991.4319     -5461.4492     -481.91028      86560.937      44.23581       44.23581       44.23581       0.9638012     -288.38626      314.65009      375.27367    
     91000   91000          471.83886     -669.46359      13288.052      14135.269      11250.29       2884.9792      4206.4688      7731.7692     -8992.7377     -87.647783     -2513.6896      8008.9776     -5468.1612     -480.72478      86774.402      44.272143      44.272143      44.272143      0.96143025     1986.9914     -758.98386     -3236.3983    
     92000   92000          470.61223      459.91166      14924.115      14342.329      11221.043      3121.2864      4324.7304      7795.1398     -9009.189      -88.676677     -2423.077       7999.3529     -5476.994      -480.9227       86738.691      44.266069      44.266069      44.266069      0.96182608     99.262532     -278.65858      1559.131     
     93000   93000          460.10302     -977.32984      12684.888      13915.127      10970.466      2944.6604      4195.4728      8063.4462     -9131.0777     -92.682433     -2591.5982      7977.9131     -5476.8133     -483.2988       86312.248      44.193406      44.193406      44.193406      0.96657818    -1136.4807     -383.97801     -1411.5308    
     94000   94000          474.21762      639.27531      15209.541      14401.254      11307.008      3094.246       4189.3455      8108.8087     -9262.0884     -88.542138     -2376.7376      7993.4095     -5469.9495     -481.15636      86696.569      44.258902      44.258902      44.258902      0.9622934      437.06075     -168.6184       1649.3836    
     95000   95000          463.3447      -258.0937       13697.238      14024.688      11047.759      2976.929       4236.8094      7928.1064     -9087.1574     -99.245982     -2533.7214      7996.973      -5464.835      -479.50821      86994.56       44.309553      44.309553      44.309553      0.95899715     608.45073     -1192.4586     -190.27317    
     96000   96000          465.89339      793.78972      15161.803      14158.926      11108.529      3050.3972      4154.2727      8056.7855     -9097.6153     -90.039652     -2509.5712      8008.7249     -5472.1598     -481.52853      86629.563      44.247497      44.247497      44.247497      0.9630377     -121.16426      1406.5152      1096.0182    
     97000   97000          468.80459     -34.377587      14197.331      14241.322      11177.942      3063.3795      4200.2763      8005.0166     -9100.8926     -89.358306     -2506.24        8014.3023     -5459.7246     -475.42328      87742.034      44.436096      44.436096      44.436096      0.95082746    -150.53871      166.53324     -119.12729    
     98000   98000          468.33719     -562.73227      13473.812      14188.918      11166.797      3022.12        4191.9711      7922.3954     -9023.2619     -92.716789     -2508.8817      8000.2932     -5467.6792     -478.73581      87134.918      44.33337       44.33337       44.33337       0.95745239     39.720434     -192.39618     -1535.5211    
     99000   99000          467.70912     -531.4411       13428.007      14105.423      11151.822      2953.6004      4163.623       7944.8101     -9113.388      -93.741597     -2441.6387      7974.3454     -5480.4098     -477.26996      87402.539      44.378711      44.378711      44.378711      0.95452073    -1401.8559     -318.3052       125.83782    
    100000   100000         459.13688      159.41331      14150.169      13948.83       10947.43       3001.4005      4271.7637      7858.9045     -9123.1203     -90.665555     -2438.7056      7993.8562     -5470.6324     -481.68435      86601.539      44.242725      44.242725      44.242725      0.96334934     871.77073     -784.15137      390.62057    
    101000   101000         461.89572     -761.77493      13031.34       13995.754      11013.21       2982.5439      4255.886       7908.4843     -9077.4466     -92.036756     -2514.3107      7982.178      -5480.2103     -480.53726      86808.265      44.277901      44.277901      44.277901      0.96105521    -782.13217     -1225.0236     -278.16907    
    102000   102000         464.91607      1017.5792      15466.272      14168.719      11085.226      3083.4933      4109.091       8002.6021     -9116.5917     -87.909665     -2343.3654      7999.3124     -5479.6454     -477.09769      87434.096      44.384051      44.384051      44.384051      0.95417622     732.1647       176.30478      2144.2682    
    103000   103000         464.28984      357.38894      14511.651      14056.86       11070.295      2986.5655      4248.4599      7841.0572     -9038.072      -85.262805     -2534.8691      8022.044      -5466.7917     -478.0724       87255.833      44.353867      44.353867      44.353867      0.9561256      244.22059      536.44067      291.50555    
    104000   104000         467.94328     -180.247        13986.697      14216.216      11157.405      3058.8105      4257.2608      7857.6298     -9068.3651     -96.538958     -2436.201       8011.4155     -5466.3906     -477.76424      87312.114      44.363401      44.363401      44.363401      0.95550928     614.66393     -616.54753     -538.8574     
    105000   105000         449.84026     -271.58298      13513.925      13859.847      10725.766      3134.0814      4315.8119      7916.1666     -9061.2817     -94.428835     -2479.7609      8006.183      -5468.6085     -477.62532      87337.509      44.367702      44.367702      44.367702      0.95523145     352.55447     -1791.1091      623.80572    
    106000   106000         463.70032      219.03054      14306.439      14027.16       11056.238      2970.9219      4295.3798      7748.2593     -9065.5546     -88.682763     -2433.949       7994.0936     -5478.6244     -477.12396      87429.283      44.383237      44.383237      44.383237      0.95422876     1000.135      -1158.7695      815.72614    
    107000   107000         471.68061     -185.96048      13992.159      14226.681      11246.517      2980.1646      4121.7994      8016.6477     -9063.7202     -94.440704     -2484.6244      7963.1488     -5478.6461     -482.39249      86474.41       44.221065      44.221065      44.221065      0.96476559    -1300.1427      1601.179      -858.91773    
    108000   108000         463.57092      951.3603       15311.738      14087.553      11053.153      3034.3998      4110.1729      7916.4674     -9100.4654     -92.065973     -2312.4496      7991.1635     -5478.4229     -472.78313      88232.011      44.518657      44.518657      44.518657      0.94554725     266.30049     -120.24561      2708.026     
    109000   109000         455.40424     -162.73727      13613.729      13818.57       10858.431      2960.1391      4215.6318      8011.4998     -9147.9711     -92.694071     -2531.7355      7986.7797     -5481.3717     -483.3202       86308.425      44.192754      44.192754      44.192754      0.96662099    -315.92167     -1478.6467      1306.3565    
    110000   110000         468.02646     -1039.5013      12835.974      14156.145      11159.389      2996.7562      4276.9195      7859.7366     -9108.0627     -86.979233     -2497.7628      8020.8611     -5467.9563     -479.02565      87082.196      44.324426      44.324426      44.324426      0.95803206    -1780.3169     -60.150967     -1278.0361    
    111000   111000         463.07892      555.13347      14591.089      13886.41       11041.422      2844.9881      4121.2074      7785.3407     -9066.4388     -86.13603      -2455.4337      8011.0669     -5464.6184     -479.25919      87039.762      44.317226      44.317226      44.317226      0.95849912     1076.6755     -105.36876      694.09366    
    112000   112000         453.51674      305.95724      14150.102      13759.415      10813.426      2945.9888      4204.4261      7754.1723     -9030.3431     -96.557698     -2419.7519      8003.6078     -5469.5648     -476.42646      87557.282      44.404886      44.404886      44.404886      0.95283377     600.11761      154.69917      163.05494    
    113000   113000         468.23642     -312.58852      13719.821      14111.238      11164.395      2946.8435      4239.05        7809.6134     -8988.3674     -97.303144     -2523.3065      7981.025      -5473.8679     -485.84441      85860.009      44.116086      44.116086      44.116086      0.97166931    -1248.147      -90.303186      400.68461    
    114000   114000         456.31351      860.21378      14918.815      13828.93       10880.111      2948.8193      4245.3613      7825.3523     -9100.3877     -88.976279     -2466.1175      8001.9642     -5468.3771     -480.16413      86875.723      44.289367      44.289367      44.289367      0.96030896     868.64459      938.97334      773.02343    
    115000   115000         471.21774      1187.708       15795.531      14305.957      11235.48       3070.4767      4200.5574      8117.9018     -9181.5885     -96.385718     -2497.5259      8003.4965     -5475.9789     -485.07781      85995.699      44.139314      44.139314      44.139314      0.97013614     677.35124      413.28543      2472.4873    
    116000   116000         458.38294      264.86906      14098.204      13763.989      10929.453      2834.5356      4212.9846      7787.5594     -9048.4729     -90.65909      -2544.3903      7995.1172     -5477.6032     -482.13566      86520.475      44.228916      44.228916      44.228916      0.96425194    -619.03343      280.83835      1132.8023    
    117000   117000         466.34601      1304.1975      15695.179      14050.433      11119.321      2931.1126      4216.8473      7814.8178     -9083.0626     -87.82529      -2466.9854      8010.1401     -5472.8193     -482.40163      86472.771      44.220786      44.220786      44.220786      0.96478388     4285.0868     -358.59781     -13.896605    
    118000   118000         457.37438     -34.813616      13654.657      13698.811      10905.406      2793.4058      4233.2994      7658.836      -9092.0598     -89.026749     -2429.4656      7991.668      -5479.8454     -479.66786      86965.605      44.304636      44.304636      44.304636      0.95931645    -1975.743       834.23915      1037.063     
    119000   119000         467.76934      534.75341      14620.114      13940.416      11153.258      2787.1585      4207.0601      7664.252      -9039.3359     -88.178894     -2479.2333      7999.0207     -5476.4261     -478.63216      87153.788      44.33657       44.33657       44.33657       0.95724509     564.67956      1868.8489     -829.26826    
    120000   120000         466.45605     -217.58279      13806.82       14085.276      11121.945      2963.3317      4216.6371      7853.0286     -9150.2345     -89.301901     -2371.3795      7987.0389     -5482.4571     -475.36968      87751.928      44.437766      44.437766      44.437766      0.95072026    -715.28544     -1049.9708      1112.5079    
    121000   121000         460.37787      570.55457      14470.44       13751.76       10977.02       2774.7409      4129.5138      7815.2624     -9086.9477     -89.368805     -2478.8162      7976.1938     -5491.0963     -482.97665      86369.82       44.20323       44.20323       44.20323       0.96593389    -274.36919      327.68412      1658.3488    
    122000   122000         461.11608     -986.53147      12689.063      13938.463      10994.621      2943.8417      4164.3714      7980.8841     -9143.3061     -95.666715     -2456.7006      7976.2609     -5482.0011     -480.36743      86838.956      44.283119      44.283119      44.283119      0.96071555    -2308.4914      353.71389     -1004.8169    
    123000   123000         464.18754      514.08576      14770.416      14117.047      11067.855      3049.1912      4210.0256      7941.8351     -9027.6359     -91.677031     -2483.3365      7983.6785     -5483.6986     -478.6752       87145.952      44.335241      44.335241      44.335241      0.95733116    -910.42645      1206.1737      1246.51      
    124000   124000         460.71657     -517.51163      13279.781      13942.978      10985.095      2957.8823      4194.2842      7963.6931     -9180.9198     -87.453529     -2427.8824      7975.9557     -5479.7949     -474.72436      87871.214      44.457893      44.457893      44.457893      0.94942964    -1888.8526      427.78649     -91.468814    
    125000   125000         466.16769     -73.273578      13908.79       14001.572      11115.069      2886.5025      4194.9458      7843.4062     -9113.8117     -94.25168      -2441.2695      7977.9161     -5480.4327     -480.44811      86824.373      44.28064       44.28064       44.28064       0.96087691     589.53888     -789.162       -20.197612    
    126000   126000         461.34384      646.43844      14802.062      13986.525      11000.052      2986.4736      4149.7444      7949.8498     -9068.197      -83.104229     -2482.792       7991.4188     -5470.4463     -482.22248      86504.897      44.226262      44.226262      44.226262      0.96442558    -302.78953      567.34123      1674.7636    
    127000   127000         465.37877      1293.8426      15628.476      13986.033      11096.258      2889.7742      4151.0705      7783.3432     -9060.8213     -88.661252     -2450.9593      8019.1561     -5463.3538     -479.24207      87042.87       44.317753      44.317753      44.317753      0.95846489     1625.7173      1698.5539      557.2565     
    128000   128000         460.60471      1519.8089      15769.666      13849.581      10982.428      2867.1526      4184.685       7928.6429     -9151.3455     -95.360264     -2551.2563      8013.5957     -5461.8089     -481.54023      86627.457      44.247138      44.247138      44.247138      0.96306111     781.57362      2485.6374      1292.2157    
    129000   129000         462.77095      497.16772      14446.89       13814.194      11034.079      2780.1146      4075.7072      7858.4628     -9157.6382     -87.164638     -2437.057       7998.5769     -5470.7725     -478.0482       87260.25       44.354615      44.354615      44.354615      0.9560772      1209.8836     -84.400696      366.02026    
    130000   130000         454.9432      -1363.073       11893.727      13634.478      10847.438      2787.0397      4198.7594      7757.3208     -9098.9862     -85.902488     -2502.5535      7991.6806     -5473.2789     -476.37227      87567.241      44.406569      44.406569      44.406569      0.95272541    -2081.7538     -1829.0033     -178.46183    
    131000   131000         461.2015      -1481.2341      12019.499      13889.508      10996.658      2892.8506      4255.7744      7842.2634     -9107.6349     -93.369934     -2529.746       7991.234      -5465.6703     -481.88563      86565.365      44.236564      44.236564      44.236564      0.9637519     -1476.8063     -1131.3493     -1835.5467    
    132000   132000         463.74048      477.80398      14534.122      13926.795      11057.196      2869.5988      4147.3587      7785.8094     -9074.9165     -85.594449     -2411.1265      7988.2967     -5480.2285     -478.61991      87156.019      44.336948      44.336948      44.336948      0.95722059     947.79972     -183.57464      669.18686    
    133000   133000         454.92965     -426.70342      13004.7        13541.367      10847.115      2694.252       4093.4605      7956.7268     -9179.7916     -91.411423     -2562.2836      7951.3196     -5473.7682     -483.71043      86238.797      44.180866      44.180866      44.180866      0.96740143    -623.21446      731.70134     -1388.5971    
    134000   134000         459.33416      1628.976       16011.856      13942.317      10952.134      2990.1832      4180.4903      7934.5848     -9064.0772     -92.442381     -2484.63        7986.9959     -5470.7382     -478.85618      87113.016      44.329655      44.329655      44.329655      0.95769312     2088.6642      1403.7056      1394.5582    
    135000   135000         455.72792      81.966611      13730.108      13626.354      10866.148      2760.2053      4245.9592      7726.5713     -9104.8939     -95.029626     -2509.0585      7974.4635     -5477.8066     -480.61422      86794.365      44.275538      44.275538      44.275538      0.96120912     183.81795      346.98022     -284.89833    
    136000   136000         456.81286     -927.33593      12513.482      13694.377      10892.017      2802.3598      4128.1706      7901.626      -9116.6164     -84.801545     -2536.3389      7986.3417     -5476.0217     -477.73795      87316.918      44.364215      44.364215      44.364215      0.95545671    -947.69021      417.4483      -2251.7659    
    137000   137000         461.67728      85.282787      14084.076      13975.763      11008.002      2967.7605      4269.1721      7997.1809     -9196.2071     -92.974234     -2496.7702      7968.271      -5480.9121     -479.00886      87085.249      44.324944      44.324944      44.324944      0.95799847     1827.8119     -213.99732     -1357.9662    
    138000   138000         464.34195      237.4943       14019.497      13720.133      11071.537      2648.5955      4067.9284      7806.5213     -9119.6822     -89.489813     -2517.4708      7980.1742     -5479.3855     -482.63297      86431.322      44.21372       44.21372       44.21372       0.96524655     483.47613      990.04321     -761.03646    
    139000   139000         456.58114     -330.13704      13300.879      13717.716      10886.492      2831.2237      4152.5722      7874.3507     -9099.9447     -89.602006     -2523.5562      7987.6253     -5470.2216     -481.82842      86575.644      44.238315      44.238315      44.238315      0.96363748     851.31364     -27.06741      -1814.6574    
    140000   140000         453.69479      751.69695      14473.693      13521.331      10817.672      2703.6594      4086.2401      7836.5526     -9203.163      -85.953154     -2447.0762      7991.7987     -5474.7397     -480.18102      86872.667      44.288848      44.288848      44.288848      0.96034275     1113.7521      855.4558       285.88295    
    141000   141000         451.55871     -918.68464      12592.378      13760.903      10766.74       2994.1628      4331.1793      7863.2253     -9137.413      -91.920534     -2511.3331      8009.6685     -5469.2437     -478.29156      87215.851      44.347091      44.347091      44.347091      0.9565639      182.9499       208.59477     -3147.5986    
    142000   142000         463.83149      1033.2201      15073.604      13780.763      11059.366      2721.3969      4103.8723      7796.8977     -9120.007      -92.141256     -2497.9094      8005.9828     -5475.2982     -486.1963       85797.868      44.105441      44.105441      44.105441      0.97237306     219.23633      2751.155       129.26893    
    143000   143000         465.13137     -315.68448      13435.988      13832.913      11090.36       2742.5537      4131.6394      7866.0843     -9115.3501     -93.179122     -2550.2483      7978.8251     -5475.2176     -483.84743      86214.379      44.176696      44.176696      44.176696      0.96767543     446.20372     -1034.6734     -358.58375    
    144000   144000         457.56347      868.58796      15053.304      13949.072      10909.914      3039.1575      4116.7741      8008.9465     -9071.1727     -91.92729      -2444.3647      7990.9277     -5470.0261     -478.53891      87170.772      44.339449      44.339449      44.339449      0.95705859     1250.2896      971.78474      383.68953    
    145000   145000         452.58187     -472.29652      12938.054      13535.006      10791.136      2743.8704      4138.9587      7721.6325     -9075.789      -87.352744     -2482.0265      8002.93       -5474.4826     -481.32604      86666.008      44.253701      44.253701      44.253701      0.96263273    -71.078076     -2082.2544      736.44289    
    146000   146000         462.16866     -234.2876       13603.719      13898.503      11019.718      2878.7851      4077.4004      7979.6967     -9079.0251     -89.430809     -2542.317       8008.4825     -5476.0216     -483.51443      86273.756      44.186836      44.186836      44.186836      0.96700942    -330.0392       156.83402     -529.65764    
    147000   147000         459.40903      1592.4416      15923.871      13903.891      10953.919      2949.9724      4188.2997      7840.3929     -9106.3319     -88.041789     -2415.7276      8007.1058     -5475.7247     -479.60158      86977.624      44.306677      44.306677      44.306677      0.95918389     2839.9016      2128.1201     -190.69689    
    148000   148000         453.56297      25.578905      13650.338      13618.28       10814.528      2803.7515      4032.5888      7854.8133     -9040.9693     -88.708147     -2482.5645      7999.7261     -5471.1347     -485.41009      85936.833      44.12924       44.12924       44.12924       0.97080067     393.55584      292.20968     -609.0288     
    149000   149000         460.12862     -1341.8405      12180.922      13889.453      10971.077      2918.3766      4204.5816      7825.5653     -9066.7732     -89.397925     -2487.4927      8008.7258     -5476.8323     -477.7954       87306.419      44.362437      44.362437      44.362437      0.95557161    -1200.4528     -1345.3332     -1479.7356    
    150000   150000         463.41902     -926.85466      12591.998      13759.873      11049.531      2710.3416      4180.3107      7861.3541     -9187.7807     -91.163084     -2607.4585      8020.9409     -5465.8618     -482.81354      86398.998      44.208207      44.208207      44.208207      0.96560768    -454.26934     -998.26181     -1328.0328    
    151000   151000         462.89522     -67.214768      13658.691      13743.382      11037.042      2706.3401      4071.9283      7848.9179     -9117.7468     -91.660009     -2527.1351      7996.2567     -5474.2208     -482.82686      86396.614      44.2078        44.2078        44.2078        0.96563432    -339.71865     -237.33875      375.4131     
    152000   152000         461.32045      1386.9848      15499.127      13742.838      10999.494      2743.3445      4078.9576      7830.627      -9165.4774     -90.108319     -2437.556       8008.3962     -5481.4947     -480.44082      86825.689      44.280863      44.280863      44.280863      0.96086234     1533.7356      2151.3171      475.90164    
    153000   153000         462.8553       1575.9915      15939.025      13942.937      11036.09       2906.8463      4132.744       8013.8881     -9142.0737     -96.145447     -2539.1451      8009.5513     -5471.9729     -480.32821      86846.046      44.284324      44.284324      44.284324      0.96063712     1796.5017      1627.3585      1304.1142    
    154000   154000         452.36959     -8.2077258      13544.34       13554.582      10786.074      2768.5081      4320.3393      7858.247      -9222.95       -87.934554     -2617.2053      7988.5803     -5470.5686     -487.52645      85563.779      44.065292      44.065292      44.065292      0.97503332    -663.37072      285.60096      353.14658    
    155000   155000         462.30417      186.58191      13995.564      13759.823      11022.949      2736.8736      4087.8621      7933.1867     -9169.3003     -90.005585     -2536.2029      7984.823      -5473.4896     -481.50186      86634.36       44.248314      44.248314      44.248314      0.96298438     521.49395     -442.92272      481.1745     
    156000   156000         461.4236      -1075.9487      12447.63       13802.971      11001.953      2801.0179      4221.6228      7749.5739     -9101.0766     -93.708741     -2521.6993      8006.7674     -5460.4616     -482.95534      86373.63       44.20388       44.20388       44.20388       0.96589127    -1131.924      -1333.146      -762.77596    
    157000   157000         457.79538      178.52573      13691.885      13467.122      10915.444      2551.678       4051.6506      7624.2386     -9066.2722     -90.3089       -2471.0937      7980.5289     -5477.0652     -483.21458      86327.291      44.195973      44.195973      44.195973      0.96640975     1206.5525      111.39942     -782.37471    
    158000   158000         455.72258      163.95915      13783.47       13575.528      10866.021      2709.5066      4086.3514      7811.1707     -9108.9966     -89.192167     -2475.7613      7968.105      -5482.1705     -479.68596      86962.323      44.304079      44.304079      44.304079      0.95935265    -252.41384     -216.04877      960.34007    
    159000   159000         464.83848     -1488.5471      12018.169      13897.039      11083.376      2813.663       4234.956       7841.7317     -9148.9342     -88.542092     -2535.8495      7986.1869     -5475.8858     -481.98094      86548.248      44.233648      44.233648      44.233648      0.96394251    -2255.752       366.11696     -2576.0064    
    160000   160000         466.66122     -15.766936      13728.246      13748.05       11126.837      2621.2135      4079.7464      7808.2075     -9133.7058     -93.102133     -2549.2703      7988.9425     -5479.6046     -484.34372      86126.039      44.161603      44.161603      44.161603      0.96866797    -714.39117      153.21562      513.87475    
    161000   161000         456.38549      125.98431      13779.99       13622.417      10881.827      2740.5894      4124.9533      7873.9757     -9090.6336     -91.481325     -2567.3385      7966.1214     -5475.0075     -486.40374      85761.277      44.09917       44.09917       44.09917       0.97278794    -1271.5813     -340.45249      1989.9867    
    162000   162000         455.55956     -277.17156      13152.201      13502.758      10862.134      2640.6236      4080.067       7733.6312     -9146.594      -86.55253      -2447.0258      7984.983      -5477.8853     -481.00999      86722.951      44.263391      44.263391      44.263391      0.96200065    -64.822693     -1363.7862      597.09418    
    163000   163000         454.68508      258.91662      13962.008      13633.18       10841.284      2791.8964      4104.8483      7746.2434     -9084.7578     -83.890512     -2430.1296      8010.98       -5471.3974     -479.02144      87082.962      44.324556      44.324556      44.324556      0.95802363     1059.4885      930.22688     -1212.9656    
    164000   164000         457.62138      201.30025      14117.263      13862.196      10911.295      2950.9006      4242.2469      7875.8978     -9122.8471     -93.019044     -2479.091       7996.4914     -5468.7783     -480.12399      86882.985      44.290601      44.290601      44.290601      0.9602287      770.89761     -971.51804      804.52119    
    165000   165000         462.99503     -59.417484      13593.369      13668.443      11039.422      2629.0212      4135.7108      7836.4371     -9218.4303     -91.812753     -2540.6669      7982.7962     -5475.0128     -481.49232      86636.078      44.248606      44.248606      44.248606      0.96296528     773.93318      411.17361     -1363.3592    
    166000   166000         459.57959     -44.725384      13806.535      13863.17       10957.986      2905.1842      4220.1747      7874.5059     -9135.9363     -90.528321     -2483.9935      8003.1848     -5482.223      -480.43157      86827.361      44.281148      44.281148      44.281148      0.96084384    -120.71317      258.91376     -272.37674    
    167000   167000         455.42211      579.64379      14509.427      13776.153      10858.857      2917.2965      4097.8657      7966.1857     -9100.6869     -93.757892     -2473.5319      7994.5017     -5473.28       -480.90501      86741.882      44.266612      44.266612      44.266612      0.9617907     -548.22371      1433.7775      853.37754    
    168000   168000         458.4219      -891.78106      12379.247      13508.285      10930.382      2577.9023      4097.2451      7737.9343     -9137.9241     -88.400363     -2558.2432      7995.8003     -5468.5098     -480.52256      86810.92       44.278352      44.278352      44.278352      0.96102582    -2772.0064      111.32052     -14.65728     
    169000   169000         466.72084      1204.4373      15279          13758.57       11128.258      2630.3122      4069.5654      7689.4664     -9106.256      -89.46737      -2438.6182      7982.6093     -5476.9872     -481.92788      86557.777      44.235272      44.235272      44.235272      0.96383639     411.63678      915.69388      2285.9813    
    170000   170000         465.96716      683.34716      14802.144      13941.517      11110.288      2831.2288      4168.808       7883.0938     -9137.6132     -91.387212     -2506.8619      7992.7609     -5477.5716     -483.04787      86357.085      44.201057      44.201057      44.201057      0.96607633    -112.46567      1236.0458      926.46131    
    171000   171000         455.3378      -1993.8764      11223.97       13765.392      10856.847      2908.5453      4146.2967      7903.601      -9141.9804     -94.431008     -2444.1675      8009.4585     -5470.232      -477.29339      87398.248      44.377985      44.377985      44.377985      0.95456759    -1487.1045     -3053.1446     -1441.3802    
    172000   172000         459.25375      2416.5298      16856.734      13800.008      10950.217      2849.7914      4093.7408      7884.5061     -9142.3608     -87.365087     -2461.5192      8024.5847     -5461.7951     -480.94972      86733.819      44.26524       44.26524       44.26524       0.96188011     2935.2477      1045.7037      3268.6381    
    173000   173000         452.71526     -1104.6909      12347.998      13752.552      10794.316      2958.2362      4209.4823      7924.5555     -9131.8799     -90.513289     -2493.266       8000.7224     -5460.8647     -478.4828       87180.994      44.341183      44.341183      44.341183      0.95694636    -535.59799     -1498.2833     -1280.1913    
    174000   174000         447.16014      872.67578      14423.455      13332.772      10661.863      2670.9095      4095.6972      7839.9085     -9186.7354     -86.755221     -2545.157       8014.4545     -5460.503      -486.76386      85697.828      44.088292      44.088292      44.088292      0.97350817     824.56779      585.31522      1208.1443    
    175000   175000         460.32394     -2115.9         11084.108      13770.583      10975.734      2794.8499      4222.6709      7853.1071     -9247.9459     -86.023651     -2484.2349      8004.1727     -5466.8964     -479.15536      87058.623      44.320427      44.320427      44.320427      0.95829146    -2194.3467     -2176.716      -1976.6374    
    176000   176000         457.09902      1160.874       15059.373      13598.526      10898.84       2699.6853      4177.1795      7791.6137     -9116.3567     -85.837141     -2589.2985      7995.3054     -5472.9208     -483.44196      86286.688      44.189043      44.189043      44.189043      0.96686449     318.74906      771.02584      2392.8472    
    177000   177000         454.18349     -1123.3465      12432.096      13846.562      10829.324      3017.2387      4267.5556      8051.7436     -9101.1921     -94.540532     -2633.1531      8000.2042     -5473.3788     -483.15354      86338.197      44.197834      44.197834      44.197834      0.96628768    -1559.4079      697.08648     -2507.7181    
    178000   178000         455.27404      605.82073      14444.049      13676.207      10855.326      2820.8807      4207.0132      7972.8695     -9235.4968     -92.497799     -2540.7708      7986.7495     -5476.9862     -479.99461      86906.405      44.294581      44.294581      44.294581      0.95996993     264.85026     -732.49689      2285.1088    
    179000   179000         456.14504      117.69133      13679.898      13532.935      10876.094      2656.8414      4027.6032      7852.9178     -9132.4085     -86.457176     -2545.1061      8015.1784     -5474.8862     -487.19549      85621.905      44.075268      44.075268      44.075268      0.9743714     -1140.3097      423.73364      1069.65      
    180000   180000         456.42908     -1083.7714      12065.225      13427.663      10882.867      2544.7969      4118.0736      7629.2962     -9116.4933     -86.611057     -2527.8378      8002.4658     -5474.0967     -483.93237      86199.247      44.174112      44.174112      44.174112      0.9678453     -1276.3274     -1938.2527     -36.734088    
    181000   181000         462.75376     -1284.9161      12456.477      14066.464      11033.669      3032.7951      4347.3993      7860.8372     -9078.3103     -92.743666     -2558.2894      8020.1961     -5466.2941     -485.53036      85915.545      44.125596      44.125596      44.125596      0.97104122    -1747.405      -2208.8934      101.54997    
    182000   182000         451.27779      2028.069       16059.431      13530.429      10760.042      2770.3871      4118.2676      7928.1315     -9203.3323     -95.492719     -2509.7244      8006.4095     -5473.8721     -487.86267      85504.811      44.055167      44.055167      44.055167      0.97570575     1306.9804      2399.8503      2377.3764    
    183000   183000         460.95374     -164.12678      13709.657      13916.906      10990.75       2926.1552      4287.9455      7866.3237     -9121.641      -89.23079      -2549.7765      8004.6261     -5472.0917     -481.7824       86583.914      44.239724      44.239724      44.239724      0.96354544     200.52771      233.06318     -925.97123    
    184000   184000         456.71523     -889.38915      12371.446      13485.868      10889.689      2596.1787      4142.5373      7739.603      -9140.1918     -84.962248     -2608.4851      8016.4823     -5468.8048     -485.51891      85917.572      44.125943      44.125943      44.125943      0.97101831    -1994.0835     -1397.6739      723.58989    
    185000   185000         451.05268      798.36298      14495.255      13495.308      10754.674      2740.6342      4124.549       7888.8545     -9121.8043     -89.187459     -2593.457       8007.7876     -5476.1082     -485.72182      85881.679      44.119797      44.119797      44.119797      0.97142413     519.88996      92.033894      1783.1651    
    186000   186000         463.59716      1068.3885      15034.753      13689.1        11053.779      2635.3216      4068.0264      7813.2056     -9162.7611     -86.733824     -2546.298       8022.2469     -5472.3643     -483.01458      86363.037      44.202073      44.202073      44.202073      0.96600975     458.23526      2103.9245      643.00586    
    187000   187000         453.41791     -141.40887      13255.496      13432.596      10811.07       2621.5268      4086.9654      7707.5784     -9155.2407     -86.036112     -2495.4711      8032.8888     -5469.158      -485.76005      85874.92       44.11864       44.11864       44.11864       0.97150059    -168.32787     -359.37637      103.47763    
    188000   188000         455.38024      692.07478      14282.173      13410.273      10857.859      2552.4148      4036.8496      7611.8661     -9099.8311     -79.630935     -2472.2141      8027.4297     -5472.0545     -482.89269      86384.836      44.205792      44.205792      44.205792      0.96576597    -18.768703      1220.2243      874.76874    
    189000   189000         451.15901      328.38503      14002.954      13588.086      10757.21       2830.8764      4185.8195      7848.3022     -9168.4563     -89.051678     -2480.504       8002.9938     -5468.2271     -481.54626      86626.373      44.246954      44.246954      44.246954      0.96307317     2137.2989     -1168.6877      16.543859    
    190000   190000         453.72922     -1547.0353      11417.621      13376.819      10818.492      2558.3266      4098.146       7710.0366     -9114.0228     -91.354416     -2558.2726      7987.7574     -5473.9636     -480.38119      86836.467      44.282696      44.282696      44.282696      0.96074308     584.22874     -2705.6563     -2519.6784    
    191000   191000         448.82985      515.41844      13982.694      13333.885      10701.674      2632.2109      4054.4141      7762.3748     -9116.2378     -91.622607     -2490.1198      7994.521      -5481.1187     -483.28934      86313.937      44.193694      44.193694      44.193694      0.96655927     900.5509       735.66559     -89.96115     
    192000   192000         454.55636      1343.0212      15340.526      13662.54       10838.214      2824.3258      4239.5671      7854.3136     -9133.3045     -89.240672     -2566.8951      7997.5329     -5477.6475     -486.92115      85670.146      44.083544      44.083544      44.083544      0.97382273     2099.9883      1854.1061      74.969126    
    193000   193000         454.51157     -1422.0116      11655.212      13432.703      10837.146      2595.5566      4156.5432      7757.3755     -9108.0651     -89.906827     -2616.7059      7980.2261     -5483.9103     -486.69817      85709.395      44.090275      44.090275      44.090275      0.97337679    -2472.1464     -1040.4702     -753.41813    
    194000   194000         452.82397     -588.10845      12596.674      13338.226      10796.908      2541.3177      4142.6351      7755.8998     -9167.9417     -84.448821     -2611.1839      7985.7096     -5479.3524     -482.48092      86458.561      44.218364      44.218364      44.218364      0.96494244    -1562.5327      1200.4015     -1402.1942    
    195000   195000         452.26743     -957.68337      12223.208      13425.565      10783.638      2641.927       4258.951       7636.2987     -9093.3114     -88.006776     -2571.1365      7975.3826     -5476.2507     -484.56534      86086.647      44.154869      44.154869      44.154869      0.96911122     420.16438     -2789.9675     -503.24702    
    196000   196000         459.82764     -207.49854      13374.396      13636.736      10963.9        2672.8357      4011.3323      7920.0946     -9156.1601     -89.267938     -2537.6945      8003.7529     -5479.2215     -481.18806      86690.858      44.25793       44.25793       44.25793       0.96235679    -1106.8393      172.44628      311.89738    
    197000   197000         457.5189      -1214.1209      12051.908      13583.828      10908.852      2674.9767      4173.8435      7740.841      -9109.7681     -88.491309     -2566.7913      7997.1017     -5471.7587     -482.1585       86516.375      44.228218      44.228218      44.228218      0.96429764    -528.45021     -1409.4451     -1704.4675    
    198000   198000         444.7674      -137.19354      13120.738      13293.091      10604.811      2688.2796      4076.2152      7690.1473     -8988.9453     -89.342258     -2524.014       8002.6859     -5478.4671     -484.2619       86140.59       44.16409       44.16409       44.16409       0.96850434     275.79423      687.54857     -1374.9234    
    199000   199000         453.12828     -906.64949      12389.417      13536.661      10804.164      2732.4965      4136.5831      7743.2069     -9085.9562     -89.465566     -2482.167       7987.5984     -5477.3031     -480.78154      86764.159      44.270401      44.270401      44.270401      0.96154376    -1023.5594     -1004.9497     -691.43937    
    200000   200000         448.23246      1039.3309      14820.728      13501.678      10687.431      2814.2479      4093.5815      7915.0121     -9154.533      -89.202921     -2446.7759      7976.1569     -5479.9907     -479.35455      87022.446      44.314287      44.314287      44.314287      0.95868984     704.63624      1305.7779      1107.5784    
    201000   201000         459.28347     -1095.5498      12197.998      13589.64       10950.925      2638.7149      4022.7884      7837.1364     -9119.1421     -90.947448     -2537.3401      8002.0516     -5475.832      -478.92622      87100.276      44.327494      44.327494      44.327494      0.9578332     -2244.8594     -2045.0084      1003.2184    
    202000   202000         459.01854      1251.6821      15231.86       13656.837      10944.608      2712.2285      4095.829       7666.7344     -8980.8977     -88.26625      -2488.0426      7981.7871     -5474.9154     -483.47175      86281.371      44.188136      44.188136      44.188136      0.96692408     1065.1432      816.24268      1873.6604    
    203000   203000         451.63188      898.9724       14765.772      13624.903      10768.485      2856.4186      4094.3662      7861.7432     -9097.6359     -90.022906     -2427.5266      7992.3397     -5476.8451     -479.3741       87018.898      44.313684      44.313684      44.313684      0.95872894     61.212193      2314.0742      321.63085    
    204000   204000         450.74507     -1190.2704      11813.577      13311.422      10747.34       2564.0822      4104.8599      7744.7725     -9187.2987     -92.293123     -2535.3401      7998.0998     -5468.7181     -483.44025      86286.994      44.189096      44.189096      44.189096      0.96686107    -1360.9574     -1399.9838     -809.87002    
    205000   205000         454.04484     -2107.5066      10765.305      13418.734      10826.018      2592.7158      4151.4684      7551.8977     -9033.3903     -85.413687     -2542.7019      8015.593      -5464.7375     -483.19841      86330.181      44.196467      44.196467      44.196467      0.9663774     -1759.4767     -3085.8104     -1477.2327    
    206000   206000         447.40767     -1092.9359      11941.677      13319.215      10667.765      2651.4507      4139.7957      7684.961      -9028.2252     -86.874091     -2567.9175      7989.4176     -5479.7069     -482.67513      86423.774      44.212432      44.212432      44.212432      0.96533086    -1293.5657      440.43247     -2425.6745    
    207000   207000         455.55454     -755.19968      12632.341      13583.58       10862.014      2721.5655      4139.6907      7756.2361     -9106.6299     -86.759762     -2504.9527      7997.7622     -5473.7812     -482.98797      86367.795      44.202885      44.202885      44.202885      0.96595653    -797.26128     -167.88385     -1300.4539    
    208000   208000         461.07839      55.328077      13827.721      13757.514      10993.723      2763.7913      4245.637       7670.5785     -9146.4309     -92.566982     -2434.8618      7990.3003     -5468.8648     -479.43464      87007.909      44.311819      44.311819      44.311819      0.95885002    -289.86734     -138.20795      594.05952    
    209000   209000         453.18532      707.92925      14264.21       13374.535      10805.524      2569.0115      4156.7079      7671.465      -9153.4891     -84.847862     -2554.984       8003.8426     -5469.6832     -484.08635      86171.829      44.169427      44.169427      44.169427      0.96815325     238.95103      1387.2111      497.62564    
    210000   210000         446.78004      112.26555      13447.655      13306.131      10652.8        2653.3313      4088.3849      7871.365      -9159.2601     -84.329937     -2558.5896      7980.8939     -5485.1328     -482.59103      86438.833      44.215         44.215         44.215         0.96516267     873.47584     -311.29831     -225.38086    
    211000   211000         462.02209     -1396.2565      12100.117      13866.322      11016.224      2850.0982      4174.1981      7891.2475     -9038.3471     -82.967847     -2584.5317      7971.5291     -5481.0298     -480.93697      86736.118      44.265631      44.265631      44.265631      0.96185461    -439.95612     -2589.0917     -1159.7218    
    212000   212000         450.64968      191.14387      13669.912      13429.378      10745.065      2684.3124      4234.2261      7709.7783     -9161.4586     -89.470666     -2511.2914      7980.6351     -5478.1063     -483.44643      86285.891      44.188907      44.188907      44.188907      0.96687343     134.08232      789.4644      -350.1151     
    213000   213000         459.71227      65.393979      13746.941      13664.834      10961.149      2703.6844      4144.2109      7635.1125     -9009.3769     -90.807111     -2499.7168      7999.6925     -5475.4306     -484.53009      86092.91       44.155939      44.155939      44.155939      0.96904072     602.23391     -348.27629     -57.775681    
    214000   214000         456.70218      633.91265      14199.112      13404.011      10889.378      2514.633       4021.4572      7763.4849     -9113.8508     -85.946274     -2554.3491      7968.654      -5484.817      -485.03293      86003.657      44.140675      44.140675      44.140675      0.97004637    -136.27414      1318.0571      719.95498    
    215000   215000         457.9394      -693.87685      12593.115      13471.701      10918.878      2552.823       4084.2537      7720.1117     -9137.8807     -89.607535     -2531.3035      7984.9449     -5477.6955     -480.46532      86821.264      44.280111      44.280111      44.280111      0.96091133    -1477.0952      491.52555     -1096.0608    
    216000   216000         451.62768     -182.96585      13194.653      13423.969      10768.384      2655.5844      4193.0082      7671.5782     -9105.3867     -87.059714     -2518.0247      7982.8404     -5481.3711     -485.40108      85938.429      44.129513      44.129513      44.129513      0.97078265    -74.186197     -1002.6026      527.89122    
    217000   217000         455.15308     -320.56008      12931.384      13334.696      10852.442      2482.254       4065.4983      7692.3076     -9113.9873     -89.363787     -2570.94        7977.6363     -5478.8972     -483.53897      86269.378      44.186088      44.186088      44.186088      0.96705851    -626.91258      760.45418     -1095.2218    
    218000   218000         453.72467      397.55226      14123.203      13620.603      10818.384      2802.2192      4091.3105      7833.8767     -9098.832      -94.519303     -2462.1626      8010.7056     -5478.1596     -481.21159      86686.619      44.257209      44.257209      44.257209      0.96240385     1944.2551     -482.19973     -269.39861    
    219000   219000         455.98873     -372.78028      13042.235      13506.747      10872.367      2634.3795      4101.2146      7879.9266     -9218.8034     -93.076698     -2557.6628      7996.9543     -5474.1732     -488.22498      85441.36       44.044267      44.044267      44.044267      0.97643034    -231.50685      402.67088     -1289.5049    
    220000   220000         448.83291      786.69409      14332.02       13341.265      10701.747      2639.5181      4147.3549      7817.8678     -9213.1831     -89.166307     -2531.5719      7988.3457     -5480.1288     -483.06308      86354.365      44.200593      44.200593      44.200593      0.96610676    -295.47019      1127.8756      1527.6769    
    221000   221000         460.62099     -584.60759      12725.121      13456.786      10982.816      2473.9702      4079.3836      7628.0028     -9115.4608     -88.125359     -2565.6068      8005.491      -5469.7143     -486.08929      85816.755      44.108677      44.108677      44.108677      0.97215906     240.20172     -804.50193     -1189.5226    
    222000   222000         453.69742      169.10703      13593.825      13380.157      10817.734      2562.4225      4034.7517      7679.8792     -9064.8732     -87.954289     -2500.7896      7982.0228     -5480.6141     -481.48758      86636.93       44.248751      44.248751      44.248751      0.96295582     95.08168       515.18794     -102.94852    
    223000   223000         457.14304     -582.2003       12887.749      13625.997      10899.89       2726.107       4042.6636      7855.9523     -9039.3764     -92.160168     -2540.3978      7982.5332     -5483.1079     -479.77095      86946.919      44.301463      44.301463      44.301463      0.95952261     22.780101     -1354.2884     -415.0926     
    224000   224000         445.61732      623.2976       14027.609      13244.735      10625.076      2619.659       4106.0704      7738.8875     -9134.4313     -89.095056     -2510.0172      7984.6444     -5476.3998     -484.35963      86123.209      44.161119      44.161119      44.161119      0.9686998     -414.58668      1034.386       1250.0935    
    225000   225000         457.60458     -409.11306      13041.787      13558.326      10910.895      2647.4316      4112.5461      7699.3933     -9042.4713     -90.607996     -2547.0526      7989.9679     -5474.3438     -481.84158      86573.28       44.237912      44.237912      44.237912      0.9636638      486.36759     -818.43939     -895.26738    
    226000   226000         455.83587     -1195.8669      11912.495      13409.285      10868.722      2540.5623      4079.4575      7578.6699     -9018.8672     -82.759095     -2515.7784      7978.2288     -5478.3893     -486.05576      85822.675      44.109691      44.109691      44.109691      0.972092      -1613.0207      185.89866     -2160.4789    
    227000   227000         452.13881      126.68679      13472.246      13311.732      10780.572      2531.1604      4047.7577      7705.6314     -9098.217      -82.219191     -2552.8204      7988.8941     -5477.8662     -480.15543      86877.297      44.289635      44.289635      44.289635      0.96029157    -1068.4865      960.73326      487.81356    
    228000   228000         450.53955      587.24495      14107.995      13373.574      10742.44       2631.1347      4130.6884      7756.8054     -9110.3985     -88.933882     -2583.5862      7997.8081     -5471.2485     -486.45036      85753.058      44.097761      44.097761      44.097761      0.97288117     261.0653       674.69376      825.9758     
    229000   229000         446.76302      1558.2408      15438.188      13474.04       10652.394      2821.6459      4084.7433      7916.9076     -9161.7486     -91.502761     -2431.7379      7978.029      -5473.0448     -482.64109      86429.868      44.213472      44.213472      44.213472      0.96526279     1925.0374      550.08339      2199.6017    
    230000   230000         454.16791      386.62536      13893.146      13404.644      10828.952      2575.6915      3966.2144      7781.284      -9096.8991     -91.190024     -2512.6108      8000.8097     -5471.9168     -481.49064      86636.38       44.248658      44.248658      44.248658      0.96296193    -124.49041      2171.2993     -886.9328     
    231000   231000         457.81494      1065.409       15006.21       13678.954      10915.91       2763.0439      4093.7783      7793.3597     -9006.6354     -86.774525     -2589.4617      8024.0551     -5465.2776     -488.34371      85420.585      44.040697      44.040697      44.040697      0.97666781     715.87239      998.81004      1481.5446    
    232000   232000         444.52232      479.12573      13503.678      12900.157      10598.968      2301.1894      3963.4988      7654.8484     -9169.1537     -83.350192     -2620.6834      8029.7122     -5473.6827     -482.9711       86370.811      44.203399      44.203399      44.203399      0.9659228      348.2366       648.04092      441.09968    
    233000   233000         450.88137      86.078053      13385.015      13276.886      10750.59       2526.296       4147.1113      7670.1065     -9156.6611     -86.249114     -2583.7069      8008.6858     -5472.9905     -484.30068      86133.693      44.162911      44.162911      44.162911      0.96858189     309.781       -1107.6751      1056.1283    
    234000   234000         454.59446      556.05797      14213.216      13514.985      10839.123      2675.8619      4083.2433      7754.6206     -9047.565      -88.115493     -2534.9429      7983.8965     -5475.2751     -484.48963      86100.101      44.157169      44.157169      44.157169      0.96895979     584.34887      554.07808      529.74695    
    235000   235000         449.70879     -1177.0941      11914.995      13412.485      10722.631      2689.8535      4119.46        7731.8718     -9102.7248     -86.038335     -2493.8273      7994.743      -5473.6308     -478.20207      87232.173      44.349858      44.349858      44.349858      0.95638492    -1595.3314     -2088.5052      152.55428    
    236000   236000         450.23061     -520.85207      12575.315      13230.417      10735.073      2495.3435      4019.8555      7712.1667     -9143.179      -85.646413     -2552.2178      8017.6666     -5473.3021     -483.69262      86241.973      44.181409      44.181409      44.181409      0.9673658      197.10021     -1299.1303     -460.52609    
    237000   237000         447.67209     -1287.4402      11553.579      13194.029      10674.069      2519.96        4043.2641      7609.0131     -9056.2023     -84.780162     -2508.8887      7995.9433     -5478.3893     -477.45017      87369.549      44.373127      44.373127      44.373127      0.95488115    -536.48875     -550.57332     -2775.2584    
    238000   238000         449.20253      946.00819      14260.595      13067.574      10710.56       2357.0141      3923.6081      7635.6177     -9137.0187     -92.273131     -2496.7348      7998.6476     -5474.8326     -482.40424      86472.304      44.220707      44.220707      44.220707      0.96478909     2429.1271     -441.10791      850.00544    
    239000   239000         448.1674      -477.25131      12687.25       13292.227      10685.879      2606.3481      4015.8064      7754.9745     -9115.0149     -87.868276     -2495.1377      8004.5615     -5470.9734     -479.9238       86919.227      44.296759      44.296759      44.296759      0.95982832    -455.88911     -1126.7672      150.90238    
    240000   240000         456.65969     -246.40381      13180.802      13490.914      10888.365      2602.549       4135.238       7633.4718     -9092.3086     -92.614012     -2528.4929      8009.7774     -5462.5227     -483.38452      86296.942      44.190794      44.190794      44.190794      0.96674961    -348.74177     -1108.6326      718.16291    
    241000   241000         445.34829      1416.8522      15025.298      13240.675      10618.662      2622.0128      3954.4386      7846.8371     -9122.3572     -94.137843     -2506.1658      8010.2018     -5466.8039     -482.99419      86366.683      44.202695      44.202695      44.202695      0.96596896     1538.6681      678.79523      2033.0933    
    242000   242000         452.96193     -217.63057      13235.032      13511.995      10800.198      2711.7975      4070.5247      7972.2186     -9241.4852     -86.906499     -2509.9543      7984.1134     -5476.7132     -478.03712      87262.273      44.354958      44.354958      44.354958      0.95605504    -323.8494       469.60065     -798.64297    
    243000   243000         452.38225      1866.02        15736.47       13379.595      10786.376      2593.2187      4026.7183      7780.3944     -9127.8019     -85.66487      -2512.0645      7989.9385     -5478.3013     -481.6634       86605.306      44.243367      44.243367      44.243367      0.96330744     1861.7404      794.79608      2941.5235    
    244000   244000         450.16377     -325.97679      12967.875      13381.123      10733.48       2647.6439      4074.0236      7696.5494     -9079.7404     -89.233134     -2471.0837      7991.247      -5474.1189     -479.8876       86925.783      44.297873      44.297873      44.297873      0.95975592     754.44531     -524.45444     -1207.9212    
    245000   245000         448.01787     -622.5632       12258.401      13048.912      10682.314      2366.5977      4006.7318      7607.3708     -9174.8805     -88.239879     -2492.5667      7981.8715     -5473.6894     -479.11477      87065.998      44.321678      44.321678      44.321678      0.9582103     -917.82777     -218.93096     -730.93088    
    246000   246000         447.9971      -78.72497       13181.018      13279.978      10681.819      2598.1592      4128.7912      7791.2226     -9164.5738     -90.077277     -2564.9058      7982.035      -5484.3325     -483.97006      86192.533      44.172965      44.172965      44.172965      0.96792068     1272.4488     -734.23406     -774.38969    
    247000   247000         447.36364      1316.7599      14757.277      13100.366      10666.715      2433.6515      4006.471       7687.8245     -9181.5617     -90.827023     -2512.082       7998.9747     -5475.148      -483.47205      86281.318      44.188127      44.188127      44.188127      0.96692467     1379.4152      895.66082      1675.2036    
    248000   248000         447.86447      61.445892      13286.295      13209.262      10678.656      2530.6058      4088.2595      7695.6102     -9144.3811     -84.421473     -2558.1044      7999.7717     -5466.1286     -485.26418      85962.672      44.133662      44.133662      44.133662      0.97050886     465.4881      -854.03226      572.88184    
    249000   249000         453.75624     -101.25339      13137.932      13265.482      10819.137      2446.3456      4029.2506      7661.3728     -9164.7382     -83.526568     -2487.2446      7968.3256     -5477.0941     -482.93769      86376.787      44.204418      44.204418      44.204418      0.96585597    -1250.2566      1949.4842     -1002.9877    
    250000   250000         452.48148      651.63961      14136.253      13314.934      10788.742      2526.1919      4088.8788      7668.2332     -9155.6339     -90.420537     -2486.8616      7982.7816     -5480.7857     -482.68062      86422.789      44.212264      44.212264      44.212264      0.96534185    -323.5278       967.92063      1310.526     
Loop time of 503.645 on 1 procs for 250000 steps with 8000 atoms

Performance: 42.887 ns/day, 0.560 hours/ns, 496.381 timesteps/s, 3.971 Matom-step/s
100.0% CPU use with 1 MPI tasks x 1 OpenMP threads

MPI task timing breakdown:
Section |  min time  |  avg time  |  max time  |%varavg| %total
---------------------------------------------------------------
Pair    | 63.364     | 63.364     | 63.364     |   0.0 | 12.58
Bond    | 54.597     | 54.597     | 54.597     |   0.0 | 10.84
Kspace  | 235.31     | 235.31     | 235.31     |   0.0 | 46.72
Neigh   | 52.618     | 52.618     | 52.618     |   0.0 | 10.45
Comm    | 8.2785     | 8.2785     | 8.2785     |   0.0 |  1.64
Output  | 2.7682     | 2.7682     | 2.7682     |   0.0 |  0.55
Modify  | 76.775     | 76.775     | 76.775     |   0.0 | 15.24
Other   |            | 9.938      |            |       |  1.97

Nlocal:           8000 ave        8000 max        8000 min
Histogram: 1 0 0 0 0 0 0 0 0 0
Nghost:          20007 ave       20007 max       20007 min
Histogram: 1 0 0 0 0 0 0 0 0 0
Neighs:              0 ave           0 max           0 min
Histogram: 1 0 0 0 0 0 0 0 0 0
FullNghs:  4.71946e+06 ave 4.71946e+06 max 4.71946e+06 min
Histogram: 1 0 0 0 0 0 0 0 0 0

Total # of neighbors = 4719462
Ave neighs/atom = 589.93275
Ave special neighs/atom = 5.7025
Neighbor list builds = 10284
Dangerous builds = 0
System init for write_data ...
PPPM Kokkos initialization ...
  using 12-bit tables for long-range coulomb
  G vector (1/distance) = 0.3022412
  grid = 32 32 32
  stencil order = 5
  estimated absolute RMS force accuracy = 0.00030309208
  estimated relative force accuracy = 9.127528e-07
  using double precision cuFFT
  3d grid and FFT values/proc = 59319 32768
Generated 10 of 10 mixed pair_coeff terms from sixthpower/sixthpower mixing rule
System init for write_restart ...
PPPM Kokkos initialization ...
  using 12-bit tables for long-range coulomb
  G vector (1/distance) = 0.3022412
  grid = 32 32 32
  stencil order = 5
  estimated absolute RMS force accuracy = 0.00030309208
  estimated relative force accuracy = 9.127528e-07
  using double precision cuFFT
  3d grid and FFT values/proc = 59319 32768
Generated 10 of 10 mixed pair_coeff terms from sixthpower/sixthpower mixing rule
STAGE COMPLETE: NPT T=475.0->450.0K P=1.0->1.0atm steps=250000
