LAMMPS (22 Jul 2025 - Update 3)
KOKKOS mode with Kokkos version 4.6.2 is enabled
  will use up to 1 GPU(s) per node
  using 1 OpenMP thread(s) per MPI task
Reading data file ...
  orthogonal box = (3.6205472 3.6205472 3.6205472) to (47.90151 47.90151 47.90151)
  1 by 1 by 1 MPI processor grid
  reading atoms ...
  8000 atoms
  reading velocities ...
  8000 velocities
  scanning bonds ...
  4 = max bonds/atom
  scanning angles ...
  10 = max angles/atom
  scanning dihedrals ...
  16 = max dihedrals/atom
  scanning impropers ...
  7 = max impropers/atom
  orthogonal box = (3.6205472 3.6205472 3.6205472) to (47.90151 47.90151 47.90151)
  1 by 1 by 1 MPI processor grid
  reading bonds ...
  7990 bonds
  reading angles ...
  14820 angles
  reading dihedrals ...
  17070 dihedrals
  reading impropers ...
  9120 impropers
Finding 1-2 1-3 1-4 neighbors ...
  special bond factors lj:    0        0        1       
  special bond factors coul:  0        0        1       
     4 = max # of 1-2 neighbors
     6 = max # of 1-3 neighbors
     8 = max # of special neighbors
  special bonds CPU = 0.004 seconds
  read_data CPU = 0.213 seconds
Finding SHAKE clusters ...
      10 = # of size 2 clusters
    2270 = # of size 3 clusters
      10 = # of size 4 clusters
       0 = # of frozen angles
  find clusters CPU = 0.002 seconds
PPPM Kokkos initialization ...
  using 12-bit tables for long-range coulomb
  G vector (1/distance) = 0.3021134
  grid = 32 32 32
  stencil order = 5
  estimated absolute RMS force accuracy = 0.00030451085
  estimated relative force accuracy = 9.1702539e-07
  using double precision cuFFT
  3d grid and FFT values/proc = 59319 32768
Generated 10 of 10 mixed pair_coeff terms from sixthpower/sixthpower mixing rule
Neighbor list info ...
  update: every = 1 steps, delay = 0 steps, check = yes
  max neighbors/atom: 4000, page size: 100000
  master list distance cutoff = 11.5
  ghost atom cutoff = 11.5
  binsize = 11.5, bins = 4 4 4
  1 neighbor lists, perpetual/occasional/extra = 1 0 0
  (1) pair lj/class2/coul/long/kk, perpetual
      attributes: full, newton off, kokkos_device
      pair build: full/bin/kk/device
      stencil: full/bin/3d
      bin: kk/device
Setting up Verlet run ...
  Unit style    : real
  Current step  : 0
  Time step     : 1
Per MPI rank memory allocation (min/avg/max) = 36.15 | 36.15 | 36.15 Mbytes
   Step          Time           Temp          Press         Enthalpy        TotEng         KinEng         PotEng         E_bond        E_angle        E_dihed        E_impro         E_vdwl         E_coul         E_long         E_tail         Volume           Lx             Ly             Lz          Density          Pxx            Pyy            Pzz      
         0   0              452.8331      -722.09383      8291.2166      9205.5839      8736.4167      469.16726      1859.4736      7731.7425     -9027.4989     -85.242666     -2487.7051      7956.3318     -5477.934      -480.43759      86826.274      44.280963      44.280963      44.280963      0.96085587     614.33786     -1547.1369     -1233.4825    
       500   500            440.09914      748.98473      9449.4048      8509.351       8490.743       18.60796       1771.1801      7417.7777     -9020.602      -74.964629     -2564.0187      7974.1727     -5484.9372     -484.71258      86060.497      44.150397      44.150397      44.150397      0.96940569     923.40855      1024.0796      299.46606    
      1000   1000           438.20914      411.88902      9022.2128      8510.5101      8454.2797      56.230372      1764.3235      7560.7573     -9075.2167     -85.416011     -2606.5005      7980.0465     -5481.7637     -489.69596      85184.705      44.000121      44.000121      44.000121      0.97937224     2.4325991     -297.37638      1530.6109    
      1500   1500           433.36674     -959.47368      7135.4541      8335.8117      8360.8562     -25.044519      1773.7622      7420.5095     -9033.0592     -80.126359     -2611.2593      7990.0046     -5484.876      -486.28004      85783.092      44.102909      44.102909      44.102909      0.97254054    -719.19228     -1803.0099     -356.21888    
      2000   2000           434.44485     -162.35828      8314.9489      8519.3571      8381.656       137.70114      1692.5656      7583.3998     -9022.2537     -80.99763      -2537.6949      7989.2035     -5486.5215     -483.21461      86327.286      44.195973      44.195973      44.195973      0.96640981     818.98424      383.29229     -1689.3514    
      2500   2500           439.30274     -182.61906      8341.67        8571.112       8475.3783      95.733719      1727.2469      7640.8605     -9091.185      -84.254426     -2580.5838      7967.511      -5483.8615     -484.21385      86149.138      44.16555       44.16555       44.16555       0.96840825     204.77142     -123.31772     -629.31089    
      3000   3000           445.37326     -619.5394       8000.03        8776.6574      8592.4955      184.16193      1740.315       7573.7075     -9025.2119     -86.032903     -2513.1722      7974.0584     -5479.5019     -485.31113      85954.356      44.132239      44.132239      44.132239      0.97060277     231.67888     -1492.9603     -597.33678    
      3500   3500           443.61026     -138.46337      8494.4015      8667.8548      8558.4825      109.37233      1711.2826      7529.8269     -8978.8593     -86.061546     -2549.9121      7964.0012     -5480.9054     -485.64218      85895.764      44.122209      44.122209      44.122209      0.97126484     76.168941      70.89949      -562.45853    
      4000   4000           433.32004     -383.24427      7984.2664      8462.944       8359.9552      102.98888      1782.1156      7582.2837     -9023.8211     -85.573437     -2651.0882      7977.6422     -5478.5699     -487.07577      85642.95       44.078879      44.078879      44.078879      0.97413196     547.48988     -977.83271     -719.38999    
      4500   4500           446.71831     -553.74303      7957.7562      8647.2592      8618.4454      28.81379       1776.839       7508.8411     -9090.0817     -84.847317     -2551.4503      7950.7889     -5481.2759     -488.58058      85379.172      44.033578      44.033578      44.033578      0.97714154    -539.82787     -1124.6603      3.2590763    
      5000   5000           443.32327     -1211.6024      7078.363       8600.078       8552.9455      47.13249       1770.5303      7535.1728     -9031.3429     -83.912225     -2645.2667      7984.3593     -5482.4081     -484.38517      86118.667      44.160343      44.160343      44.160343      0.96875089    -1410.2327     -1009.1135     -1215.4611    
      5500   5500           430.48259     -506.43529      7955.2666      8590.3738      8305.2129      285.16092      1887.7923      7689.3524     -9103.683      -87.859417     -2609.5318      7984.2439     -5475.1536     -485.11087      85989.84       44.138311      44.138311      44.138311      0.97020224    -57.84834      -1128.3143     -333.14321    
      6000   6000           447.93014      468.78654      9333.2948      8748.9726      8641.8249      107.14769      1825.1643      7603.5845     -9107.7111     -89.686324     -2634.2183      7987.9219     -5477.9073     -488.07518      85467.582      44.048772      44.048772      44.048772      0.97613075     347.39154     -84.722707      1143.6908    
      6500   6500           443.11431      18.917986      8788.2998      8764.6978      8548.9142      215.78366      1884.1487      7495.9224     -8996.9447     -84.387714     -2583.1926      7984.0015     -5483.764      -487.63064      85545.497      44.062153      44.062153      44.062153      0.97524169     584.7936      -1697.9325      1169.8928    
      7000   7000           439.43156     -437.78617      7823.3349      8366.3561      8477.8635     -111.50735      1748.5889      7656.3186     -9205.7294     -84.142652     -2732.214       7989.3379     -5483.6667     -490.46636      85050.901      43.977072      43.977072      43.977072      0.98091301    -139.3613      -402.43072     -771.56649    
      7500   7500           443.35841      1003.1942      9862.4642      8624.1384      8553.6234      70.514974      1753.458       7564.7985     -9027.0659     -84.802331     -2654.4253      7993.8488     -5475.2968     -492.84924      84639.688      43.906082      43.906082      43.906082      0.98567867    -158.88195      1659.1249      1509.3396    
      8000   8000           439.75337      384.88468      9006.183       8522.4597      8484.0721      38.387628      1727.5103      7674.9069     -9125.9576     -83.832718     -2625.8091      7960.8261     -5489.2563     -484.05827      86176.827      44.170281      44.170281      44.170281      0.96809709     744.60611      163.42489      246.62304    
      8500   8500           431.87813     -1312.6425      6821.5736      8480.2285      8332.1367      148.09178      1898.4868      7505.6463     -9006.3052     -81.369144     -2642.918       7963.1984     -5488.6475     -481.45362      86643.042      44.249792      44.249792      44.249792      0.96288789    -1289.8499     -992.75132     -1655.3261    
      9000   9000           433.88643     -259.52501      8255.9439      8579.7478      8370.8824      208.86534      1771.3322      7752.1958     -9133.5697     -84.747073     -2569.1019      7964.7267     -5491.9706     -487.59718      85551.367      44.063161      44.063161      44.063161      0.97517478    -665.94559     -39.349925     -73.279501    
      9500   9500           435.3812      -360.1656       8064.6462      8514.8046      8399.7208      115.08373      1790.8987      7519.544      -9026.1519     -89.641839     -2562.8836      7970.3928     -5487.0744     -486.74444      85701.247      44.088878      44.088878      44.088878      0.97346933    -720.15994     -163.05774     -197.27913    
     10000   10000          440.42303      141.81869      8757.037       8580.5644      8496.9917      83.572715      1831.329       7481.7248     -9022.4541     -83.128658     -2613.4444      7975.1967     -5485.6506     -488.90025      85323.347      44.023979      44.023979      44.023979      0.97778086     1069.0072     -67.490331     -576.06082    
     10500   10500          438.05875      632.64166      9230.3297      8444.3784      8451.3783     -6.999935       1783.5893      7551.0206     -9105.8039     -82.382677     -2640.8586      7977.2124     -5489.7771     -489.69552      85184.781      44.000135      44.000135      44.000135      0.97937136     1336.2903      206.92154      354.71314    
     11000   11000          440.6824       171.82871      8780.4155      8566.6715      8501.9958      64.675664      1766.6547      7610.4017     -9108.5358     -84.214704     -2605.7161      7973.0871     -5487.0012     -489.06415      85294.754      44.019061      44.019061      44.019061      0.97810864    -592.76999      1948.0067     -839.75061    
     11500   11500          448.68001      701.76008      9586.6381      8712.9178      8656.292       56.62582       1762.8485      7479.5948     -9029.6333     -82.092281     -2582.508       7986.9274     -5478.5113     -488.63015      85370.511      44.032089      44.032089      44.032089      0.97724068     296.5992       1050.2266      758.45443    
     12000   12000          441.09987     -254.04516      8344.6644      8661.9178      8510.0498      151.86801      1859.2003      7522.6825     -9096.0225     -83.903823     -2542.9059      7980.8818     -5488.0644     -487.15658      85628.743      44.076441      44.076441      44.076441      0.97429359     102.6783      -1560.7226      695.90881    
     12500   12500          438.30648     -599.33405      7682.742       8436.7244      8456.1576     -19.433179      1724.6132      7431.076      -9102.2242     -82.986326     -2500.2371      7987.3748     -5477.0496     -483.58385      86261.371      44.184721      44.184721      44.184721      0.96714827    -833.96042      1820.4194     -2784.4612    
     13000   13000          444.4918       1161.2061      10009.657      8567.718       8575.4897     -7.7716981      1758.3188      7633.5011     -9195.73       -84.109233     -2603.5886      7972.2537     -5488.4176     -489.92159      85145.473      43.993366      43.993366      43.993366      0.9798235      2217.9695      2075.0467     -809.39794    
     13500   13500          443.64543     -1017.4309      7252.0411      8509.3358      8559.1609     -49.825141      1784.9653      7496.7116     -9102.199      -81.288811     -2633.6715      7974.8443     -5489.187      -492.30228      84733.725      43.922336      43.922336      43.922336      0.98458478    -1321.3527     -1836.7461      105.80613    
     14000   14000          442.83808     -25.337093      8714.4657      8745.9872      8543.5849      202.40232      1819.5108      7649.3868     -9086.5985     -81.467054     -2590.4517      7976.4836     -5484.4617     -489.00502      85305.066      44.020835      44.020835      44.020835      0.9779904     -130.81046      619.8939      -565.09472    
     14500   14500          441.84913     -722.43123      7801.7803      8713.9537      8524.5052      189.44851      1828.6341      7509.097      -9088.409      -85.478215     -2494.9152      7996.7526     -5476.2328     -481.81815      86577.49       44.238629      44.238629      44.238629      0.96361693    -158.92885     -461.44134     -1546.9235    
     15000   15000          440.9526       243.68148      8846.0982      8539.9368      8507.2088      32.728028      1807.438       7521.8833     -9139.7945     -85.552646     -2579.9798      7991.2388     -5482.5051     -484.21253      86149.372      44.16559       44.16559       44.16559       0.96840561    -326.74661     -26.776046      1084.5671    
     15500   15500          441.26847      821.79464      9475.8817      8457.103       8513.3026     -56.199556      1774.1084      7351.7763     -9038.6272     -81.174842     -2566.1079      7988.6789     -5484.8533     -490.73551      85004.253      43.96903       43.96903       43.96903       0.98145131     588.14441      1040.0069      837.23265    
     16000   16000          436.75316      308.03824      8904.7151      8520.2014      8426.1898      94.011562      1812.639       7547.9236     -9077.5973     -83.749208     -2591.9244      7978.4162     -5491.6964     -487.36779      85591.635      44.070073      44.070073      44.070073      0.974716      -457.73173      431.3903       950.45613    
     16500   16500          444.30668     -820.78273      7520.6971      8551.1269      8571.9183     -20.791352      1809.3505      7457.2079     -9134.7483     -80.528845     -2565.1851      7979.674      -5486.5616     -484.5893       86082.391      44.154141      44.154141      44.154141      0.96915913    -113.99075     -1007.9515     -1340.4059    
     17000   17000          438.1844      -196.81917      8175.9952      8421.4381      8453.8024     -32.364319      1790.416       7518.0944     -9139.6313     -86.222383     -2604.6071      7976.3409     -5486.7549     -487.84416      85508.055      44.055724      44.055724      44.055724      0.97566873     134.49744     -840.98346      116.0285     
     17500   17500          426.90777     -796.65314      7272.0855      8267.9558      8236.2446      31.711164      1820.87        7604.418      -9164.0232     -81.1551       -2648.8493      7986.2876     -5485.8368     -486.66545      85715.157      44.091263      44.091263      44.091263      0.97331135     758.7967      -1779.1176     -1369.6385    
     18000   18000          442.24263     -59.378912      8398.064       8472.1733      8532.0969     -59.923531      1746.4044      7397.4381     -9024.0196     -82.127543     -2600.1939      7989.6976     -5487.1226     -487.44276      85578.47       44.067814      44.067814      44.067814      0.97486594    -341.12333     -373.8785       536.86509    
     18500   18500          441.65268      105.97948      8593.3373      8461.4883      8520.7152     -59.226864      1743.0153      7439.9026     -9070.7429     -80.425751     -2572.0364      7974.4563     -5493.396      -488.99993      85305.955      44.020988      44.020988      44.020988      0.97798021    -1856.5139      271.53242      1902.9199    
     19000   19000          434.53777     -807.63907      7573.9899      8588.6063      8383.4487      205.15759      1811.612       7715.0061     -9179.1624     -87.642453     -2567.3966      7992.9118     -5480.1709     -484.261        86140.751      44.164117      44.164117      44.164117      0.96850254    -1553.6781     -273.21841     -596.02072    
     19500   19500          443.37529     -412.72998      8081.184       8596.1403      8553.9491      42.191162      1781.4917      7522.2907     -9069.8292     -88.740385     -2576.9883      7959.7168     -5485.7501     -487.5955       85551.662      44.063212      44.063212      44.063212      0.97517141     288.30157     -555.16406     -971.32746    
     20000   20000          445.04504      198.4488       8708.6746      8464.6947      8586.1632     -121.46853      1745.3448      7583.7762     -9108.599      -85.029933     -2731.8414      7962.7537     -5487.873      -494.83271      84300.421      43.84734       43.84734       43.84734       0.98964554     954.88137     -923.61154      564.07657    
     20500   20500          437.81295     -922.37321      7349.0753      8493.1237      8446.6359      46.487723      1840.5411      7680.0665     -9149.9912     -86.758542     -2696.7705      7943.9501     -5484.5498     -490.48567      85047.552      43.976494      43.976494      43.976494      0.98095164    -1408.1036     -318.03813     -1040.9779    
     21000   21000          440.84291      257.64923      8850.6895      8529.3604      8505.0924      24.267964      1792.7756      7584.2931     -9139.4502     -82.94904      -2615.8246      7968.515      -5483.0919     -487.80107      85515.61       44.057021      44.057021      44.057021      0.97558254     150.23059      934.51363     -311.79652    
     21500   21500          432.51886      1022.5426      9634.4685      8364.8449      8344.4983      20.346596      1704.5977      7640.7653     -9163.3126     -85.663125     -2566.2267      7976.1443     -5485.9583     -489.97109      85136.872      43.991884      43.991884      43.991884      0.97992249    -669.74661      1553.2034      2184.1708    
     22000   22000          431.70215     -856.22503      7195.8761      8260.772       8328.7416     -67.96962       1725.3181      7522.8795     -9049.5656     -83.339991     -2636.1358      7944.4667     -5491.5926     -489.15307      85279.247      44.016393      44.016393      44.016393      0.97828649    -1253.4274      43.141162     -1358.3889    
     22500   22500          436.26226      760.56038      9306.2648      8363.349       8416.7189     -53.369829      1790.3461      7419.273      -9012.208      -84.90286      -2650.0878      7969.3135     -5485.1037     -490.70992      85008.686      43.969794      43.969794      43.969794      0.98140013     701.24826      1153.1538      427.2791     
     23000   23000          441.37903      525.39156      9059.5884      8412.5537      8515.4358     -102.88204      1728.3636      7566.4137     -9119.735      -86.656187     -2672.2495      7965.9702     -5484.9889     -493.99158      84443.961      43.872212      43.872212      43.872212      0.98796332     24.511009      770.62151      781.04215    
     23500   23500          443.82311      288.77463      9153.5139      8796.4622      8562.5888      233.87334      1813.3842      7667.3118     -9016.435      -83.765296     -2623.419       7967.1618     -5490.3651     -492.03034      84780.556      43.930427      43.930427      43.930427      0.98404091     373.24299     -83.254209      576.33512    
     24000   24000          444.79596     -304.28968      8292.0533      8669.906       8581.3577      88.548217      1771.3296      7586.2294     -9065.3033     -82.563451     -2617.554       7975.2239     -5478.8139     -489.92408      85145.041      43.993291      43.993291      43.993291      0.97982847     1354.9715     -1972.4915     -295.34906    
     24500   24500          438.18525      19.172155      8601.961       8578.1283      8453.8187      124.30961      1819.9521      7584.5148     -9140.6275     -85.406707     -2527.9885      7964.7574     -5490.892      -489.39723      85236.702      44.009072      44.009072      44.009072      0.97877479    -170.60522      457.03555     -228.91387    
     25000   25000          444.17648     -373.01968      7994.6732      8459.7534      8569.4063     -109.65289      1752.0328      7551.9862     -9147.9807     -86.944135     -2650.5481      7961.4774     -5489.6764     -487.94164      85490.973      44.05279       44.05279       44.05279       0.97586367    -1663.3252     -9.787965       554.05413    
     25500   25500          446.38657      383.06195      9091.5038      8610.3133      8612.0451     -1.7317794      1711.7149      7635.5454     -9124.87       -84.800718     -2603.3465      7957.7024     -5493.6773     -484.30172      86133.507      44.162879      44.162879      44.162879      0.96858398     1232.0555      265.72209     -348.59172    
     26000   26000          443.61529     -134.7713       8478.9563      8646.5395      8558.5793      87.960141      1786.8565      7613.3844     -9081.9918     -87.215449     -2614.6597      7957.8354     -5486.2491     -489.25023      85262.312      44.013479      44.013479      44.013479      0.9784808      608.57942     -177.79931     -835.094      
     26500   26500          435.0795       622.13099      9074.5454      8298.3311      8393.9002     -95.569034      1727.5032      7463.7971     -9065.7946     -83.886713     -2654.1185      7997.5448     -5480.6143     -487.60065      85550.76       44.063057      44.063057      44.063057      0.9751817      74.135996      1273.0441      519.21291    
     27000   27000          443.45694     -192.40246      8317.9506      8558.6575      8555.5243      3.1332459      1799.7388      7521.1242     -9099.2326     -86.273715     -2632.2166      7982.4799     -5482.4867     -486.2797       85783.154      44.102919      44.102919      44.102919      0.97253985    -603.22163     -312.59311      338.60735    
     27500   27500          440.90565     -794.57317      7595.1128      8591.774       8506.3029      85.4711        1839.2732      7677.0833     -9133.023      -91.062659     -2665.4946      7953.3155     -5494.6207     -485.00964      86007.788      44.141382      44.141382      44.141382      0.96999979    -981.77104     -2075.5459      673.59747    
     28000   28000          440.78604      943.81216      9468.3622      8296.1586      8503.9952     -207.83661      1689.4718      7396.729      -9089.8152     -82.535927     -2597.6266      7967.6386     -5491.6983     -489.83129      85161.169      43.996069      43.996069      43.996069      0.97964291     594.4879       1666.2196      570.72902    
     28500   28500          437.53775      320.57406      8680.663       8281.6587      8441.3266     -159.66786      1737.5625      7476.9442     -9128.9725     -82.312333     -2634.8893      7964.6906     -5492.691      -488.78161      85344.058      44.027541      44.027541      44.027541      0.97754358    -9.5922969      472.94643      498.36806    
     29000   29000          438.95688      315.6246       8720.9196      8325.679       8468.7057     -143.0267       1777.9623      7477.5225     -9138.4853     -82.270541     -2648.4765      7956.2285     -5485.5076     -485.81767      85864.736      44.116896      44.116896      44.116896      0.97161581     1719.8596     -607.22888     -165.75693    
     29500   29500          440.26351     -421.67144      7980.2972      8505.278       8493.9142      11.363761      1884.4723      7474.9867     -9092.8168     -83.270833     -2626.9207      7943.1344     -5488.2212     -488.64656      85367.644      44.031597      44.031597      44.031597      0.97727349     101.31285      240.93825     -1607.2654    
     30000   30000          437.20696      198.10892      8766.2804      8520.4525      8434.9448      85.50764       1707.3185      7604.3252     -9029.4823     -84.313847     -2619.35        7985.2803     -5478.2702     -490.27167      85084.675      43.982892      43.982892      43.982892      0.98052365    -37.773657      886.84863     -254.74822    
     30500   30500          444.00533      488.3545       9056.7738      8448.4913      8566.1045     -117.61319      1794.2511      7312.8538     -9089.2916     -79.068151     -2527.8594      7960.4107     -5488.9095     -488.42047      85407.161      44.03839       44.03839       44.03839       0.97682132     1240.4362      45.26334       179.36396    
     31000   31000          429.18963     -1058.0901      7177.2715      8501.7981      8280.268       221.53002      1843.92        7656.9684     -9075.7538     -82.213331     -2604.7836      7969.5768     -5486.1844     -485.98851      85834.551      44.111725      44.111725      44.111725      0.9719575     -99.747222     -2972.8012     -101.72185    
     31500   31500          434.68768     -470.65615      7753.9345      8335.8211      8386.3408     -50.519662      1820.1151      7420.5864     -9108.5222     -84.909938     -2600.3836      7986.2472     -5483.6526     -492.07285      84773.232      43.929162      43.929162      43.929162      0.98412592    -518.48274     -421.85975     -471.62596    
     32000   32000          441.28546     -381.24708      7892.5284      8368.8213      8513.6305     -144.80913      1663.0845      7519.0422     -9130.1601     -83.709088     -2631.0117      7995.8281     -5477.8829     -486.96351      85662.694      44.082266      44.082266      44.082266      0.97390745    -642.12262     -24.859184     -476.75945    
     32500   32500          435.79328      858.90578      9386.1823      8311.9713      8407.6709     -95.69953       1698.9534      7544.7894     -9170.1194     -83.010794     -2590.5822      7990.9828     -5486.7128     -486.42956      85756.724      44.098389      44.098389      44.098389      0.97283958     144.07959      2199.877       232.76071    
     33000   33000          441.75488      653.14818      9285.8101      8474.0467      8522.6869     -48.64026       1742.9604      7512.8894     -9120.9059     -86.163714     -2571.2398      7963.5814     -5489.7621     -489.49278      85220.063      44.006208      44.006208      44.006208      0.97896589     1204.9138      399.86188      354.66887    
     33500   33500          441.07702     -195.65019      8345.2636      8588.8067      8509.6091      79.19768       1766.9227      7602.3448     -9159.0278     -86.710955     -2545.6849      7986.5852     -5485.2314     -488.72928      85353.196      44.029112      44.029112      44.029112      0.97743892    -17.888939     -649.62547      80.56385     
     34000   34000          440.55311      151.79279      8699.474       8508.7825      8499.5013      9.2811503      1707.6696      7420.796      -9055.564      -78.248477     -2511.4989      7998.187      -5472.0601     -484.26582      86139.893      44.16397       44.16397       44.16397       0.96851217    -598.14139      263.92969      789.59008    
     34500   34500          442.90812      1196.3645      9989.4962      8509.4285      8544.9361     -35.507633      1762.4237      7496.4833     -9097.6513     -87.011661     -2600.0628      7975.5768     -5485.2656     -491.7518       84828.578      43.93872       43.93872       43.93872       0.98348383    -759.58137      1718.2018      2630.473     
     35000   35000          438.65944      195.67817      8723.7066      8480.5275      8462.9671      17.560364      1799.7945      7586.7952     -9174.3379     -84.067339     -2613.7853      7989.6122     -5486.4511     -489.53081      85213.443      44.005069      44.005069      44.005069      0.97904195     736.70443      755.17526     -904.84518    
     35500   35500          439.07451      59.201012      8446.1574      8372.5821      8470.9751     -98.392961      1782.5641      7399.1815     -9074.5225     -83.85179      -2637.0897      7994.744      -5479.4186     -489.50999      85217.067      44.005693      44.005693      44.005693      0.97900032     1191.8717     -988.43379     -25.834914    
     36000   36000          433.5741      -59.178544      8196.6158      8270.2037      8364.8568     -94.653088      1759.9426      7319.3153     -9020.197      -82.944313     -2594.2169      8003.0558     -5479.6085     -489.23984      85264.123      44.013791      44.013791      44.013791      0.97846002     855.55483     -682.25661     -350.83385    
     36500   36500          441.62255     -867.61469      7511.6234      8591.2437      8520.1338      71.109932      1776.7863      7615.4003     -9170.6385     -82.070567     -2557.6387      7981.6794     -5492.4083     -488.89981      85323.423      44.023992      44.023992      44.023992      0.97777999    -1330.3852     -897.42631     -375.03256    
     37000   37000          438.97376     -600.33644      7835.566       8589.4911      8469.0314      120.45967      1779.1797      7556.6171     -9117.3109     -80.487411     -2531.0624      7991.8482     -5478.3247     -484.4295       86110.787      44.158996      44.158996      44.158996      0.96883954    -1673.6349     -140.20927      12.834849    
     37500   37500          445.30553     -902.93182      7307.0723      8424.4953      8591.1888     -166.69358      1755.3663      7382.9403     -9125.1926     -81.268759     -2627.5757      8004.4321     -5475.3952     -491.58815      84856.817      43.943595      43.943595      43.943595      0.98315655    -990.71581     -1170.9704     -547.1093     
     38000   38000          432.86361     -242.56785      7957.5528      8259.2013      8351.1494     -91.948045      1770.0954      7564.29       -9184.763      -85.280767     -2661.1247      7984.1842     -5479.3492     -489.21081      85269.183      44.014662      44.014662      44.014662      0.97840195     187.80943     -1341.0847      425.57176    
     38500   38500          444.47658     -746.75322      7578.7187      8519.3608      8575.1962     -55.835416      1839.6659      7387.4157     -9068.9874     -81.499521     -2622.7049      7973.4474     -5483.1727     -482.96619      86371.69       44.203549      44.203549      44.203549      0.96591297     111.39994     -888.30761     -1463.352     
     39000   39000          437.46387     -142.65825      8308.1289      8486.312       8439.9014      46.410609      1800.7119      7618.7546     -9194.8016     -83.825525     -2612.5221      7996.8606     -5478.7673     -487.07344      85643.36       44.078949      44.078949      44.078949      0.97412731    -1151.3226      662.46706      60.880813    
     39500   39500          439.60919     -905.29051      7326.5108      8452.6679      8481.2904     -28.62258       1752.5016      7575.073      -9154.3594     -83.256189     -2625.9129      7985.0039     -5477.6726     -489.04973      85297.269      44.019494      44.019494      44.019494      0.9780798     -1511.3314     -149.66727     -1054.8728    
     40000   40000          440.15247      1249.2035      10116.488      8564.5551      8491.7719      72.783187      1712.2565      7526.046      -9067.6465     -85.572252     -2550.7143      8012.8406     -5474.4269     -489.6935       85185.133      44.000195      44.000195      44.000195      0.97936732     1266.3356      1376.0358      1105.2392    
     40500   40500          450.73369      229.47799      8931.1051      8646.1847      8695.9132     -49.72852       1743.5092      7670.4963     -9209.3353     -89.979408     -2656.0847      7973.0283     -5481.3629     -489.98357      85134.702      43.99151       43.99151       43.99151       0.97994746     1335.3331      209.34881     -856.24794    
     41000   41000          437.58149      517.53104      9060.3785      8421.1718      8442.1706     -20.998712      1782.004       7441.7241     -9059.9998     -87.113305     -2609.0697      7993.8346     -5482.3786     -492.56001      84689.388      43.914674      43.914674      43.914674      0.98510023     2551.7443     -152.37067     -846.78049    
     41500   41500          442.75203     -1344.3219      6732.7732      8420.7988      8541.9246     -121.12583      1779.4156      7493.6674     -9109.0408     -86.303608     -2689.1681      7976.1245     -5485.8209     -484.49385      86099.351      44.157041      44.157041      44.157041      0.96896823    -968.65752     -870.5931      -2193.715     
     42000   42000          444.19469     -699.2641       7935.856       8803.583       8569.7577      233.82523      1886.4933      7618.9673     -9113.3857     -84.532601     -2569.2214      7978.0298     -5482.5255     -490.25515      85087.542      43.983386      43.983386      43.983386      0.98049061    -876.02979     -563.09705     -658.66547    
     42500   42500          438.93556      839.90017      9458.1383      8417.3203      8468.2944     -50.974047      1828.1603      7532.8777     -9153.5391     -88.432432     -2685.06        7994.3349     -5479.3154     -490.92701      84971.095      43.963312      43.963312      43.963312      0.9818343     -257.18958      1945.638       831.25211    
     43000   43000          436.11126      593.17613      9132.6892      8394.7168      8413.8057     -19.088908      1737.1779      7383.3985     -9055.9642     -81.521783     -2529.9525      8001.3163     -5473.5432     -488.99856      85306.193      44.021029      44.021029      44.021029      0.97797748     830.93921      1819.4679     -870.87871    
     43500   43500          431.45864      99.548843      8467.1973      8343.0362      8324.0436      18.992603      1783.6054      7581.1851     -9121.7338     -84.1831       -2646.8857      7988.2495     -5481.2447     -487.76946      85521.151      44.057973      44.057973      44.057973      0.97551932     99.046659      255.97482     -56.37495     
     44000   44000          434.95771     -1018.3616      7133.3493      8406.7134      8391.5506      15.162875      1798.6269      7493.5268     -9061.0219     -83.963321     -2640.2343      7989.0531     -5480.8244     -486.5343       85738.262      44.095225      44.095225      44.095225      0.97304906    -723.17327     -1249.4257     -1082.486     
     44500   44500          442.49094     -668.80897      7698.8314      8530.6686      8536.8875     -6.2189115      1702.6268      7725.2271     -9193.6476     -85.618508     -2647.0226      7979.7712     -5487.5552     -489.13393      85282.585      44.016967      44.016967      44.016967      0.9782482     -825.26037     -980.24896     -200.91758    
     45000   45000          442.34606      270.8194       8879.9086      8543.2782      8534.0925      9.1856941      1782.8871      7488.1489     -9129.4801     -86.834264     -2571.7331      8005.8092     -5479.6121     -489.42985      85231.021      44.008094      44.008094      44.008094      0.97884003    -318.08823      1257.8315     -127.28507    
     45500   45500          449.48674      356.41402      9224.353       8778.6484      8671.8562      106.79219      1775.2795      7556.4116     -9073.6661     -87.011182     -2585.2828      8000.2263     -5479.1651     -486.48741      85746.527      44.096641      44.096641      44.096641      0.97295527     1628.6566     -526.97682     -32.437766    
     46000   46000          444.53133      1345.0867      10251.896      8596.0911      8576.2524      19.838655      1724.1064      7588.1304     -9045.3741     -87.630979     -2650.2154      7976.8848     -5486.0625     -494.2026       84407.904      43.865967      43.865967      43.865967      0.98838534     1335.0707      514.26672      2185.9228    
     46500   46500          435.39092     -579.38884      7753.6572      8473.228       8399.9084      73.319625      1833.3992      7445.5117     -9004.6359     -84.101182     -2622.603       7987.3232     -5481.5742     -489.84716      85158.411      43.995594      43.995594      43.995594      0.97967464     145.86593     -442.15358     -1441.8789    
     47000   47000          437.98318     -254.52714      8106.9427      8421.9518      8449.9203     -27.968528      1812.2995      7514.1778     -9135.7276     -78.40851      -2632.5931      7971.4186     -5479.1352     -491.55826      84861.976      43.944485      43.944485      43.944485      0.98309678    -1533.3439      887.72899     -117.96655    
     47500   47500          437.4837       802.65784      9574.7502      8572.6673      8440.2838      132.3835       1758.0319      7573.2734     -9024.9955     -85.740321     -2571.5177      7967.7552     -5484.4234     -487.29375      85604.64       44.072305      44.072305      44.072305      0.97456792     361.56175      794.81144      1251.6003    
     48000   48000          443.55258      32.644133      8617.237       8576.825       8557.3696      19.455413      1828.817       7442.1406     -9058.6165     -87.298912     -2602.3474      7977.9389     -5481.1782     -491.42714      84884.619      43.948393      43.948393      43.948393      0.98283454    -340.97518      187.81017      251.09742    
     48500   48500          440.12141     -147.53801      8434.6299      8616.8163      8491.1727      125.64356      1832.3842      7705.1622     -9119.9349     -85.219449     -2703.9529      7982.1631     -5484.9587     -492.66538      84671.275      43.911543      43.911543      43.911543      0.98531097     262.15903     -1242.9365      538.16339    
     49000   49000          445.89088      331.80121      9116.0648      8703.8715      8602.4819      101.38955      1829.5725      7537.1119     -9089.6581     -85.706235     -2587.9212      7979.6895     -5481.6987     -489.71228      85181.865      43.999632      43.999632      43.999632      0.97940489     332.28886      339.04953      324.06522    
     49500   49500          445.74547     -274.43365      8161.3327      8503.3616      8599.6765     -96.314942      1792.8692      7463.0183     -9098.6024     -82.312774     -2672.5581      7990.5224     -5489.2516     -488.13349      85457.374      44.047018      44.047018      44.047018      0.97624736    -531.56251     -945.55119      653.81276    
     50000   50000          434.79211      1387.088       10184.428      8470.398       8388.3556      82.042374      1833.2083      7532.4207     -9078.052      -84.310625     -2610.7867      7975.0184     -5485.4557     -492.3225       84730.245      43.921735      43.921735      43.921735      0.98462521     1299.047       1281.066       1581.151     
     50500   50500          441.57651      314.14813      8802.1299      8410.8089      8519.2457     -108.43678      1769.8344      7433.8796     -9121.4289     -77.728175     -2613.6962      7985.7437     -5485.0413     -488.38836      85412.776      44.039355      44.039355      44.039355      0.9767571     -99.534576      656.4083       385.57067    
     51000   51000          435.39786      5.3154552      8393.1282      8386.5013      8400.0422     -13.540947      1807.8647      7483.0156     -9106.129      -76.239014     -2644.0467      7997.318      -5475.3246     -487.97088      85485.85       44.05191       44.05191       44.05191       0.97592216    -608.30837     -992.47892      1616.7337    
     51500   51500          435.36726      847.2951       9477.4315      8423.0421      8399.4519      23.590162      1658.5549      7587.2087     -9076.478      -86.390649     -2542.9537      7971.5185     -5487.8696     -488.87485      85327.78       44.024742      44.024742      44.024742      0.97773006     719.17179      919.14316      903.57037    
     52000   52000          445.05286     -532.01624      7832.3826      8495.903       8586.3141     -90.411099      1761.8209      7388.6645     -9068.704      -79.785183     -2590.5135      7982.562      -5484.4558     -487.79194      85517.21       44.057296      44.057296      44.057296      0.97556428     44.175098     -1127.2721     -512.9517     
     52500   52500          442.67667     -1004.9615      7379.275       8647.0368      8540.4709      106.56592      1900.193       7466.6702     -9119.299      -81.727957     -2538.5403      7964.972      -5485.702      -482.25396      86499.249      44.225299      44.225299      44.225299      0.96448855    -1071.6064     -1760.3817     -182.89635    
     53000   53000          439.47208      957.13611      9743.0974      8552.6552      8478.6452      74.009952      1776.6805      7530.9845     -9103.7692     -88.492199     -2536.2186      7977.9757     -5483.1507     -489.13578      85282.262      44.016912      44.016912      44.016912      0.97825191     310.73955      63.11785       2497.5509    
     53500   53500          446.07972     -402.88702      8072.5285      8574.4673      8606.1251     -31.657807      1752.8282      7578.3248     -9126.4122     -87.47884      -2664.855       7992.8373     -5476.9021     -488.31099      85426.309      44.04168       44.04168       44.04168       0.97660237    -1430.4794     -256.20609      478.02445    
     54000   54000          437.71039      202.02571      8740.7154      8489.3502      8444.6573      44.69285       1681.4262      7551.1965     -9007.8356     -84.701166     -2617.9963      7998.4372     -5475.8339     -488.95119      85314.457      44.02245       44.02245       44.02245       0.97788274    -645.12708      1068.2796      182.92464    
     54500   54500          437.9959       875.51757      9482.7622      8396.341       8450.1657     -53.824672      1725.9045      7449.6852     -9062.2093     -78.255796     -2614.0938      7994.5489     -5469.4044     -490.26474      85085.878      43.983099      43.983099      43.983099      0.98050978     152.4502       1244.6669      1229.4356    
     55000   55000          440.7704       323.03495      8930.6001      8527.221       8503.6935      23.527445      1717.8246      7563.1855     -9103.1263     -85.266577     -2579.8468      7993.8669     -5483.1099     -487.19192      85622.532      44.075376      44.075376      44.075376      0.97436426     842.37886     -1892.4218      2019.1478    
     55500   55500          438.63856      421.70603      8912.4576      8388.3446      8462.5644     -74.219828      1692.399       7425.5894     -9062.1623     -83.685711     -2552.1639      7986.6749     -5480.8711     -489.49573      85219.549      44.00612       44.00612       44.00612       0.9789718      1060.5715     -133.40884      337.95539    
     56000   56000          438.5674      -681.83308      7688.5558      8538.3367      8461.1915      77.145254      1841.882       7464.5852     -9084.8069     -85.780862     -2578.7513      7993.8992     -5473.882      -488.12955      85458.063      44.047137      44.047137      44.047137      0.97623948     77.60919      -1032.7099     -1090.3985    
     56500   56500          442.64233     -230.65641      8359.7915      8647.9662      8539.8083      108.15783      1756.0859      7631.9005     -9099.0912     -85.952231     -2594.5144      7972.4327     -5472.7034     -486.93801      85667.18       44.083035      44.083035      44.083035      0.97385645    -1585.0312      271.69019      621.37179    
     57000   57000          440.34708      214.38154      8890.2867      8620.9068      8495.5265      125.38031      1739.8276      7635.9127     -9124.4616     -82.174104     -2549.5493      7984.4666     -5478.6417     -484.15698      86159.258      44.167279      44.167279      44.167279      0.9682945     -1549.3323      303.75909      1888.7178    
     57500   57500          432.40593      394.27621      8961.5841      8464.4647      8342.3196      122.14508      1790.3495      7623.6415     -9170.4907     -85.613123     -2530.14        7971.2804     -5476.8825     -482.50725      86453.842      44.217559      44.217559      44.217559      0.96499512     184.85236      613.73726      384.23899    
     58000   58000          436.6258       988.02476      9746.2888      8519.7315      8423.7327      95.998855      1733.4469      7698.1054     -9167.035      -89.965646     -2574.6192      7974.6768     -5478.6104     -490.05409      85122.452      43.9894        43.9894        43.9894        0.98008849     1891.9292      717.8292       354.31586    
     58500   58500          433.14461     -156.99072      8242.8067      8439.0883      8356.5707      82.51757       1797.7593      7645.995      -9103.8024     -89.246072     -2655.036       7968.8397     -5481.992      -486.58474      85729.376      44.093701      44.093701      44.093701      0.97314992    -726.36004      1079.2522     -823.86435    
     59000   59000          436.83076     -1.9523288      8433.4272      8435.8665      8427.6868      8.1796753      1777.7989      7569.2838     -9068.4193     -82.701471     -2665.676       7969.5538     -5491.6602     -486.90447      85673.08       44.084047      44.084047      44.084047      0.97378938     22.783223     -987.91375      959.27354    
     59500   59500          429.96966     -875.02494      7480.0338      8570.6175      8295.3171      275.30042      1832.4001      7666.1755     -9015.8646     -89.613244     -2618.5881      7985.8656     -5485.0747     -488.11873      85459.957      44.047462      44.047462      44.047462      0.97621785     98.884877     -994.7586      -1729.2011    
     60000   60000          443.17277     -649.10111      7810.815       8622.6756      8550.042       72.633588      1799.3378      7540.6266     -9094.7336     -86.574706     -2582.1717      7976.343      -5480.1937     -486.40154      85761.665      44.099236      44.099236      44.099236      0.97278354    -236.9969      -849.25634     -861.05008    
     60500   60500          437.37443     -980.59072      7224.8365      8452.6079      8438.1758      14.432183      1781.553       7588.4993     -9197.3003     -85.989314     -2574.1452      7982.0155     -5480.2008     -485.8859       85852.678      44.114831      44.114831      44.114831      0.97175227     264.59807     -187.39616     -3018.9741    
     61000   61000          433.52122     -573.58974      7614.4372      8334.0761      8363.8365     -29.760399      1780.4688      7473.2228     -9082.1317     -83.09555      -2624.5354      7984.5272     -5478.2165     -484.89845      86027.508      44.144755      44.144755      44.144755      0.96977742    -352.12677     -570.82316     -797.81929    
     61500   61500          435.44877     -26.505642      8362.6814      8395.604       8401.0244     -5.4203946      1756.8344      7608.0741     -9129.0661     -82.514047     -2656.3298      7978.2418     -5480.6608     -489.78828      85168.648      43.997357      43.997357      43.997357      0.97955688     1444.2788     -1315.7567     -208.03904    
     62000   62000          439.66421     -450.73588      7918.0517      8477.7964      8482.3521     -4.5556764      1731.3836      7518.5944     -9095.6119     -80.177915     -2572.9355      7979.8636     -5485.672      -489.88726      85151.441      43.994393      43.994393      43.994393      0.97975483     195.07812     -688.64025     -858.64552    
     62500   62500          447.20406     -5.1729741      8680.1458      8686.6927      8627.8167      58.875928      1745.1791      7553.3807     -9196.7289     -80.626301     -2464.9154      7979.5814     -5476.9947     -480.69632      86779.541      44.273017      44.273017      44.273017      0.96137332    -1288.3714      490.99997      781.85254    
     63000   63000          448.73283     -104.13494      8700.0696      8831.9918      8657.3111      174.68074      1813.6754      7546.7688     -9084.8686     -89.565717     -2516.9476      7983.52       -5477.9016     -480.22262      86865.141      44.287569      44.287569      44.287569      0.96042595    -823.95617     -232.94962      744.50099    
     63500   63500          441.28985      460.53938      9266.3341      8690.4162      8513.7152      176.70099      1758.9355      7448.4971     -8974.8328     -87.17951      -2465.3141      7983.3677     -5486.773      -486.48589      85746.795      44.096687      44.096687      44.096687      0.97295223     1421.1002     -913.98673      874.50471    
     64000   64000          440.59397     -656.70687      7801.884       8622.7199      8500.2898      122.43014      1795.6886      7684.7357     -9134.4731     -82.649848     -2624.9288      7970.3608     -5486.3032     -486.72008      85705.536      44.089614      44.089614      44.089614      0.97342061    -105.49649      465.32598     -2329.9501    
     64500   64500          439.26432     -209.49009      8120.9575      8380.2732      8474.6371     -94.363935      1723.8526      7545.7031     -9137.1392     -84.97152      -2619.8952      7965.0241     -5486.9379     -491.47199      84876.873      43.947056      43.947056      43.947056      0.98292423    -659.97953      353.67848     -322.16922    
     65000   65000          439.1127       245.58941      8689.1836      8383.4401      8471.7118     -88.271717      1733.9623      7457.4336     -9069.723      -88.321393     -2611.3618      7974.9829     -5485.2442     -488.67091      85363.391      44.030865      44.030865      44.030865      0.97732218    -382.07298     -646.04897      1764.8902    
     65500   65500          436.87958     -568.18974      7932.3954      8642.6671      8428.6287      214.03837      1862.778       7651.7995     -9104.4381     -83.11747      -2613.1528      7978.2175     -5478.0483     -486.66819      85714.676      44.091181      44.091181      44.091181      0.97331682    -368.11677      1341.792      -2678.2445    
     66000   66000          443.58302      715.77173      9546.7064      8652.0743      8557.9568      94.11747       1800.9607      7483.1326     -9062.6341     -85.309251     -2530.0706      7974.4045     -5486.3664     -486.73669      85702.612      44.089112      44.089112      44.089112      0.97345383     722.81738      1323.9455      100.55233    
     66500   66500          434.9567       927.20311      9646.3656      8494.1805      8391.5311      102.6494       1807.5783      7500.4375     -9069.894      -82.24232      -2558.0386      7983.6374     -5478.829      -489.57209      85206.258      44.003832      44.003832      44.003832      0.9791245      1666.5949      2170.7754     -1055.761     
     67000   67000          446.35227     -843.71462      7685.7347      8743.4363      8611.3834      132.0529       1854.0145      7563.1547     -9124.5319     -86.454288     -2595.2613      8001.5722     -5480.4411     -485.28452      85959.069      44.133046      44.133046      44.133046      0.97054955    -602.28283     -2107.0019      178.14082    
     67500   67500          437.99963      379.95708      9164.394       8689.4623      8450.2376      239.22476      1819.4778      7598.1896     -9071.6336     -86.316536     -2551.8808      8004.1392     -5472.7509     -486.70678      85707.878      44.090015      44.090015      44.090015      0.97339401     24.872179      1329.5148     -214.51572    
     68000   68000          439.0519       1424.5668      10371.483      8578.7196      8470.5388      108.18087      1778.3937      7568.6788     -9092.7737     -81.636075     -2576.0164      7994.9552     -5483.4206     -483.41932      86290.729      44.189733      44.189733      44.189733      0.96681922     1705.0418      786.75594      1781.9026    
     68500   68500          427.8373       17.520058      8468.4243      8446.5891      8254.1779      192.41121      1804.3694      7662.1976     -9093.9705     -88.841763     -2604.7125      7988.1643     -5474.7955     -488.13891      85456.424      44.046855      44.046855      44.046855      0.97625821     500.01934      553.49777     -1000.9569    
     69000   69000          438.22129     -325.02772      8080.4433      8486.8443      8454.5141      32.330203      1742.4823      7589.1527     -9186.7212     -83.534135     -2539.404       7985.9759     -5475.6213     -486.55243      85735.069      44.094677      44.094677      44.094677      0.9730853      900.45682      35.293222     -1910.8332    
     69500   69500          439.65643      175.5239       8805.8694      8585.4022      8482.202       103.20028      1757.7074      7662.6309     -9108.0829     -83.683894     -2633.9192      7983.0054     -5474.4575     -484.34672      86125.505      44.161511      44.161511      44.161511      0.96867397    -167.51202      954.636       -260.55228    
     70000   70000          445.03342     -103.74703      8573.5105      8703.6627      8585.939       117.72368      1770.2876      7619.9567     -9166.6219     -86.947361     -2518.9309      7982.531      -5482.5514     -484.94023      86020.098      44.143488      44.143488      44.143488      0.96986097     68.616942     -676.21563      296.35761    
     70500   70500          440.88275     -897.96332      7268.4307      8386.9755      8505.8611     -118.88554      1771.7361      7503.5395     -9185.2963     -82.566469     -2607.7028      7969.6384     -5488.2339     -488.39276      85412.007      44.039222      44.039222      44.039222      0.9767659      794.27066     -2160.1755     -1327.9852    
     71000   71000          445.0005       27.540287      8601.7726      8567.422       8585.3039     -17.881951      1816.8139      7486.6994     -9142.1596     -83.768486     -2594.5978      7983.0031     -5483.8724     -487.75099      85524.39       44.058529      44.058529      44.058529      0.97548238     39.927602     -865.90117      908.59443    
     71500   71500          444.70143      814.69962      9630.7085      8607.5153      8579.5342      27.981167      1714.8142      7482.8461     -9076.4772     -84.540923     -2519.222       7993.6765     -5483.1155     -484.39976      86116.074      44.159899      44.159899      44.159899      0.96878006     3.987256       1403.3134      1036.7982    
     72000   72000          433.26483      581.23157      9019.8558      8297.2834      8358.89       -61.60661       1766.5384      7471.972      -9134.6134     -83.914801     -2598.1999      7994.8836     -5478.2726     -489.36386      85242.514      44.010072      44.010072      44.010072      0.97870806    -894.11084      1723.997       913.80856    
     72500   72500          437.10525      131.97005      8398.9701      8234.3667      8432.9826     -198.61588      1687.2007      7463.7872     -9199.3747     -84.679715     -2587.0472      8001.0595     -5479.5617     -487.75383      85523.893      44.058444      44.058444      44.058444      0.97548805     430.88605     -318.59051      283.6146     
     73000   73000          443.54022     -44.47233       8464.3437      8520.0664      8557.1312     -37.064725      1746.6304      7560.8896     -9192.6026     -85.723933     -2589.2739      7998.748      -5475.7321     -485.53571      85914.599      44.125434      44.125434      44.125434      0.97105191    -755.78353     -219.2568       841.62334    
     73500   73500          444.73469     -22.960678      8570.4785      8599.1699      8580.1757      18.994247      1791.3623      7570.949      -9179.1718     -82.338282     -2580.9962      7977.6837     -5478.4946     -486.85162      85682.38       44.085642      44.085642      44.085642      0.97368368    -730.91506     -112.72788      774.76091    
     74000   74000          441.31078      1123.6421      10023.818      8617.9669      8514.1189      103.84799      1790.0732      7636.2391     -9181.1471     -84.725585     -2555.3705      7975.6943     -5476.9155     -486.24221      85789.766      44.104052      44.104052      44.104052      0.97246489     589.28906      1511.0201      1270.617     
     74500   74500          443.63434     -1003.4122      7152.9851      8408.0234      8558.9469     -150.92347      1739.5091      7404.2448     -9084.2889     -78.631292     -2634.7778      7983.3737     -5480.353      -486.39198      85763.35       44.099525      44.099525      44.099525      0.97276443     362.99045     -1396.0187     -1977.2083    
     75000   75000          439.55047      181.76119      8660.5805      8435.6523      8480.1577     -44.505412      1738.9517      7615.1299     -9190.4688     -82.72974      -2674.3252      8020.6344     -5471.6976     -491.6107       84852.925      43.942923      43.942923      43.942923      0.98320165     178.99883      392.41044     -26.125696    
     75500   75500          440.17592     -1709.926       6405.3386      8526.8813      8492.2244      34.656872      1891.6607      7575.0602     -9194.4599     -86.506548     -2680.1036      8005.5644     -5476.5583     -490.33124      85074.339      43.981111      43.981111      43.981111      0.98064277    -1217.4143     -1937.3124     -1975.0512    
     76000   76000          443.06255     -208.76969      8366.3005      8625.6575      8547.9155      77.741953      1795.5943      7579.0779     -9119.5944     -81.492982     -2609.5259      7994.232      -5480.5489     -489.70384      85183.334      43.999885      43.999885      43.999885      0.97938801    -623.65488     -854.06703      851.41283    
     76500   76500          446.60278      1045.9228      9780.9146      8488.2051      8616.2164     -128.01132      1789.6236      7428.6855     -9123.8011     -81.72721      -2643.6042      7987.4497     -5484.6376     -492.22393      84747.211      43.924666      43.924666      43.924666      0.98442809     692.22315      1098.2803      1347.2651    
     77000   77000          443.10628     -161.02513      8191.0625      8390.5834      8548.7592     -158.17576      1741.5305      7536.7543     -9232.4923     -82.62856      -2608.6381      7969.959      -5482.6607     -490.98608      84960.872      43.961549      43.961549      43.961549      0.98195244    -1259.6598      1057.1361     -280.55166    
     77500   77500          441.12218      1122.0007      9890.1013      8492.9405      8510.4804     -17.539901      1770.0101      7474.2552     -9131.5678     -84.907384     -2556.6062      7987.0709     -5475.7947     -488.55197      85384.173      44.034438      44.034438      44.034438      0.97708431     980.09926      1210.2018      1175.701     
     78000   78000          437.1349      -12.55962       8348.4286      8364.0247      8433.5545     -69.529863      1726.3441      7521.7391     -9124.9599     -83.217036     -2643.9843      8005.9956     -5471.4474     -489.9198       85145.785      43.993419      43.993419      43.993419      0.97981991     685.86041     -265.35624     -458.18302    
     78500   78500          439.98097      1159.8594      9964.9555      8525.7323      8488.4632      37.269095      1729.574       7631.3379     -9131.2755     -86.967416     -2639.2691      8012.9851     -5479.1159     -490.27667      85083.807      43.982742      43.982742      43.982742      0.98053364     1158.2163      1069.3235      1252.0383    
     79000   79000          448.22299     -14.808761      8635.8185      8654.3186      8647.4748      6.8437922      1751.5112      7645.9813     -9155.9825     -84.395656     -2657.2907      7985.7284     -5478.7083     -486.97791      85660.16       44.081831      44.081831      44.081831      0.97393625     357.3535      -1363.2254      961.44558    
     79500   79500          447.58549      584.40183      9390.1479      8663.106       8635.1757      27.930244      1777.54        7613.34       -9155.5734     -83.278294     -2639.9111      7995.1944     -5479.3813     -489.00824      85304.505      44.020738      44.020738      44.020738      0.97799683    -21.68674      -1.7391062      1776.6313    
     80000   80000          446.22201     -554.77474      7958.2503      8644.0426      8608.8704      35.172266      1828.3186      7578.0556     -9087.8131     -88.669696     -2706.6053      7991.443      -5479.5568     -492.13932      84761.783      43.927184      43.927184      43.927184      0.98425886     431.579       -1741.336      -354.56722    
     80500   80500          444.29089     -31.917519      8456.7775      8496.2786      8571.6136     -75.335062      1809.5624      7502.3439     -9177.3569     -85.092734     -2640.4835      7993.0114     -5477.3196     -491.56938      84860.058      43.944154      43.944154      43.944154      0.983119       673.48071     -41.892487     -727.34078    
     81000   81000          433.2034      -650.6983       7671.1644      8482.0484      8357.7049      124.34358      1753.9475      7671.5434     -9087.8705     -84.394506     -2643.9115      7993.4174     -5478.3882     -488.1856       85448.251      44.045451      44.045451      44.045451      0.97635159    -780.36113     -749.35707     -422.37669    
     81500   81500          435.12009      240.69654      8561.1234      8263.3163      8394.6833     -131.367        1722.9566      7556.4498     -9187.4605     -80.64269      -2665.365       8004.4888     -5481.7941     -491.6985       84837.773      43.940307      43.940307      43.940307      0.98337725     824.95818      440.01661     -542.88517    
     82000   82000          434.2442      -466.33287      7706.1402      8284.2786      8377.7849     -93.506284      1731.645       7570.3581     -9160.3506     -84.055427     -2656.1086      7987.8888     -5482.8835     -490.71377      85008.02       43.96968       43.96968       43.96968       0.98140781    -505.07223     -777.46598     -116.46039    
     82500   82500          435.27553     -135.71828      8169.4129      8338.6381      8397.6821     -59.044015      1780.8904      7507.2218     -9137.0495     -82.213709     -2642.72        7990.39       -5475.563      -487.90731      85496.988      44.053823      44.053823      44.053823      0.97579503    -1531.2873      567.83336      556.29907    
     83000   83000          442.42603      822.00303      9507.171       8491.3076      8535.6352     -44.327587      1754.1836      7666.5658     -9216.884      -89.674299     -2672.7463      7990.5254     -5476.2978     -492.26858      84739.525      43.923338      43.923338      43.923338      0.98451738     344.43828      721.02862      1400.5422    
     83500   83500          439.06919     -109.73534      8447.9027      8583.7781      8470.8724      112.90565      1841.2481      7537.9902     -9064.3547     -81.356948     -2641.3619      7999.0375     -5478.2967     -491.32606      84902.084      43.951407      43.951407      43.951407      0.98263237    -332.66133      351.31726     -347.86195    
     84000   84000          445.14029     -142.60359      8281.9296      8458.4146      8588.0008     -129.58626      1772.8146      7638.2199     -9270.0094     -87.181922     -2689.5911      7991.6123     -5485.4506     -491.57148      84859.695      43.944091      43.944091      43.944091      0.98312321     161.05851     -1262.6758      673.80652    
     84500   84500          433.9314      -47.897507      8011.473       8070.8012      8371.7501     -300.9489       1674.6087      7334.236      -9111.4        -82.384629     -2625.3114      7991.673      -5482.3706     -491.15201      84932.17       43.956598      43.956598      43.956598      0.98228428     99.554567      528.02201     -771.2691     
     85000   85000          445.50781      642.14859      9441.0388      8645.4572      8595.0914      50.365825      1818.489       7521.7724     -9080.6458     -90.877115     -2635.7208      7998.4699     -5481.1217     -491.03772      84951.938      43.960008      43.960008      43.960008      0.98205571     1423.4034     -92.753423      595.79583    
     85500   85500          439.08131      945.31689      9722.0651      8544.857       8471.1063      73.75068       1757.7727      7536.4247     -9107.9321     -87.615048     -2535.8821      7993.6104     -5482.6279     -488.52659      85388.608      44.0352        44.0352        44.0352        0.97703356     1650.7108      709.85882      475.38106    
     86000   86000          441.77091     -32.566461      8370.4685      8410.9834      8522.9961     -112.01275      1782.5958      7463.5595     -9169.4706     -81.536617     -2624.0348      8002.9963     -5486.1223     -489.0128       85303.71       44.020602      44.020602      44.020602      0.97800595    -575.49452     -687.45899      1165.2541    
     86500   86500          440.26038      668.31013      9381.1347      8547.8039      8493.8539      53.94999       1748.6205      7591.0504     -9127.5839     -87.619174     -2572.6373      7991.7845     -5489.6649     -487.89307      85499.484      44.054252      44.054252      44.054252      0.97576653     203.72637      157.63558      1643.5684    
     87000   87000          437.19215     -968.94492      7285.0189      8493.5466      8434.659       58.887548      1805.9185      7585.1649     -9140.423      -84.520057     -2611.725       7986.177      -5481.7047     -487.76038      85522.742      44.058246      44.058246      44.058246      0.97550117    -1042.9206     -2343.0734      479.15924    
     87500   87500          442.23837     -90.720113      8431.0884      8543.4062      8532.0147      11.391487      1799.3397      7563.5602     -9139.9621     -80.211583     -2623.3618      7978.7193     -5486.6923     -491.38175      84892.46       43.949746      43.949746      43.949746      0.98274376     157.31619     -949.53064      520.0541     
     88000   88000          435.07909      581.46419      9102.583       8384.0131      8393.8923     -9.8791945      1711.5481      7645.5585     -9168.1985     -85.344702     -2640.8037      8010.3283     -5482.9672     -492.28657      84736.428      43.922803      43.922803      43.922803      0.98455337    -295.34323      1343.073       696.66281    
     88500   88500          433.40882     -829.163        7225.9924      8257.5115      8361.668      -104.15652      1772.3964      7514.4178     -9084.7313     -86.635148     -2737.4724      7996.9177     -5479.0496     -489.02007      85302.442      44.020383      44.020383      44.020383      0.97802048    -1855.0192     -578.81591     -53.653916    
     89000   89000          435.57098     -775.27378      7419.5977      8382.9896      8403.3821     -20.392565      1760.4988      7578.2312     -9153.8558     -82.2089       -2621.4147      7983.0909     -5484.7342     -489.57151      85206.358      44.003849      44.003849      44.003849      0.97912336    -399.09778     -416.82219     -1509.9014    
     89500   89500          435.58408      34.981981      8542.4982      8498.9249      8403.6349      95.290023      1770.1747      7484.23       -9105.6339     -82.975764     -2497.2481      8003.6305     -5476.8874     -488.41377      85408.333      44.038591      44.038591      44.038591      0.97680791     113.3835       655.66421     -664.10177    
     90000   90000          437.68736     -667.84619      7682.6873      8509.446       8444.2131      65.232941      1835.024       7509.5478     -9128.494      -79.685004     -2578.9669      7989.088      -5481.2809     -491.43006      84884.115      43.948306      43.948306      43.948306      0.98284038    -574.82302     -618.04916     -810.66639    
     90500   90500          439.34431     -136.5279       8187.6088      8356.2482      8476.1803     -119.9321       1753.6574      7412.2411     -9106.3121     -83.766118     -2617.5153      7996.4514     -5474.6885     -492.52283      84695.781      43.915779      43.915779      43.915779      0.98502587     174.56224      219.05724     -803.20318    
     91000   91000          443.25791     -366.68166      8052.8625      8508           8551.6846     -43.684592      1771.4297      7465.1117     -9034.2215     -80.185721     -2678.6104      7990.4948     -5477.7031     -490.12918      85109.411      43.987154      43.987154      43.987154      0.98023867     219.30207      529.13464     -1848.4817    
     91500   91500          442.58042      121.84172      8611.3756      8459.376       8538.6139     -79.237882      1713.8123      7552.1985     -9209.8766     -80.724417     -2581.7988      8008.2235     -5481.0723     -487.66062      85540.239      44.061251      44.061251      44.061251      0.97530165    -168.19044      394.29904      139.41655    
     92000   92000          438.61855      545.25339      9285.0029      8610.0595      8462.1783      147.88119      1817.044       7604.6787     -9111.34       -89.052968     -2591.0569      7997.6368     -5480.0286     -491.46774      84877.608      43.947183      43.947183      43.947183      0.98291573    -272.38501      1087.7317      820.41343    
     92500   92500          448.77503      272.9435       9064.3562      8725.0006      8658.1251      66.875475      1780.0849      7629.5023     -9184.7699     -87.271521     -2591.6146      7994.9115     -5473.9671     -489.30734      85252.36       44.011767      44.011767      44.011767      0.97859503    -929.71796     -676.32035      2424.8688    
     93000   93000          446.88457     -731.29185      7674.0642      8582.1235      8621.653      -39.5295        1797.7117      7478.7219     -9070.6174     -83.709827     -2666.7875      7987.9802     -5482.8285     -489.93737      85142.731      43.992893      43.992893      43.992893      0.97985505    -2404.8635      134.00586      76.982127    
     93500   93500          440.84288      804.42438      9420.2202      8422.532       8505.0919     -82.559941      1747.6939      7406.1887     -9082.9282     -85.264018     -2579.8803      7993.8614     -5482.2315     -490.51741      85042.049      43.975546      43.975546      43.975546      0.98101512     1195.3557      457.58088      760.33652    
     94000   94000          439.82766     -686.02243      7616.9433      8476.846       8485.5053     -8.6593594      1783.7695      7398.6831     -9058.6969     -84.373876     -2556.8896      7987.6922     -5478.8439     -485.34777      85947.868      44.131129      44.131129      44.131129      0.97067604     239.07715     -1526.4305     -770.71394    
     94500   94500          448.30455     -351.27396      8084.8008      8518.8523      8649.0483     -130.19603      1691.0264      7456.6581     -9102.6499     -81.456368     -2594.0862      7981.3685     -5481.0566     -492.34405      84726.536      43.921094      43.921094      43.921094      0.98466832    -1522.9668     -266.36881      735.51376    
     95000   95000          444.83207     -684.33939      7776.2476      8623.1863      8582.0544      41.13181       1753.445       7555.2105     -9045.7493     -85.082285     -2661.354       8006.2604     -5481.5985     -491.56798      84860.298      43.944195      43.944195      43.944195      0.98311622    -173.05026     -328.86868     -1551.0992    
     95500   95500          440.82032      245.76958      8889.4891      8582.0786      8504.6566      77.422024      1772.3831      7467.2484     -9060.0178     -82.515431     -2544.3255      8001.3976     -5476.7484     -486.37753      85765.899      44.099962      44.099962      44.099962      0.97273551     1442.2827      504.96146     -1209.9354    
     96000   96000          438.44388      404.61631      8902.4536      8397.5332      8458.8084     -61.275191      1765.5773      7407.4529     -9149.4069     -81.768583     -2512.0961      7991.0959     -5482.1297     -487.51104      85566.484      44.065756      44.065756      44.065756      0.97500249    -197.72798     -73.856231      1485.4331    
     96500   96500          438.85137      101.39116      8609.0246      8482.8071      8466.6701      16.136951      1790.0494      7531.0593     -9068.598      -83.237872     -2639.8728      7975.3522     -5488.6152     -488.70239      85357.891      44.02992       44.02992       44.02992       0.97738515     645.47123     -795.96091      454.66315    
     97000   97000          446.25175      243.16104      8748.3092      8444.8896      8609.4441     -164.5545       1725.4955      7435.0028     -9145.5523     -87.138725     -2589.4956      7979.6327     -5482.4988     -487.54457      85560.6        44.064746      44.064746      44.064746      0.97506955    -58.093722      381.04589      406.53095    
     97500   97500          446.13911     -413.47345      8038.9576      8551.8674      8607.271      -55.403682      1775.8808      7552.197      -9134.1431     -83.428569     -2663.4762      7983.1641     -5485.5977     -490.42289      85058.44       43.978371      43.978371      43.978371      0.98082607     563.39775     -1221.8925     -581.92562    
     98000   98000          444.30986     -67.239972      8495.9828      8579.2423      8571.9797      7.2626444      1858.5666      7542.0654     -9177.1902     -83.059413     -2631.0788      7974.4287     -5476.4698     -491.3126       84904.408      43.951808      43.951808      43.951808      0.98260546    -243.18961      618.73042     -577.26072    
     98500   98500          440.54703     -1238.88        6944.7437      8503.935       8499.384       4.5509197      1786.9564      7499.1678     -9176.2545     -81.774297     -2547.0361      7997.7981     -5474.3065     -483.38579      86296.714      44.190755      44.190755      44.190755      0.96675217    -1096.3798     -686.12297     -1934.1373    
     99000   99000          440.61707      669.85094      9243.2494      8402.1299      8500.7354     -98.605506      1777.3233      7406.8877     -9168.4791     -86.675471     -2550.1766      8002.1009     -5479.5862     -484.48966      86100.096      44.157168      44.157168      44.157168      0.96895985    -470.46188      1665.6619      814.35277    
     99500   99500          438.50724      716.84836      9391.4107      8493.8689      8460.0309      33.838086      1764.6189      7600.7125     -9196.5854     -82.799353     -2550.2596      7983.0933     -5484.9423     -485.88857      85852.205      44.11475       44.11475       44.11475       0.97175763     159.92297      1655.9299      334.69219    
    100000   100000         437.38203      148.33158      8685.981       8501.0265      8438.3223      62.704191      1834.1097      7502.4657     -9073.5779     -80.897147     -2589.5192      7955.8883     -5485.7653     -487.90235      85497.858      44.053973      44.053973      44.053973      0.9757851     -781.97735      1581.5004     -354.5283     
    100500   100500         441.18792      7.5778298      8274.7128      8265.309       8511.7486     -246.43958      1767.0748      7359.5455     -9131.7187     -84.03022      -2667.4799      7992.5197     -5482.3508     -490.23734      85090.633      43.983919      43.983919      43.983919      0.98045499    -1329.4198      1151.6568      200.49642    
    101000   101000         439.85814     -287.82408      7995.3814      8351.9877      8486.0936     -134.10585      1775.0192      7489.5469     -9180.542      -82.297666     -2656.7252      7996.8943     -5476.0015     -491.02333      84954.427      43.960437      43.960437      43.960437      0.98202694    -226.02788     -381.74623     -255.69813    
    101500   101500         445.16453      218.6267       8679.8716      8410.05        8588.4685     -178.41851      1789.5685      7429.2655     -9154.6684     -83.220801     -2670.5749      7990.3484     -5479.1367     -492.93596      84624.798      43.903507      43.903507      43.903507      0.98585211     311.69277     -477.1728       821.36012    
    102000   102000         441.78731      637.42092      9288.4874      8496.8373      8523.3126     -26.475382      1804.6702      7541.7975     -9167.3133     -84.38671      -2601.4805      7967.2617     -5487.0242     -489.84317      85159.105      43.995713      43.995713      43.995713      0.97966665     603.61712     -97.676741      1406.3224    
    102500   102500         437.5964       233.12359      8772.1933      8483.198       8442.4583      40.739743      1803.9965      7590.8091     -9198.4322     -86.974419     -2579.8957      7988.3415     -5477.105      -490.74915      85001.892      43.968623      43.968623      43.968623      0.98147858     18.459577      949.61444     -268.70324    
    103000   103000         437.95126      711.63687      9252.6607      8369.657       8449.3044     -79.647389      1836.5916      7524.074      -9189.9264     -85.1411       -2649.6006      7967.8843     -5483.5293     -490.29785      85080.133      43.982109      43.982109      43.982109      0.98057599     359.92809      703.1696       1071.8129    
    103500   103500         448.10339      1018.2536      9784.4785      8521.393       8645.1674     -123.77441      1777.2103      7564.4674     -9190.2641     -83.972029     -2683.2162      7983.9522     -5491.952      -490.44154      85055.206      43.977813      43.977813      43.977813      0.98086337     597.10083      1977.6325      480.02748    
    104000   104000         439.72857     -459.92731      7826.1792      8397.269       8483.5938     -86.324776      1812.6331      7436.851      -9147.2462     -76.63327      -2586.1944      7959.5116     -5485.2466     -489.9467       85141.111      43.992614      43.992614      43.992614      0.97987371     336.17651     -927.85563     -788.10281    
    104500   104500         437.52784      701.04008      9196.0725      8332.6381      8441.1356     -108.49743      1732.9762      7491.5448     -9119.3963     -90.190632     -2600.7606      7965.2986     -5487.9694     -493.9438       84452.129      43.873626      43.873626      43.873626      0.98786776     1544.058       139.38947      419.67278    
    105000   105000         440.93913      998.05502      9657.9231      8419.6477      8506.9487     -87.301056      1821.4719      7384.1571     -9133.8469     -85.506968     -2566.9092      7976.5969     -5483.2639     -490.34444      85072.049      43.980716      43.980716      43.980716      0.98066917     1218.0575      1160.8749      615.23263    
    105500   105500         445.07829      32.094773      8807.285       8767.216       8586.8048      180.41115      1826.4612      7732.9959     -9127.1277     -82.849989     -2638.5899      7959.2356     -5489.7139     -487.29239      85604.878      44.072346      44.072346      44.072346      0.9745652      1253.7696     -51.325451     -1106.1598    
    106000   106000         439.30271     -352.3843       8098.6519      8536.8886      8475.3776      61.511018      1787.8444      7529.8531     -9090.1918     -85.67173      -2549.6024      7966.6538     -5497.3744     -489.18354      85273.935      44.015479      44.015479      44.015479      0.97834743     279.30859     -910.29278     -426.16871    
    106500   106500         436.50461     -132.83223      8253.6695      8417.9405      8421.3945     -3.4539769      1822.2162      7458.307      -9015.922      -87.418317     -2642.0585      7957.3146     -5495.8929     -491.93359      84797.231      43.933306      43.933306      43.933306      0.98384741     124.22946      582.86393     -1105.5901    
    107000   107000         435.88435     -344.46274      7835.8145      8259.8859      8409.428      -149.5421       1784.9832      7450.9502     -9088.2022     -88.769916     -2682.1604      7962.7358     -5489.079      -494.15964      84415.242      43.867238      43.867238      43.867238      0.98829942     735.10449     -845.73447     -922.75825    
    107500   107500         431.70262      287.5255       8543.9103      8189.5001      8328.7506     -139.25055      1682.3179      7467.9583     -9113.2045     -85.934211     -2610.8469      8002.831      -5482.3722     -493.5535       84518.913      43.885188      43.885188      43.885188      0.98708718     980.87548      576.67077     -694.96974    
    108000   108000         437.55756      809.98605      9297.8779      8303.4252      8441.7088     -138.2836       1756.1618      7503.1307     -9097.8591     -85.991764     -2693.1297      7970.2555     -5490.851      -495.51573      84184.221      43.827184      43.827184      43.827184      0.99101155     2081.9143     -98.64024       446.68407    
    108500   108500         437.43316     -297.54597      8049.6069      8417.9421      8439.3089     -21.366835      1775.688       7593.862      -9100.0964     -85.409941     -2686.29        7967.022      -5486.1425     -491.44505      84881.526      43.947859      43.947859      43.947859      0.98287035    -1730.6193      649.98577      187.99562    
    109000   109000         437.524        461.74089      9071.2406      8495.4187      8441.0614      54.35729       1801.0281      7528.6494     -9080.6084     -84.78636      -2603.9449      7978.365      -5484.3455     -487.83636      85509.423      44.055959      44.055959      44.055959      0.97565312     771.79455     -289.51538      902.94351    
    109500   109500         441.71972      106.62502      8685.734       8553.4219      8522.0085      31.413399      1780.6174      7597.5879     -9146.8039     -85.970329     -2608.7525      7983.6747     -5488.9399     -490.2565       85087.308      43.983346      43.983346      43.983346      0.9804933      108.41004     -7.1170374      218.58205    
    110000   110000         435.2296      -5.6305408      8338.3722      8345.3169      8396.796      -51.479055      1820.9093      7457.3429     -9145.8831     -85.236505     -2588.711       7975.6851     -5485.5857     -493.23935      84572.746      43.894504      43.894504      43.894504      0.98645888     1762.2752     -403.40119     -1375.7656    
    110500   110500         436.92188     -99.695882      8028.7637      8152.5784      8429.4448     -276.86635      1749.0385      7381.397      -9159.3886     -81.166389     -2672.3664      7989.208      -5483.5884     -489.85648      85156.791      43.995315      43.995315      43.995315      0.97969328    -230.26685     -1270.9413      1202.1205    
    111000   111000         433.74526      782.25392      9445.5408      8479.4805      8368.159       111.32153      1825.7012      7596.902      -9152.773      -83.982929     -2570.3046      7978.1932     -5482.4144     -492.61491      84679.95       43.913043      43.913043      43.913043      0.98521002    -487.5602       1006.6028      1827.7191    
    111500   111500         440.14767      1102.069       9870.7174      8512.1313      8491.6793      20.451987      1740.5084      7669.8788     -9121.528      -85.011482     -2672.4112      7977.3162     -5488.3007     -493.49827      84528.373      43.886826      43.886826      43.886826      0.98697671     674.95403      836.99358      1794.2593    
    112000   112000         438.85228     -597.95011      7640.3417      8379.3819      8466.6876     -87.305784      1822.6592      7506.1614     -9139.6103     -86.889046     -2688.6289      7981.2101     -5482.2083     -492.22194      84747.555      43.924726      43.924726      43.924726      0.9844241     -317.19564     -1152.1532     -324.50147    
    112500   112500         434.05441     -833.88366      7264.8771      8310.4985      8374.1232     -63.624757      1793.0194      7436.2717     -9124.9958     -85.689995     -2589.359       7986.9373     -5479.8084     -485.17123      85979.141      44.136481      44.136481      44.136481      0.97032297    -89.215103     -918.3046      -1494.1313    
    113000   113000         443.60131     -518.48182      8018.6097      8663.9818      8558.3098      105.67199      1818.3987      7713.7303     -9112.8681     -90.844399     -2697.6837      7960.6188     -5485.6796     -488.75069      85349.457      44.028469      44.028469      44.028469      0.97748174    -380.41702      182.02432     -1357.0528    
    113500   113500         448.70156      604.13866      9286.0262      8541.9198      8656.7078     -114.78796      1794.1218      7377.9862     -9082.3739     -83.10019      -2608.8625      7972.7134     -5485.2728     -493.93029      84454.439      43.874027      43.874027      43.874027      0.98784073     146.55722     -1049.1037      2714.9625    
    114000   114000         441.38549     -263.23519      8074.1431      8403.3083      8515.5604     -112.25208      1762.604       7359.7672     -9042.7162     -78.853216     -2634.0708      8000.0537     -5479.0368     -486.51253      85742.1        44.095883      44.095883      44.095883      0.97300551     821.18674     -559.32496     -1051.5673    
    114500   114500         435.82821     -1049.9367      7096.5586      8399.7222      8408.3449     -8.6226948      1721.79        7696.0454     -9120.8703     -88.144237     -2722.6133      7985.5526     -5480.3828     -490.1491       85105.952      43.986558      43.986558      43.986558      0.98027851    -1557.9556     -1084.9314     -506.92306    
    115000   115000         434.461       -673.94869      7546.6985      8383.6771      8381.9675      1.7096033      1805.4577      7455.1201     -9094.2752     -81.936024     -2606.6688      8002.2699     -5478.258      -489.86512      85155.289      43.995056      43.995056      43.995056      0.97971055    -923.13841     -397.03047     -701.6772     
    115500   115500         441.14182     -475.88337      8062.1705      8659.4476      8510.8593      148.58825      1760.9272      7591.7393     -9097.3907     -91.543556     -2537.539       7996.8835     -5474.4884     -484.71752      86059.621      44.150248      44.150248      44.150248      0.96941556    -1062.9999     -97.318914     -267.33131    
    116000   116000         438.37362      273.14703      8827.0837      8485.9343      8457.4529      28.481374      1724.8243      7645.0532     -9175.6753     -82.689591     -2597.9964      7992.5707     -5477.6055     -487.09738      85639.15       44.078227      44.078227      44.078227      0.97417519     325.83902      470.4197       23.18238     
    116500   116500         444.63905      685.78794      9317.1903      8458.0343      8578.3306     -120.29637      1733.8868      7407.2602     -9123.5855     -86.436742     -2558.3205      7990.2399     -5483.3405     -485.60352      85902.603      44.12338       44.12338       44.12338       0.97118752     1299.4655      320.16675      437.73159    
    117000   117000         437.3439       150.48538      8565.4108      8377.9401      8437.5867     -59.646595      1767.8237      7427.5368     -9088.399      -82.127345     -2560.2563      7962.914      -5487.1384     -488.34292      85420.725      44.040721      44.040721      44.040721      0.97666621     932.37255      525.95755     -1006.874     
    117500   117500         440.02718     -173.42694      8356.8579      8573.1789      8489.3547      83.824194      1775.7473      7509.3583     -9047.2258     -86.08425      -2561.0346      7978.6903     -5485.627      -487.73272      85527.594      44.059079      44.059079      44.059079      0.97544584    -6.120331       758.42629     -1272.5868    
    118000   118000         446.74171     -780.72365      7599.9097      8585.7868      8618.8967     -33.109957      1791.0471      7564.6222     -9157.9636     -85.040762     -2621.3478      7963.3556     -5487.7827     -481.76871      86586.375      44.240143      44.240143      44.240143      0.96351806    -873.0955      -1431.5892     -37.486224    
    118500   118500         447.83847     -27.990648      8502.1524      8537.039       8640.0564     -103.01746      1767.1042      7463.4986     -9158.5408     -88.457492     -2567.276       7964.3271     -5483.673      -488.11114      85461.285      44.04769       44.04769       44.04769       0.97620267     567.55612     -582.16091     -69.36716     
    119000   119000         437.62585      274.72587      8676.9665      8334.3119      8443.0264     -108.71447      1770.3768      7365.9355     -9080.4577     -80.008124     -2571.0516      7972.7044     -5486.2138     -487.76087      85522.658      44.058232      44.058232      44.058232      0.97550213    -505.23695      1174.8259      154.58864    
    119500   119500         439.09953      99.429152      8501.7576      8376.7405      8471.4578     -94.717322      1780.1194      7309.6698     -9054.5837     -80.381267     -2530.1449      7969.7788     -5489.1754     -483.84714      86214.431      44.176705      44.176705      44.176705      0.96767483     1104.6909     -638.33109     -168.0724     
    120000   120000         437.04835      552.64944      9108.4274      8418.9897      8431.8848     -12.895088      1784.3415      7438.0463     -9085.5705     -82.896817     -2562.1633      7975.7649     -5480.4173     -487.66178      85540.035      44.061216      44.061216      44.061216      0.97530396     123.9355       1336.311       197.70179    
    120500   120500         438.31856      101.9469       8603.8659      8475.6667      8456.3907      19.276017      1806.9851      7463.6354     -9166.2846     -84.509285     -2503.9859      7983.0396     -5479.6042     -483.78568      86225.384      44.178576      44.178576      44.178576      0.96755192     394.55539     -723.5418       634.82709    
    121000   121000         437.84668      115.30061      8633.5481      8489.528       8447.2869      42.2411        1752.1752      7605.0362     -9091.4682     -83.071536     -2640.1579      7984.3152     -5484.588      -487.04872      85647.707      44.079695      44.079695      44.079695      0.97407786    -656.31071      475.35866      526.85388    
    121500   121500         444.21976     -913.30372      7474.2695      8614.9205      8570.2412      44.679294      1782.252       7541.5619     -9130.6952     -85.063887     -2567.1067      7983.5585     -5479.8274     -487.10933      85637.049      44.077866      44.077866      44.077866      0.97419909    -2532.7057     -581.42912      374.22364    
    122000   122000         447.36431      183.88154      8782.0625      8552.2512      8630.9084     -78.657284      1707.6963      7510.2365     -9103.6222     -81.053703     -2602.042       7977.8952     -5487.7674     -486.7777       85695.392      44.087874      44.087874      44.087874      0.97353584     890.6621      -1314.1103      975.09281    
    122500   122500         441.82896     -212.68423      8334.1114      8601.5035      8524.1161      77.387471      1745.4167      7545.0022     -9063.9536     -86.051613     -2554.7273      7980.2928     -5488.5919     -483.89444      86206.003      44.175266      44.175266      44.175266      0.96776944     115.90203      78.229228     -832.18393    
    123000   123000         439.2078      -95.288316      8337.7528      8457.5007      8473.5466     -16.045843      1745.1482      7499.2342     -9114.0179     -86.818781     -2550.3799      7971.7396     -5480.9512     -484.10047      86169.316      44.168998      44.168998      44.168998      0.96818148     1039.9869     -860.64562     -465.20623    
    123500   123500         431.96384      65.925602      8469.7329      8387.6552      8333.7903      53.864976      1800.0616      7420.1291     -8958.7742     -86.979469     -2618.6745      7980.0133     -5481.9109     -488.64479      85367.954      44.03165       44.03165       44.03165       0.97726994    -655.10555      1213.5815     -360.69919    
    124000   124000         439.20031      141.76726      8676.3393      8498.3838      8473.4021      24.981632      1774.0838      7479.089      -9066.1812     -94.525901     -2565.7468      7975.6255     -5477.3628     -484.6503       86071.557      44.152289      44.152289      44.152289      0.96928112     19.14281       1159.9102     -753.75128    
    124500   124500         445.70998      1311.1743      10247.66       8610.4404      8598.9917      11.44864       1738.5008      7476.6906     -9117.6723     -85.558436     -2496.277       7982.4985     -5486.7336     -487.2115       85619.092      44.074785      44.074785      44.074785      0.97440342     2837.3522      980.56127      115.60962    
    125000   125000         442.63119      490.64102      9279.1356      8665.9485      8539.5934      126.35508      1843.6478      7610.8408     -9129.2454     -85.966978     -2614.3876      7978.8192     -5477.3527     -486.78241      85694.563      44.087732      44.087732      44.087732      0.97354526     1697.0072     -13.582507     -211.50158    
    125500   125500         436.53715     -1598.4294      6384.9405      8395.6148      8422.0222     -26.407488      1784.1492      7400.3644     -9076.5171     -81.700578     -2548.0796      7976.3443     -5480.9682     -483.63284      86252.634      44.183229      44.183229      44.183229      0.96724624    -554.16987     -2306.3924     -1934.7261    
    126000   126000         430.19264     -918.22019      7187.3064      8348.9461      8299.6189      49.32724       1828.7939      7468.9549     -9118.8353     -83.619133     -2554.7673      7987.5829     -5478.7827     -480.88298      86745.856      44.267288      44.267288      44.267288      0.96174664    -247.65225     -1062.3047     -1444.7036    
    126500   126500         434.67011      334.53718      8873.9147      8455.5409      8386.0019      69.539002      1816.0632      7543.8891     -9188.5208     -82.788063     -2516.0004      7976.4738     -5479.5778     -486.45639      85751.995      44.097579      44.097579      44.097579      0.97289323    -408.15678      634.22522      777.54311    
    127000   127000         445.1014      -838.46521      7564.7142      8620.5179      8587.2507      33.267204      1736.754       7410.1919     -8997.6068     -85.212278     -2535.3036      7984.0098     -5479.5658     -483.1321       86342.028      44.198488      44.198488      44.198488      0.96624479    -1829.8638      798.2843      -1483.8161    
    127500   127500         444.67709      234.90463      9064.3532      8766.8633      8579.0645      187.79882      1850.2047      7454.8607     -9013.8167     -85.635951     -2505.9584      7968.9819     -5480.8374     -480.37818      86837.011      44.282788      44.282788      44.282788      0.96073706    -148.55524      880.74073     -27.471595    
    128000   128000         440.94994     -678.97416      7806.4732      8660.966       8507.1574      153.80865      1859.3578      7471.526      -9102.4104     -89.363566     -2467.104       7963.7902     -5481.9874     -483.40247      86293.737      44.190247      44.190247      44.190247      0.96678552     225.81834     -1418.1279     -844.61291    
    128500   128500         443.01134      207.69204      8775.7183      8517.0579      8546.9275     -29.869611      1717.5343      7422.2599     -9040.1468     -82.219928     -2525.6563      7959.8409     -5481.4816     -488.48789      85395.373      44.036363      44.036363      44.036363      0.97695615     1104.4667      50.659147     -532.04969    
    129000   129000         437.7878      -1147.0634      7015.2135      8460.844       8446.1509      14.693091      1757.2518      7567.2316     -9072.8132     -88.609728     -2605.453       7948.33       -5491.2444     -482.71876      86415.962      44.2111        44.2111        44.2111        0.96541812    -1984.9327     -985.12481     -471.13272    
    129500   129500         439.01242     -232.97413      8312.0691      8605.7165      8469.7773      135.93928      1781.9979      7625.6673     -9128.579      -86.440306     -2540.7188      7969.645      -5485.6327     -482.66469      86425.642      44.212751      44.212751      44.212751      0.96530999    -1701.0547     -330.07923      1332.2115    
    130000   130000         439.00407     -332.75292      8138.6287      8551.7143      8469.6161      82.098254      1721.7374      7591.4704     -9012.5028     -86.479942     -2611.2948      7966.3137     -5487.1458     -490.0561       85122.103      43.98934       43.98934       43.98934       0.98009251     574.26985      383.84242     -1956.371     
    130500   130500         449.05757     -376.96397      8298.842       8769.1012      8663.5763      105.52489      1827.6071      7548.017      -9064.6047     -84.396976     -2603.8723      7963.9722     -5481.1975     -487.67068      85538.475      44.060948      44.060948      44.060948      0.97532176    -175.13339     -478.77981     -476.9787     
    131000   131000         444.70358     -701.24107      7777.5866      8656.1283      8579.5756      76.552696      1778.3799      7600.6139     -9112.2796     -83.699818     -2615.3445      7987.751      -5478.8682     -485.5892       85905.135      44.123814      44.123814      44.123814      0.97115888     256.36644     -1444.6891     -915.40052    
    131500   131500         436.83775      164.68056      8839.0778      8633.1412      8427.8217      205.31952      1829.482       7548.0382     -9032.2549     -83.174209     -2564.5993      7985.3982     -5477.5704     -486.48879      85746.283      44.0966        44.0966        44.0966        0.97295804     196.79982      244.19913      53.042725    
    132000   132000         435.25549     -562.16054      7692.4559      8395.8524      8397.2955     -1.4431274      1726.232       7461.2028     -9045.216      -83.021716     -2565.8617      7989.5721     -5484.3506     -486.21034      85795.389      44.105016      44.105016      44.105016      0.97240115     774.56439     -892.80245     -1568.2436    
    132500   132500         438.05649     -571.24985      7754.4159      8470.3869      8451.3345      19.052418      1794.1888      7510.193      -9071.3254     -80.026196     -2620.6023      7972.4309     -5485.8063     -485.39434      85939.621      44.129717      44.129717      44.129717      0.97076918    -1287.4062      498.79629     -925.13963    
    133000   133000         437.75402      266.41692      8773.0919      8441.1361      8445.4992     -4.3630368      1749.5864      7451.919      -9049.7604     -80.389463     -2566.8416      7978.664      -5487.5409     -488.2538       85436.316      44.0434        44.0434        44.0434        0.97648797     426.38894     -680.41082      1053.2726    
    133500   133500         438.9094      -57.701445      8507.2063      8580.0776      8467.7896      112.28804      1726.4774      7630.0433     -9093.4967     -84.85592      -2564.9168      7990.951      -5491.9143     -481.71932      86595.251      44.241654      44.241654      44.241654      0.96341929    -1848.246       244.92655      1430.2151    
    134000   134000         454.49786      158.3965       9206.7065      9007.5838      8768.5345      239.04929      1817.774       7607.8691     -9100.3123     -87.376118     -2510.9364      7991.0537     -5479.0227     -483.93706      86198.412      44.173969      44.173969      44.173969      0.96785467    -545.57528     -217.66539      1238.4302    
    134500   134500         440.27077      354.48725      8988.7071      8539.5575      8494.0542      45.50333       1737.5846      7482.6334     -9116.2458     -82.252678     -2479.2627      7988.6406     -5485.5941     -480.1464       86878.931      44.289913      44.289913      44.289913      0.9602735      56.878516      92.487444      914.0958     
    135000   135000         433.99024     -215.42849      8048.3927      8321.2155      8372.8853     -51.669812      1738.661       7501.4753     -9174.5517     -82.189343     -2519.3846      7971.1245     -5486.8051     -480.38176      86836.364      44.282678      44.282678      44.282678      0.96074422    -118.1719      -642.22431      114.11075    
    135500   135500         443.31987     -468.9151       8024.0332      8612.2064      8552.88        59.326371      1794.9869      7503.9979     -9077.0711     -89.032901     -2563.1948      7976.5916     -5486.9512     -485.0126       86007.263      44.141292      44.141292      44.141292      0.97000571    -1070.3069      879.54341     -1215.9818    
    136000   136000         439.80415     -112.75587      8537.1721      8680.2958      8485.0518      195.24404      1767.6359      7556.3758     -9056.0028     -84.710856     -2507.443       7993.8686     -5474.4796     -479.28239      87035.549      44.316511      44.316511      44.316511      0.95854552    -310.38704     -320.07694      292.19636    
    136500   136500         443.9637       472.49256      9304.3645      8713.0137      8565.3012      147.7125       1710.9191      7671.7939     -9171.2015     -87.909077     -2469.8566      7978.7827     -5484.816      -486.08679      85817.198      44.108753      44.108753      44.108753      0.97215404     443.13057      323.79045      650.55666    
    137000   137000         439.71785     -442.94461      8038.52        8592.8384      8483.3869      109.4516       1761.9795      7523.5772     -9071.6196     -86.932214     -2552.5712      8005.5276     -5470.5096     -486.13191      85809.231      44.107388      44.107388      44.107388      0.97224429     894.16514     -398.87245     -1824.1265    
    137500   137500         434.76463      537.20747      9042.6218      8371.1097      8387.8254     -16.715703      1693.4753      7526.4936     -9142.3005     -84.940884     -2524.8168      7994.6422     -5479.2686     -486.68978      85710.873      44.090529      44.090529      44.090529      0.97336        1334.349      -1050.8909      1328.1643    
    138000   138000         440.27692     -571.57525      7695.4324      8413.6438      8494.1729     -80.529171      1762.4093      7464.5718     -9133.5422     -82.597172     -2625.1146      8007.5642     -5473.8206     -484.15584      86159.461      44.167314      44.167314      44.167314      0.96829222    -1712.9301      46.702426     -48.498071    
    138500   138500         429.77438      654.07125      9241.471       8420.4305      8291.5495      128.88104      1727.8266      7740.3698     -9170.8056     -87.865081     -2611.2799      8001.9513     -5471.3161     -484.64585      86072.348      44.152424      44.152424      44.152424      0.96927222     1743.4317      235.1386      -16.356508    
    139000   139000         440.53147     -113.75049      8426.4533      8569.7203      8499.0839      70.636334      1727.5002      7578.9422     -9124.1974     -87.561751     -2559.9147      8012.1289     -5476.2611     -483.02681      86360.849      44.2017        44.2017        44.2017        0.96603422    -660.31329      114.23224      204.82959    
    139500   139500         441.58344      26.160225      8593.5068      8560.6797      8519.3794      41.300262      1754.6374      7483.9566     -9098.7662     -85.791228     -2545.1021      8008.6241     -5476.2584     -484.81075      86043.071      44.147417      44.147417      44.147417      0.96960202    -787.46825     -847.14726      1713.0962    
    140000   140000         440.07305      659.27359      9499.3596      8672.136       8490.2398      181.89627      1779.0725      7596.9066     -9117.7299     -86.8307       -2546.2209      8023.8103     -5467.1115     -484.84934      86036.223      44.146246      44.146246      44.146246      0.9696792     -483.22172      1558.2424      902.80007    
    140500   140500         445.29627     -564.14075      7964.8683      8674.4591      8591.0103      83.448759      1679.8641      7694.0996     -9102.7792     -84.931543     -2637.0768      8012.2889     -5478.0164     -483.66375      86247.12       44.182288      44.182288      44.182288      0.96730808    -1413.3005     -24.481388     -254.64038    
    141000   141000         439.69865     -401.99317      8018.4066      8523.0611      8483.0164      40.044673      1794.8031      7487.3701     -9107.8785     -83.641902     -2553.225       7987.6649     -5485.048      -484.60571      86079.476      44.153643      44.153643      44.153643      0.96919196     30.18221       17.591622     -1253.7533    
    141500   141500         438.99126     -516.30923      7949.8881      8602.4308      8469.3689      133.06184      1756.83        7524.1547     -9056.5426     -85.037949     -2505.408       7984.1247     -5485.059      -481.35448      86660.885      44.252829      44.252829      44.252829      0.96268963     308.27107      789.01436     -2646.2131    
    142000   142000         439.02481     -60.923443      8474.5239      8550.6783      8470.0161      80.662164      1830.1895      7406.618      -9076.2437     -87.258906     -2509.7494      7999.1896     -5482.0829     -486.69101      85710.655      44.090491      44.090491      44.090491      0.97336247    -610.85562      224.1716       203.91369    
    142500   142500         442.31074      891.3982       9661.0585      8550.4146      8533.4109      17.003686      1692.4634      7576.2333     -9082.7178     -91.003512     -2577.9645      7990.169      -5490.1763     -488.27101      85433.304      44.042882      44.042882      44.042882      0.97652241     395.65634      367.22825      1911.31      
    143000   143000         444.82965     -965.99568      7461.8332      8681.4161      8582.0078      99.408304      1792.6236      7584.1016     -9148.0275     -83.500201     -2542.9566      7980.8447     -5483.6773     -481.86777      86568.574      44.237111      44.237111      44.237111      0.96371618    -1728.1826      9.7707701     -1179.5752    
    143500   143500         441.10312     -639.34225      7805.2947      8611.403       8510.1126      101.2904       1805.0586      7478.0033     -9108.6007     -80.505243     -2518.3094      8001.8491     -5476.2053     -482.50748      86453.801      44.217552      44.217552      44.217552      0.96499558    -647.97021     -781.85388     -488.20267    
    144000   144000         433.99663     -1083.5189      7316.1348      8683.8643      8373.0085      310.85574      1905.2636      7609.8943     -9036.8767     -86.456248     -2576.3462      7976.7725     -5481.3954     -481.94812      86554.142      44.234652      44.234652      44.234652      0.96387687    -482.26414     -1446.6108     -1321.6816    
    144500   144500         443.61879     -21.604351      8458.8219      8485.8415      8558.6469     -72.805403      1697.3248      7535.6127     -9101.0116     -85.305118     -2624.3886      7990.4579     -5485.4955     -486.43668      85755.47       44.098174      44.098174      44.098174      0.97285381     977.20538      45.155361     -1087.1738    
    145000   145000         444.01284      1032.1421      10038.899      8747.1435      8566.2493      180.89413      1837.1518      7536.7765     -9063.3928     -82.846014     -2548.978       7984.3809     -5482.1982     -486.09742      85815.32       44.108431      44.108431      44.108431      0.97217532     750.73853      139.21128      2206.4765    
    145500   145500         445.22366     -740.1232       7690.3981      8621.4778      8589.6094      31.868385      1816.328       7524.7832     -9180.6214     -82.591833     -2541.5766      7978.1448     -5482.5977     -483.59431      86259.505      44.184403      44.184403      44.184403      0.96716919     42.318807     -1457.6792     -805.00922    
    146000   146000         442.42554      1078.0064      9889.0954      8536.5434      8535.6259      0.91748462     1738.4407      7379.8327     -9060.0438     -82.785799     -2494.5579      7998.1109     -5478.0793     -484.87676      86031.358      44.145414      44.145414      44.145414      0.96973403     987.35171      1051.6765      1194.9909    
    146500   146500         441.81133      403.21336      8998.2608      8497.4509      8523.7759     -26.325051      1748.3495      7476.0785     -9104.9818     -86.205395     -2539.0185      7967.3871     -5487.9344     -489.80814      85165.195      43.996762      43.996762      43.996762      0.9795966     -317.5895       1522.986       4.2435511    
    147000   147000         437.55917      850.87136      9574.6517      8509.9267      8441.7399      68.186816      1797.9125      7585.3703     -9158.332      -83.312998     -2584.6252      7991.1866     -5480.0123     -486.17264      85802.044      44.106156      44.106156      44.106156      0.97232574     777.91172      1002.3033      772.39904    
    147500   147500         443.98816      56.745852      8645.1624      8573.6756      8565.7731      7.9025534      1803.8824      7448.7934     -9157.7678     -82.072115     -2535.306       8004.7203     -5474.3475     -482.91684      86380.515      44.205054      44.205054      44.205054      0.96581429     795.22579     -438.34941     -186.63883    
    148000   148000         434.47855     -1263.1694      6769.0929      8341.6465      8382.3062     -40.659726      1743.0369      7523.9246     -9059.0225     -88.975652     -2677.8347      7993.5939     -5475.3822     -488.67506      85362.666      44.030741      44.030741      44.030741      0.97733048    -799.91703     -3269.3288      279.73782    
    148500   148500         438.26642      303.68624      8805.4595      8426.8774      8455.3848     -28.507353      1788.7699      7478.25       -9119.1546     -84.939515     -2622.2826      8005.9246     -5475.0751     -488.01042      85478.924      44.050721      44.050721      44.050721      0.97600123     24.239668      872.75505      14.064005    
    149000   149000         439.49354     -34.65755       8458.2776      8501.8515      8479.0592      22.792237      1817.7075      7509.1811     -9164.504      -89.055268     -2561.9983      7989.0037     -5477.5426     -483.87743      86209.034      44.175783      44.175783      44.175783      0.96773541    -19.160207      636.95953     -721.77197    
    149500   149500         436.25423      238.15376      8644.8085      8349.1634      8416.564      -67.400538      1741.44        7508.4699     -9106.351      -87.835554     -2628.1552      7988.8408     -5483.8095     -490.06185      85121.105      43.989168      43.989168      43.989168      0.980104       927.91996      1189.6451     -1403.1038    
    150000   150000         431.54513      349.66042      8699.2016      8263.934       8325.7123     -61.778352      1707.7104      7678.5322     -9168.3009     -85.189375     -2712.1077      7999.8763     -5482.2993     -488.71334      85355.98       44.029591      44.029591      44.029591      0.97740704    -427.3977       723.16186      753.2171     
    150500   150500         428.5446      -938.09039      7097.3033      8262.4595      8267.8237     -5.3641994      1849.0145      7457.4258     -9078.8484     -80.242051     -2650.1723      7987.2991     -5489.8408     -489.80654      85165.473      43.99681       43.99681       43.99681       0.9795934     -1200.0945      598.82232     -2212.9989    
    151000   151000         440.81568      644.95589      9401.849       8605.5509      8504.567       100.98389      1842.2635      7591.051      -9120.6295     -85.663128     -2626.32        7987.0338     -5486.7518     -492.74065      84658.341      43.909307      43.909307      43.909307      0.9854615     -267.85205      1033.7383      1168.9814    
    151500   151500         428.92127     -736.76759      7468.6059      8384.7845      8275.0907      109.69378      1833.8635      7668.3828     -9159.111      -85.068038     -2647.8135      7987.3434     -5487.9035     -489.23153      85265.571      44.01404       44.01404       44.01404       0.9784434     -1377.2438     -90.300303     -742.75867    
    152000   152000         437.16834     -608.02996      7738.9293      8496.8091      8434.1998      62.609276      1803.7417      7560.1212     -9130.1347     -87.797934     -2575.0448      7977.2856     -5485.5617     -488.07742      85467.191      44.048705      44.048705      44.048705      0.97613523     96.52687      -1012.2657     -908.35106    
    152500   152500         434.97176     -983.18228      7241.9827      8473.0378      8391.8216      81.216186      1773.5922      7670.6535     -9129.8991     -78.545875     -2657.9374      7990.922      -5487.5692     -485.87059      85855.384      44.115294      44.115294      44.115294      0.97172165    -2232.5953     -1027.3405      310.389      
    153000   153000         441.92533     -423.8894       8004.6163      8529.1423      8525.9754      3.1668728      1731.2528      7606.5979     -9134.1378     -84.547743     -2650.7596      8012.0795     -5477.3182     -491.64269      84847.403      43.941969      43.941969      43.941969      0.98326563    -856.95358     -1458.969       1044.2543    
    153500   153500         443.44655      220.76969      8840.4524      8567.9476      8555.3239      12.623658      1762.5517      7573.3806     -9045.4404     -86.037789     -2702.414       7996.783      -5486.1995     -492.86648      84636.728      43.90557       43.90557       43.90557       0.98571315     645.67638     -459.70975      476.34244    
    154000   154000         446.63551     -537.39017      8036.6508      8712.8045      8616.8478      95.956689      1723.2315      7693.0487     -9169.3638     -83.342484     -2587.9003      7993.446      -5473.163      -483.51319      86273.977      44.186873      44.186873      44.186873      0.96700695    -632.98463     -1616.9356      637.74969    
    154500   154500         444.21104     -3.5597317      8525.0873      8529.5643      8570.0731     -40.508785      1722.8574      7559.7847     -9113.3087     -86.256804     -2655.3074      8012.2253     -5480.5034     -483.71595      86237.814      44.180699      44.180699      44.180699      0.96741246    -263.3312       223.72984      28.922166    
    155000   155000         432.50463      648.03762      9057.8677      8251.2517      8344.2237     -92.972027      1775.5412      7522.8956     -9207.0887     -85.946019     -2589.5819      7981.9663     -5490.7585     -488.76198      85347.484      44.02813       44.02813       44.02813       0.97750433     1008.3264      199.73358      736.05291    
    155500   155500         438.45448     -667.59893      7499.3812      8323.9962      8459.013      -135.01676      1774.5968      7421.3193     -9023.9664     -84.350831     -2718.3859      7983.1128     -5487.3425     -492.52518      84695.377      43.915709      43.915709      43.915709      0.98503057    -2595.8516      238.23882      354.81596    
    156000   156000         438.40656     -405.36446      7873.7432      8374.0899      8458.0885     -83.99861       1866.3347      7481.5236     -9088.9261     -82.480834     -2754.5513      7978.6078     -5484.5064     -492.87716      84634.893      43.905253      43.905253      43.905253      0.98573452    -822.96078      356.20721     -749.33981    
    156500   156500         440.53112     -708.78551      7832.4584      8708.5398      8499.0772      209.4626       1890.8836      7680.4058     -9072.9011     -82.905134     -2720.1008      7995.8973     -5481.8171     -492.19185      84752.736      43.925621      43.925621      43.925621      0.98436392    -2216.3568     -47.627119      137.62739    
    157000   157000         445.30952      689.28643      9428.052       8567.3655      8591.2659     -23.900459      1735.2248      7575.6201     -9188.3255     -84.755676     -2562.7718      7985.9435     -5484.8359     -487.21289      85618.846      44.074743      44.074743      44.074743      0.97440621     741.45637      865.57982      460.82311    
    157500   157500         447.7548       875.65964      9596.0424      8505.5167      8638.4422     -132.92549      1756.1445      7421.3786     -9118.293      -77.145102     -2616.4144      7982.4406     -5481.0368     -488.49875      85393.475      44.036037      44.036037      44.036037      0.97697787     537.6356       966.70227      1122.6411    
    158000   158000         439.23902     -10.014042      8460.692       8473.2013      8474.1488     -0.94751675     1727.3882      7607.8893     -9152.4067     -80.329466     -2613.3375      7991.9097     -5482.061      -487.01233      85654.106      44.080793      44.080793      44.080793      0.9740051      49.80161      -220.67729      140.83355    
    158500   158500         438.83399     -740.50208      7650.3972      8584.3377      8466.3348      118.00287      1834.7812      7518.768      -9071.173      -85.418898     -2598.2258      7999.9039     -5480.6325     -482.35977      86480.275      44.222065      44.222065      44.222065      0.96470016    -587.52889     -752.23154     -881.7458     
    159000   159000         448.98569      9.7611484      8702.6117      8690.4091      8662.1894      28.219658      1767.8315      7496.6529     -9130.0208     -82.13605      -2554.0513      8007.6982     -5477.7548     -486.64344      85719.035      44.091928      44.091928      44.091928      0.97326732     1100.6626     -92.681369     -978.69779    
    159500   159500         440.01577     -422.93117      8099.7573      8625.8694      8489.1346      136.73481      1791.0327      7505.8539     -9025.4376     -85.518573     -2561.3643      7995.0882     -5482.9197     -489.05247      85296.79       44.019411      44.019411      44.019411      0.97808529     23.460467     -287.26887     -1004.9851    
    160000   160000         441.83847      1664.0875      10619.431      8541.0001      8524.2995      16.700565      1765.7623      7494.958      -9123.7549     -84.925045     -2558.5106      8001.7284     -5478.5576     -487.08477      85641.368      44.078607      44.078607      44.078607      0.97414997     1077.0112      1956.6998      1958.5516    
    160500   160500         439.1454      -742.13341      7620.1229      8553.1674      8472.3428      80.824607      1796.1462      7639.7514     -9140.6183     -85.221342     -2627.0317      7981.7579     -5483.9595     -483.88667      86207.388      44.175502      44.175502      44.175502      0.96775389    -1556.8716     -843.25481      173.72617    
    161000   161000         430.23337     -680.89042      7520.9155      8368.4848      8300.4047      68.080161      1769.2185      7640.0329     -9137.0811     -85.887135     -2625.017       7989.3288     -5482.5149     -488.72666      85353.653      44.029191      44.029191      44.029191      0.97743368     614.24205     -1753.4298     -903.48355    
    161500   161500         431.94395      267.99625      8798.848       8465.0555      8333.4065      131.64899      1822.9709      7584.071      -9093.8689     -86.162958     -2568.7041      7960.9909     -5487.6479     -488.44559      85402.77       44.037635      44.037635      44.037635      0.97687155    -19.406766     -649.89678      1473.2923    
    162000   162000         438.58354     -709.23415      7668.3968      8551.4407      8461.5029      89.937751      1810.5825      7484.2279     -9070.8965     -78.150665     -2564.0676      7987.9377     -5479.6956     -488.6202       85372.249      44.032388      44.032388      44.032388      0.97722077     177.72019     -1738.9832     -566.43943    
    162500   162500         440.31102     -180.22054      8346.5015      8572.7298      8494.8308      77.899017      1758.2956      7530.1213     -9067.5449     -87.854977     -2556.5705      7984.7812     -5483.3288     -484.64242      86072.955      44.152528      44.152528      44.152528      0.96926538    -1066.0719      442.55599      82.854244    
    163000   163000         434.06812     -848.21593      7359.5863      8424.9591      8374.3879      50.571245      1854.3854      7480.6387     -9065.2336     -83.758251     -2633.8906      7981.2997     -5482.87       -484.36066      86123.026      44.161087      44.161087      44.161087      0.96870186    -1530.4938     -719.71307     -294.44097    
    163500   163500         432.02352      562.64963      9008.0065      8309.5821      8334.9418     -25.35969       1764.2118      7515.5265     -9160.8404     -84.866235     -2559.796       7985.7538     -5485.3491     -490.09771      85114.876      43.988095      43.988095      43.988095      0.98017573    -39.14962       915.39003      811.70848    
    164000   164000         437.37662     -238.01886      8225.1492      8520.1218      8438.2179      81.90381       1832.8999      7490.4405     -9076.7183     -84.98787      -2616.173       8009.2224     -5472.7798     -490.90078      84975.635      43.964095      43.964095      43.964095      0.98178184     1053.2893     -1254.8024     -512.54353    
    164500   164500         434.38968     -243.88698      8149.4212      8451.1748      8380.5916      70.583279      1782.3064      7491.7914     -9000.6227     -86.449385     -2660.97        8020.5637     -5476.036      -491.69986      84837.539      43.940267      43.940267      43.940267      0.98337996     62.767782      258.23206     -1052.6608    
    165000   165000         442.5597      -660.52643      7600.5785      8418.9272      8538.2142     -119.28696      1785.2691      7517.2312     -9145.7804     -82.94489      -2699.4391      7993.1657     -5486.7886     -491.03886      84951.741      43.959974      43.959974      43.959974      0.98205798    -816.03674     -1186.0871      20.544523    
    165500   165500         436.24167     -1833.0382      6352.5072      8645.4623      8416.3216      229.14065      1818.0579      7663.7929     -9072.5385     -88.309179     -2607.7388      8003.8006     -5487.9243     -486.34003      85772.512      44.101095      44.101095      44.101095      0.97266052    -2467.894      -1855.0616     -1176.1591    
    166000   166000         440.24256     -813.21198      7489.7719      8502.9785      8493.51        9.4685901      1745.1194      7545.707      -9094.3961     -85.584098     -2622.9685      8011.0709     -5489.48       -488.28092      85431.57       44.042584      44.042584      44.042584      0.97654223    -91.030119     -2083.2655     -265.34027    
    166500   166500         436.92296      269.57756      8791.1724      8455.2404      8429.4655      25.774874      1714.6336      7489.9135     -9008.1144     -84.150336     -2622.9503      8014.4612     -5478.0183     -488.19847      85445.999      44.045064      44.045064      44.045064      0.97637732     311.34334     -206.2641       703.65346    
    167000   167000         449.43999      610.12448      9350.0598      8589.2447      8670.9542     -81.709525      1749.0563      7360.3465     -9082.37       -81.138722     -2564.8706      8020.5967     -5483.3296     -487.86912      85503.681      44.054973      44.054973      44.054973      0.97571864    -645.07077      2508.301      -32.856768    
    167500   167500         444.16098     -43.542818      8602.6637      8657.5526      8569.1073      88.445248      1779.6829      7581.6425     -9113.1274     -86.039513     -2595.568       8003.1161     -5481.2614     -482.6094       86435.543      44.214439      44.214439      44.214439      0.96519941    -576.62528      371.50323      74.493599    
    168000   168000         437.40746      382.40117      9029.6183      8555.2184      8438.8131      116.40533      1724.8443      7715.4849     -9164.6669     -87.074446     -2599.0065      8001.7688     -5474.9448     -490.38671      85064.715      43.979452      43.979452      43.979452      0.98075372    -463.66462      317.10453      1293.7636    
    168500   168500         443.5991       316.78007      8887.8562      8494.2063      8558.2671     -64.060814      1714.4479      7542.8335     -9170.7566     -84.895358     -2586.6241      8008.6353     -5487.7015     -489.5665       85207.23       44.003999      44.003999      44.003999      0.97911333     191.25841      936.14441     -177.06261    
    169000   169000         441.39603     -420.48111      8089.8267      8613.8499      8515.7636      98.086322      1809.395       7492.2312     -9068.5673     -77.861347     -2572.1372      7999.6558     -5484.6298     -488.15755      85453.161      44.046294      44.046294      44.046294      0.97629548     76.883428      163.78801     -1502.1148    
    169500   169500         441.82531      920.47928      9590.701       8437.5052      8524.0457     -86.540541      1746.8606      7456.7405     -9174.4814     -77.918254     -2563.4897      8007.4482     -5481.7006     -485.59586      85903.956      44.123612      44.123612      44.123612      0.97117222     1955.6315     -672.02677      1477.8331    
    170000   170000         434.32022     -1021.4535      7123.186       8400.6278      8379.2516      21.376274      1817.5647      7505.5391     -9119.1975     -87.414732     -2633.3034      8016.0155     -5477.8274     -486.45368      85752.473      44.097661      44.097661      44.097661      0.97288781    -2158.5614      845.45209     -1751.2512    
    170500   170500         443.34859      558.84514      9371.8579      8677.3901      8553.434       123.95602      1787.2481      7415.0892     -9027.7036     -83.516425     -2508.8393      8014.6485     -5472.9704     -489.5571       85208.866      44.004281      44.004281      44.004281      0.97909454     1357.4203      55.45324       263.66194    
    171000   171000         444.04952      640.75941      9453.6082      8653.3502      8566.957       86.393253      1735.9328      7671.8903     -9174.5218     -83.543563     -2587.1164      7999.5435     -5475.7915     -487.11219      85636.547      44.07778       44.07778       44.07778       0.97420481     812.55964      659.45914      450.25946    
    171500   171500         434.09679      449.88874      9056.0775      8492.5725      8374.9409      117.63153      1762.1388      7623.7673     -9117.6665     -83.286339     -2618.3722      8025.4728     -5474.4223     -485.70365      85884.892      44.120348      44.120348      44.120348      0.97138779     1105.6991      1014.4089     -770.44185    
    172000   172000         434.03149      1109.3734      9806.5717      8413.297       8373.6811      39.615838      1820.8853      7395.1073     -9128.172      -82.471193     -2475.0956      7995.1449     -5485.7829     -484.401        86115.854      44.159862      44.159862      44.159862      0.96878254     257.92811      1479.6065      1590.5856    
    172500   172500         439.5989      -191.24376      8473.2462      8714.4358      8481.092       233.34381      1746.2273      7618.7183     -9048.0424     -88.638674     -2527.3152      8009.4704     -5477.0759     -482.38393      86475.944      44.221327      44.221327      44.221327      0.96474848     662.68115     -1434.0263      197.61386    
    173000   173000         444.43572     -14.762792      8749.9812      8768.6283      8574.4078      194.22051      1813.3036      7460.4003     -9023.083      -81.149712     -2524.4003      8018.2937     -5469.1441     -481.63788      86609.894      44.244148      44.244148      44.244148      0.96325641    -1698.6954      1108.0921      546.31489    
    173500   173500         440.60758      475.52101      9304.7807      8709.6156      8500.5523      209.06335      1737.4131      7748.5194     -9163.621      -85.320442     -2545.4823      7999.1475     -5481.5929     -486.06722      85820.653      44.109345      44.109345      44.109345      0.9721149      668.86574      859.58479     -101.88751    
    174000   174000         443.07907     -68.348562      8606.818       8692.734       8548.2341      144.49988      1750.2802      7600.855      -9106.5245     -80.278621     -2549.5349      8012.08       -5482.3773     -483.97104      86192.359      44.172935      44.172935      44.172935      0.96792264    -431.55864     -474.84669      701.35965    
    174500   174500         433.43964     -278.13057      8228.9326      8577.9648      8362.2627      215.70213      1873.8144      7476.7974     -9018.0275     -86.281163     -2557.2562      8006.1513     -5479.4961     -484.78294      86048.006      44.148261      44.148261      44.148261      0.96954641    -572.81418      905.66814     -1167.2457    
    175000   175000         443.36124     -912.7564       7326.1218      8457.4932      8553.6781     -96.184937      1781.2722      7549.4892     -9175.3585     -81.403471     -2688.5055      8000.1173     -5481.7962     -490.81035      84991.291      43.966795      43.966795      43.966795      0.98160099    -353.24557     -36.438976     -2348.5846    
    175500   175500         440.3904      -427.64105      8049.39        8582.7499      8496.3623      86.387615      1778.9966      7574.9245     -9103.3501     -83.607056     -2588.6104      7992.9338     -5484.8998     -487.77892      85519.493      44.057688      44.057688      44.057688      0.97553824    -111.15384     -1151.5852     -20.184094    
    176000   176000         433.4889       169.94126      8498.9432      8287.8062      8363.213      -75.406815      1768.5074      7467.2539     -9115.6737     -85.329424     -2612.135       7988.3891     -5486.4192     -489.6645       85190.177      44.001064      44.001064      44.001064      0.97930933     642.091       -988.37321      856.106      
    176500   176500         434.73261      149.91685      8587.4779      8400.8517      8387.2076      13.644075      1801.3444      7545.2828     -9153.4108     -78.732505     -2607.8933      7991.4973     -5484.4438     -488.69963      85358.375      44.030003      44.030003      44.030003      0.97737962     273.97056      1.0219639      174.75804    
    177000   177000         435.86006      804.81116      9452.6333      8446.3191      8408.9593      37.359733      1764.9012      7530.2297     -9123.4119     -83.02067      -2562.2028      7991.7398     -5480.8756     -486.54655      85736.105      44.094855      44.094855      44.094855      0.97307355     240.96968      585.44012      1588.0237    
    177500   177500         436.78656     -1134.5223      6963.0168      8387.4665      8426.8342     -39.367668      1764.8263      7433.3174     -9108.0768     -78.249527     -2554.8506      7992.6147     -5488.9492     -484.54036      86091.086      44.155628      44.155628      44.155628      0.96906125    -1302.1691     -604.36318     -1497.0347    
    178000   178000         440.30191     -755.94999      7680.7154      8628.3032      8494.6551      133.64813      1796.1006      7693.0977     -9135.549      -85.304169     -2653.2507      7999.2832     -5480.7295     -485.33054      85950.918      44.131651      44.131651      44.131651      0.97064158    -912.56291     -606.42069     -748.86636    
    178500   178500         433.89865     -148.04563      8066.1632      8250.7829      8371.1183     -120.33534      1753.8919      7384.0235     -9052.3195     -81.520872     -2620.269       7977.4789     -5481.6202     -487.84456      85507.985      44.055712      44.055712      44.055712      0.97566952     559.16769     -1305.7604      302.45584    
    179000   179000         438.91687      725.79489      9381.2645      8478.2155      8467.9338      10.281736      1714.1237      7613.9981     -9099.1941     -83.505178     -2631.7335      7978.1745     -5481.5817     -488.95247      85314.235      44.022412      44.022412      44.022412      0.97788529     1448.0685     -902.92714      1632.2433    
    179500   179500         447.13098     -684.0714       7735.0927      8594.9974      8626.4068     -31.409454      1713.7462      7461.1592     -9119.9369     -82.888575     -2507.3207      7981.0857     -5477.2544     -483.96631      86193.202      44.173079      44.173079      44.173079      0.96791318    -370.13394     -403.85091     -1278.2294    
    180000   180000         442.33563     -4.2456995      8528.2218      8533.5347      8533.8912     -0.35649346     1716.7602      7477.632      -9073.2663     -84.339325     -2537.2126      7986.4412     -5486.3717     -486.16257      85803.82       44.106461      44.106461      44.106461      0.97230561     1256.5978     -1033.7601     -235.57476    
    180500   180500         439.15483     -352.91318      7959.4476      8403.4942      8472.5246     -69.030345      1770.6559      7483.5517     -9163.6486     -84.023652     -2557.8048      7966.4801     -5484.2409     -483.50768      86274.96       44.187041      44.187041      44.187041      0.96699593    -1404.0955      98.326301      247.02968    
    181000   181000         433.25025     -551.70555      7588.1215      8278.3686      8358.6088     -80.240118      1744.8777      7451.8543     -9114.2524     -90.389021     -2583.3553      7992.1798     -5481.1552     -486.25804      85786.974      44.103574      44.103574      44.103574      0.97249654    -2535.5623      1658.6839     -778.23822    
    181500   181500         439.18076     -20.214075      8597.8372      8623.3165      8473.0249      150.2916       1717.3459      7642.1339     -9147.1966     -87.199958     -2460.5447      7970.7377     -5484.9846     -482.64772      86428.68       44.213269      44.213269      44.213269      0.96527606    -1683.9365      871.56117      751.73312    
    182000   182000         443.97109     -727.63419      7707.81        8620.4269      8565.4437      54.983129      1832.4655      7476.4106     -9077.1885     -83.203409     -2587.2714      7978.7472     -5484.9769     -485.05237      86000.21       44.140086      44.140086      44.140086      0.97008525    -261.29975      127.99089     -2049.5937    
    182500   182500         435.99465      852.20308      9443.4303      8385.8695      8411.556      -25.686521      1800.1046      7447.3411     -9099.5506     -85.978966     -2584.0979      7984.8165     -5488.3212     -490.23215      85091.534      43.984074      43.984074      43.984074      0.9804446      393.99162      1165.283       997.3346     
    183000   183000         435.76668     -229.53871      8213.272       8501.8865      8407.1578      94.728674      1743.1497      7565.0026     -9045.7886     -83.88194      -2541.6295      7958.5709     -5500.6945     -483.84015      86215.677      44.176918      44.176918      44.176918      0.96766085    -1450.4635     -243.66384      1005.5112    
    183500   183500         440.30279     -791.47863      7662.1072      8665.3628      8494.672       170.69083      1747.7394      7619.0545     -9028.6266     -81.824998     -2565.5389      7969.6806     -5489.7931     -479.94516      86915.358      44.296102      44.296102      44.296102      0.95987104    -229.26995     -738.05409     -1407.1118    
    184000   184000         444.00332      331.57302      9170.8459      8755.0459      8566.0655      188.98037      1846.1662      7517.9028     -9057.0661     -79.249866     -2549.6836      7993.2517     -5482.3407     -485.13061      85986.341      44.137713      44.137713      44.137713      0.97024172     610.29338     -53.45238       437.87805    
    184500   184500         439.84363     -436.37696      8012.7151      8560.6494      8485.8135      74.835919      1741.9972      7596.2856     -9122.4757     -84.581561     -2565.6039      7991.942      -5482.7278     -484.50399      86097.549      44.156732      44.156732      44.156732      0.96898851    -1901.3146      697.56902     -105.38525    
    185000   185000         435.96739     -352.03471      7998.6295      8438.1236      8411.0301      27.093501      1781.9902      7513.5424     -9052.2495     -84.911797     -2631.3797      7984.8249     -5484.723      -487.30011      85603.522      44.072114      44.072114      44.072114      0.97458064    -160.89222      145.43363     -1040.6456    
    185500   185500         434.01083     -497.69229      7863.8205      8491.0954      8373.2826      117.81276      1780.6565      7609.3382     -9105.1448     -85.160719     -2568.4517      7972.3493     -5485.774      -482.68859      86421.362      44.212021      44.212021      44.212021      0.96535779    -675.66955     -650.32524     -167.08208    
    186000   186000         435.83701     -283.71802      8146.2615      8502.3272      8408.5145      93.812698      1828.6217      7489.5537     -9116.3548     -86.306466     -2479.0559      7945.9586     -5488.6041     -484.75327      86053.273      44.149162      44.149162      44.149162      0.96948706    -400.61774      219.55897     -670.09527    
    186500   186500         441.84008     -876.13499      7387.4145      8484.9346      8524.3307     -39.396121      1872.0446      7313.5381     -9063.1783     -83.196185     -2571.3692      7979.2146     -5486.4499     -485.64907      85894.545      44.122         44.122         44.122         0.97127862    -1680.0456     -318.07677     -630.28265    
    187000   187000         437.5648       668.09412      9207.1561      8377.3785      8441.8486     -64.470084      1838.5547      7367.8664     -9135.9655     -76.017211     -2566.7473      7988.6503     -5480.8116     -489.82394      85162.449      43.996289      43.996289      43.996289      0.97962819     737.22437      1271.3977     -4.3396933    
    187500   187500         435.28246      86.15984       8639.1005      8531.8809      8397.8158      134.06503      1864.0423      7561.542      -9153.1035     -86.294456     -2574.92        8000.356      -5477.5573     -488.87149      85328.368      44.024843      44.024843      44.024843      0.97772333    -52.858681      16.737666      294.60053    
    188000   188000         448.0877       59.383304      8835.9776      8760.7569      8644.8648      115.89214      1770.5985      7458.6959     -9122.3365     -81.509678     -2428.1746      7996.3759     -5477.7574     -480.27648      86855.4        44.285914      44.285914      44.285914      0.96053366     147.45722      38.312795     -7.6201043    
    188500   188500         439.32182      249.26109      8913.5073      8599.9376      8475.7464      124.19126      1787.0694      7483.0942     -9034.0676     -81.027538     -2525.4632      7982.5641     -5487.9782     -483.59804      86258.84       44.184289      44.184289      44.184289      0.96717664     940.23017      743.0705      -935.51741    
    189000   189000         440.54687     -646.57017      7757.0007      8570.678       8499.3811      71.296947      1777.9632      7566.6285     -9121.9486     -88.278149     -2538.6521      7960.5393     -5484.9552     -483.42319      86290.039      44.189615      44.189615      44.189615      0.96682695    -621.24088     -406.00659     -912.46304    
    189500   189500         432.82046     -311.35494      8049.7738      8439.3817      8350.3169      89.064748      1776.1147      7569.0185     -9040.5297     -81.645964     -2624.9429      7973.8731     -5482.8229     -486.17436      85801.74       44.106104      44.106104      44.106104      0.97232918    -934.82377      1314.3819     -1313.6229    
    190000   190000         438.74529     -307.93437      8104.8424      8489.0571      8464.6234      24.433683      1787.9214      7552.9511     -9116.848      -84.257697     -2609.4332      7979.1445     -5485.0444     -487.5827       85553.909      44.063598      44.063598      44.063598      0.9751458     -1177.7404      657.09501     -403.15769    
    190500   190500         440.69832     -1909.2377      6271.8878      8669.1405      8502.3028      166.83764      1888.6254      7591.9323     -9087.5903     -87.933902     -2642.4123      7984.4623     -5480.2459     -484.51835      86094.996      44.156296      44.156296      44.156296      0.96901724    -2412.7554     -2286.1181     -1028.8397    
    191000   191000         438.07775     -270.84483      8204.0074      8540.5377      8451.7448      88.79291       1776.1971      7511.7804     -9060.2116     -86.596982     -2570.1667      7998.9786     -5481.1879     -489.62128      85197.698      44.002358      44.002358      44.002358      0.97922289    -646.36684      202.14903     -368.31666    
    191500   191500         439.76869     -348.29324      7970.2721      8401.9157      8484.3677     -82.452         1771.677       7405.6718     -9040.1163     -84.66119      -2637.947       7986.3496     -5483.4259     -490.88955      84977.579      43.96443       43.96443       43.96443       0.98175938    -961.58295      270.01719     -353.31397    
    192000   192000         439.61713      313.62285      9009.9331      8619.1934      8481.4438      137.74963      1795.6679      7696.6445     -9142.6499     -83.955541     -2642.1325      7996.9526     -5482.7774     -488.29725      85428.713      44.042093      44.042093      44.042093      0.97657489    -375.41661      983.40696      332.8782     
    192500   192500         439.49757      7.6923103      8581.5505      8571.9604      8479.137       92.823337      1831.1485      7375.1016     -9001.8853     -82.708551     -2548.3108      7997.7227     -5478.2448     -487.97218      85485.623      44.051871      44.051871      44.051871      0.97592475     63.037426      277.58513     -317.54562    
    193000   193000         438.98244      331.77904      9048.9449      8633.5837      8469.1988      164.38491      1809.4628      7536.0357     -9101.931      -85.81704      -2520.4475      7994.908      -5467.8261     -485.94485      85842.263      44.113047      44.113047      44.113047      0.97187017     311.02312     -55.622588      739.93659    
    193500   193500         441.86484      63.415592      8700.9738      8621.8018      8524.8083      96.993451      1817.9852      7487.5602     -9088.3849     -85.887832     -2574.463       8013.1557     -5472.9718     -487.29063      85605.188      44.072399      44.072399      44.072399      0.97456168    -736.41076      1585.6551     -658.99756    
    194000   194000         440.9021      -612.2039       7743.2817      8506.1339      8506.2345     -0.10052998     1729.0758      7518.151      -9134.624      -83.922801     -2565.4525      8012.3458     -5475.6738     -488.22465      85441.417      44.044277      44.044277      44.044277      0.97642968    -1057.2427     -106.04841     -673.32053    
    194500   194500         433.71918     -1187.4204      6971.2216      8465.9535      8367.6558      98.297712      1830.7835      7462.1197     -9049.8462     -85.380972     -2600.804       8010.968      -5469.5423     -483.28713      86314.333      44.193762      44.193762      44.193762      0.96655483    -2389.8991     -1172.6417      0.27972926   
    195000   195000         441.49027      1780.4275      10851.142      8646.6674      8517.5817      129.08564      1753.1908      7586.8541     -9081.4395     -85.882916     -2561.6776      8000.0788     -5482.038      -491.34117      84899.472      43.950956      43.950956      43.950956      0.9826626      1556.74        2049.2298      1735.3127    
    195500   195500         441.19747     -256.10123      8299.0196      8617.4538      8511.9329      105.52085      1823.4464      7666.4394     -9167.5716     -83.707344     -2639.3647      7986.8829     -5480.6042     -489.27837      85257.408      44.012636      44.012636      44.012636      0.97853708     341.72602     -919.24959     -190.78013    
    196000   196000         438.89126     -499.4285       7878.7717      8497.8777      8467.4397      30.438028      1758.1903      7480.2334     -9027.1938     -83.060687     -2607.732       7993.0329     -5483.032      -490.76354      84999.399      43.968193      43.968193      43.968193      0.98150736    -1572.9078      318.48056     -243.85826    
    196500   196500         445.06258     -78.829359      8429.2269      8527.649       8586.5017     -58.852651      1792.402       7560.9724     -9171.2054     -84.043396     -2674.2747      7997.4786     -5480.1823     -487.25855      85610.823      44.073366      44.073366      44.073366      0.97449753     359.21595     -395.11836     -200.58567    
    197000   197000         434.29363     -999.16827      7164.8572      8418.0728      8378.7385      39.334303      1829.0215      7520.8659     -9143.4076     -82.697234     -2601.2802      7995.8952     -5479.0633     -485.03925      86002.536      44.140483      44.140483      44.140483      0.97005902     533.58213     -1675.0394     -1856.0475    
    197500   197500         436.71374      50.021222      8495.9983      8433.8543      8425.4292      8.4250572      1771.7068      7479.5471     -9083.7534     -81.381583     -2592.834       7990.4399     -5475.2998     -489.68728      85186.214      44.000381      44.000381      44.000381      0.97935489     614.22604      259.68188     -723.84425    
    198000   198000         443.71997     -478.04876      8179.2514      8779.8436      8560.5989      219.24469      1792.4162      7607.7383     -9071.6114     -79.187331     -2554.0509      7998.1531     -5474.2133     -484.23539      86145.305      44.164895      44.164895      44.164895      0.96845133    -1100.9675     -435.29631      102.11751    
    198500   198500         444.9819       1148.0214      10041.503      8611.3977      8584.9451      26.452635      1736.3741      7446.491      -9084.9569     -78.088737     -2505.4481      7992.0989     -5480.0176     -488.36676      85416.554      44.040004      44.040004      44.040004      0.9767139      1364.4782      1282.0504      797.53556    
    199000   199000         440.39346      76.119165      8591.5236      8496.8195      8496.4213      0.39827663     1739.1902      7621.5236     -9135.4939     -85.572439     -2629.2494      7973.0815     -5483.0813     -488.97839      85309.712      44.021634      44.021634      44.021634      0.97793713    -1982.3957      1235.0137      975.73947    
    199500   199500         448.42581      686.59087      9424.5931      8563.0149      8651.3878     -88.372903      1740.2486      7421.2436     -9133.1486     -79.552744     -2528.8993      7977.0864     -5485.3509     -484.80528      86044.041      44.147583      44.147583      44.147583      0.96959109     276.01934     -215.49889      1999.2522    
    200000   200000         441.54616      281.53003      8783.0854      8430.192       8518.66       -88.468056      1695.8454      7525.3616     -9128.0566     -84.40342      -2571.3864      7958.9808     -5484.8094     -485.33893      85949.433      44.131397      44.131397      44.131397      0.97065836     702.78523      221.61159     -79.806726    
Loop time of 470.416 on 1 procs for 200000 steps with 8000 atoms

Performance: 36.733 ns/day, 0.653 hours/ns, 425.156 timesteps/s, 3.401 Matom-step/s
100.0% CPU use with 1 MPI tasks x 1 OpenMP threads

MPI task timing breakdown:
Section |  min time  |  avg time  |  max time  |%varavg| %total
---------------------------------------------------------------
Pair    | 51.802     | 51.802     | 51.802     |   0.0 | 11.01
Bond    | 45.602     | 45.602     | 45.602     |   0.0 |  9.69
Kspace  | 199.57     | 199.57     | 199.57     |   0.0 | 42.42
Neigh   | 40.545     | 40.545     | 40.545     |   0.0 |  8.62
Comm    | 6.6905     | 6.6905     | 6.6905     |   0.0 |  1.42
Output  | 0.043584   | 0.043584   | 0.043584   |   0.0 |  0.01
Modify  | 117.4      | 117.4      | 117.4      |   0.0 | 24.96
Other   |            | 8.77       |            |       |  1.86

Nlocal:           8000 ave        8000 max        8000 min
Histogram: 1 0 0 0 0 0 0 0 0 0
Nghost:          20209 ave       20209 max       20209 min
Histogram: 1 0 0 0 0 0 0 0 0 0
Neighs:              0 ave           0 max           0 min
Histogram: 1 0 0 0 0 0 0 0 0 0
FullNghs:  4.73774e+06 ave 4.73774e+06 max 4.73774e+06 min
Histogram: 1 0 0 0 0 0 0 0 0 0

Total # of neighbors = 4737738
Ave neighs/atom = 592.21725
Ave special neighs/atom = 5.7025
Neighbor list builds = 7747
Dangerous builds = 0
WARNING: No fixes with time integration, atoms won't move
For more information see https://docs.lammps.org/err0028 (src/verlet.cpp:60)
PPPM Kokkos initialization ...
  using 12-bit tables for long-range coulomb
  G vector (1/distance) = 0.30239179
  grid = 32 32 32
  stencil order = 5
  estimated absolute RMS force accuracy = 0.00030142785
  estimated relative force accuracy = 9.0774102e-07
  using double precision cuFFT
  3d grid and FFT values/proc = 59319 32768
Generated 10 of 10 mixed pair_coeff terms from sixthpower/sixthpower mixing rule
Setting up Verlet run ...
  Unit style    : real
  Current step  : 200000
  Time step     : 1
Per MPI rank memory allocation (min/avg/max) = 35.49 | 35.49 | 35.49 Mbytes
   Step          Time           Temp          Press         Enthalpy        TotEng         KinEng         PotEng         E_bond        E_angle        E_dihed        E_impro         E_vdwl         E_coul         E_long         E_tail         Volume           Lx             Ly             Lz          Density          Pxx            Pyy            Pzz      
    200000   200000         357.2739       4269.233       13781.61       8430.1932      8518.66       -88.466819      1695.8462      7525.3616     -9128.0566     -84.40342      -2571.3864      7963.6215     -5489.4497     -485.33893      85949.433      44.131397      44.131397      44.131397      0.97065836     4791.3088      4104.0673      3912.3228    
Loop time of 4.5375e-05 on 1 procs for 0 steps with 8000 atoms

99.2% CPU use with 1 MPI tasks x 1 OpenMP threads

MPI task timing breakdown:
Section |  min time  |  avg time  |  max time  |%varavg| %total
---------------------------------------------------------------
Pair    | 0          | 0          | 0          |   0.0 |  0.00
Bond    | 0          | 0          | 0          |   0.0 |  0.00
Kspace  | 0          | 0          | 0          |   0.0 |  0.00
Neigh   | 0          | 0          | 0          |   0.0 |  0.00
Comm    | 0          | 0          | 0          |   0.0 |  0.00
Output  | 0          | 0          | 0          |   0.0 |  0.00
Modify  | 0          | 0          | 0          |   0.0 |  0.00
Other   |            | 4.538e-05  |            |       |100.00

Nlocal:           8000 ave        8000 max        8000 min
Histogram: 1 0 0 0 0 0 0 0 0 0
Nghost:          20210 ave       20210 max       20210 min
Histogram: 1 0 0 0 0 0 0 0 0 0
Neighs:              0 ave           0 max           0 min
Histogram: 1 0 0 0 0 0 0 0 0 0
FullNghs:  4.74531e+06 ave 4.74531e+06 max 4.74531e+06 min
Histogram: 1 0 0 0 0 0 0 0 0 0

Total # of neighbors = 4745310
Ave neighs/atom = 593.16375
Ave special neighs/atom = 5.7025
Neighbor list builds = 0
Dangerous builds = 0
System init for write_data ...
PPPM Kokkos initialization ...
  using 12-bit tables for long-range coulomb
  G vector (1/distance) = 0.30239179
  grid = 32 32 32
  stencil order = 5
  estimated absolute RMS force accuracy = 0.00030142785
  estimated relative force accuracy = 9.0774102e-07
  using double precision cuFFT
  3d grid and FFT values/proc = 59319 32768
Generated 10 of 10 mixed pair_coeff terms from sixthpower/sixthpower mixing rule
STAGE COMPLETE: Tg step T=440.0K P=1.0atm steps=200000
