LAMMPS (22 Jul 2025 - Update 3)
KOKKOS mode with Kokkos version 4.6.2 is enabled
  will use up to 1 GPU(s) per node
  using 1 OpenMP thread(s) per MPI task
Reading data file ...
  orthogonal box = (3.8720886 3.8720886 3.8720886) to (46.865892 46.865892 46.865892)
  1 by 1 by 1 MPI processor grid
  reading atoms ...
  6140 atoms
  reading velocities ...
  6140 velocities
  scanning bonds ...
  3 = max bonds/atom
  scanning angles ...
  9 = max angles/atom
  scanning dihedrals ...
  18 = max dihedrals/atom
  scanning impropers ...
  4 = max impropers/atom
  orthogonal box = (3.8720886 3.8720886 3.8720886) to (46.865892 46.865892 46.865892)
  1 by 1 by 1 MPI processor grid
  reading bonds ...
  6670 bonds
  reading angles ...
  10620 angles
  reading dihedrals ...
  15820 dihedrals
  reading impropers ...
  3420 impropers
Finding 1-2 1-3 1-4 neighbors ...
  special bond factors lj:    0        0        1       
  special bond factors coul:  0        0        1       
     3 = max # of 1-2 neighbors
     6 = max # of 1-3 neighbors
     9 = max # of special neighbors
  special bonds CPU = 0.003 seconds
  read_data CPU = 0.187 seconds
PPPM Kokkos initialization ...
  using 12-bit tables for long-range coulomb
  G vector (1/distance) = 0.31398812
  grid = 36 36 36
  stencil order = 5
  estimated absolute RMS force accuracy = 0.00024746144
  estimated relative force accuracy = 7.4522277e-07
  using double precision cuFFT
  3d grid and FFT values/proc = 79507 46656
Generated 21 of 21 mixed pair_coeff terms from sixthpower/sixthpower mixing rule
Neighbor list info ...
  update: every = 1 steps, delay = 0 steps, check = yes
  max neighbors/atom: 4000, page size: 100000
  master list distance cutoff = 11.5
  ghost atom cutoff = 11.5
  binsize = 11.5, bins = 4 4 4
  1 neighbor lists, perpetual/occasional/extra = 1 0 0
  (1) pair lj/class2/coul/long/kk, perpetual
      attributes: full, newton off, kokkos_device
      pair build: full/bin/kk/device
      stencil: full/bin/3d
      bin: kk/device
Setting up Verlet run ...
  Unit style    : real
  Current step  : 0
  Time step     : 1
Per MPI rank memory allocation (min/avg/max) = 29.68 | 29.68 | 29.68 Mbytes
   Step          Time           Temp          Press         Enthalpy        TotEng         KinEng         PotEng         E_bond        E_angle        E_dihed        E_impro         E_vdwl         E_coul         E_long         E_tail         Volume           Lx             Ly             Lz          Density          Pxx            Pyy            Pzz      
         0   0              703.04577      310.18804      34771.287      34411.771      12865.17       21546.601      5461.8949      5880.3754      5877.1426      692.34274     -127.48181      11309.526     -7547.1988     -500.31252      79472.631      42.993803      42.993803      42.993803      1.0847405     -1013.3034      2085.3592     -141.4917     
      1000   1000           689.38042      1638.5091      36118.117      34204.712      12615.105      21589.607      5510.109       5773.2858      5868.6842      732.41075     -25.585985      11277.544     -7546.8405     -496.56587      80072.262      43.101664      43.101664      43.101664      1.0766173      3913.3382     -577.13507      1579.3242    
      2000   2000           693.80671      348.73579      34970.148      34563.878      12696.103      21867.775      5567.2402      5862.2691      6014.2239      710.65047     -25.443547      11287.464     -7548.6282     -497.75629      79880.763      43.067276      43.067276      43.067276      1.0791983      1344.8121     -940.5455       641.94082    
      3000   3000           699.44265     -1989.3572      32182.649      34517.808      12799.236      21718.572      5460.3371      5748.2669      6130.6947      740.43097     -116.31673      11297.841     -7542.6822     -494.00497      80487.352      43.176014      43.176014      43.176014      1.071065      -381.07537     -1464.4556     -4122.5407    
      4000   4000           702.56091     -1023.4574      33350.779      34539.965      12856.298      21683.667      5463.402       5924.8053      5919.8625      713.43758     -92.821199      11297.594     -7542.6127     -499.06244      79671.698      43.029671      43.029671      43.029671      1.0820302     -165.54946     -3462.6348      557.81217    
      5000   5000           701.87066     -284.52304      33892.739      34225.695      12843.667      21382.028      5312.2847      5824.4116      5762.9177      704.04568      27.680443      11293.452     -7542.7646     -495.52525      80240.416      43.131814      43.131814      43.131814      1.0743611     -13.456422     -235.4558      -604.65689    
      6000   6000           706.59561     -660.34433      33997.336      34770.327      12930.129      21840.198      5377.8364      6024.8846      5964.2435      715.32412      2.6482515      11298.381     -7543.1202     -495.37116      80265.376      43.136286      43.136286      43.136286      1.074027      -3229.2449      689.57426      558.63769    
      7000   7000           698.65187     -606.13095      33632.598      34345.312      12784.765      21560.546      5450.1011      5812.9906      5906.5044      680.09158     -21.529977      11279.553     -7547.1639     -493.15788      80625.604      43.200721      43.200721      43.200721      1.0692284     -4049.1408      393.05343      1837.6946    
      8000   8000           684.40063     -1070.9249      33164.937      34424.928      12523.979      21900.949      5489.034       5968.3547      5960.0257      735.31124     -2.836576       11294.497     -7543.4368     -492.86327      80673.799      43.209327      43.209327      43.209327      1.0685896     -1525.9517      1548.3265     -3235.1493    
      9000   9000           688.11197     -581.83361      33550.907      34232.608      12591.894      21640.715      5417.9282      5858.4395      5971.6125      701.12417     -79.383572      11314.909     -7543.9147     -494.92505      80337.723      43.149242      43.149242      43.149242      1.0730598     -408.30076      159.47001     -1496.6701    
     10000   10000          682.62459     -860.46161      33132.581      34135.94       12491.479      21644.461      5424.3242      5852.9848      6017.6127      717.02937     -112.27397      11291.678     -7546.8933     -497.29017      79955.637      43.080728      43.080728      43.080728      1.0781877     -1631.5396     -56.36053      -893.48474    
     11000   11000          700.76909      695.97268      35360.222      34543.365      12823.509      21719.856      5532.3215      5811.7739      5963.6091      715.69782     -58.583804      11299.543     -7544.5056     -494.06134      80478.168      43.174372      43.174372      43.174372      1.0711872     -275.54705      3302.2405     -938.77539    
     12000   12000          692.76962     -1167.902       32950.761      34315.812      12677.125      21638.687      5409.2323      5883.7896      5924.2679      724.80678     -52.749924      11294.342     -7545.0023     -496.12665      80143.149      43.114379      43.114379      43.114379      1.075665       38.757018     -1704.9332     -1837.5297    
     13000   13000          688.07251      347.4896       34731.247      34322.099      12591.172      21730.928      5543.4866      5918.1792      5784.93        711.3994       43.448977      11277.894     -7548.4108     -492.48941      80735.04       43.220258      43.220258      43.220258      1.067779       2515.4478     -601.33836     -871.64069    
     14000   14000          695.44797     -559.46515      33935.899      34589.567      12726.137      21863.431      5580.0341      5829.7756      6009.0073      744.33905     -40.27857       11287.912     -7547.3589     -496.30706      80114.016      43.109154      43.109154      43.109154      1.0760562     -1443.8914     -957.91194      723.40791    
     15000   15000          689.00498     -610.49939      33416.054      34131.716      12608.235      21523.481      5336.4411      5837.2777      5931.719       721.30862     -69.407959      11311.581     -7545.4391     -494.66619      80379.764      43.156768      43.156768      43.156768      1.0724986     -2384.0556     -1419.1594      1971.7168    
     16000   16000          691.95551     -562.86292      33782.166      34440.153      12662.227      21777.926      5516.3223      5867.1396      6025.7188      721.33851     -105.54797      11300.582     -7547.6273     -496.04339      80156.6        43.116791      43.116791      43.116791      1.0754845     -815.18897      110.96882     -984.36861    
     17000   17000          686.74655     -579.47911      33439.733      34117.04       12566.908      21550.133      5426.481       5803.975       5858.2244      715.67347     -6.1678451      11292.922     -7540.975      -496.11978      80144.259      43.114578      43.114578      43.114578      1.0756501     -1004.6341      367.59923     -1101.4025    
     18000   18000          685.5999       566.04523      34918.016      34254.162      12545.925      21708.237      5557.6052      5737.7592      6024.0414      695.89735     -57.352482      11297.297     -7547.0115     -494.43919      80416.667      43.163371      43.163371      43.163371      1.0720064      749.31757      3183.5987     -2234.7806    
     19000   19000          695.88561      769.82891      35422.043      34525.472      12734.145      21791.327      5550.8617      5873.8134      5936.4284      690.97841      5.0780755      11286.119     -7551.9524     -497.90248      79857.308      43.06306       43.06306       43.06306       1.0795153      1909.7098     -628.3317       1028.1087    
     20000   20000          709.64017      248.65406      35049.716      34759.894      12985.842      21774.052      5442.2627      5954.8567      5856.7686      710.98977      60.027167      11299.845     -7550.6986     -497.50609      79920.935      43.074494      43.074494      43.074494      1.0786558     -1759.9624     -558.81423      3064.7388    
     21000   21000          687.79901      1740.1467      36459.763      34407.973      12586.167      21821.807      5513.6593      5821.465       6010.5032      700.51909      19.467272      11301.176     -7544.9837     -491.7992       80848.347      43.240468      43.240468      43.240468      1.0662826      1863.6341      3417.9919     -61.185918    
     22000   22000          683.93493     -2151.1598      31850.538      34366.746      12515.457      21851.289      5549.8776      5943.5462      5974.1851      685.02038     -29.931138      11286.588     -7557.9965     -495.74792      80204.375      43.125355      43.125355      43.125355      1.0748439     -1929.7422     -1131.957      -3391.7803    
     23000   23000          708.29462      1527.2086      36480.541      34686.147      12961.22       21724.927      5543.5434      5844.9511      5856.5006      694.77431      20.973961      11311.265     -7547.0811     -493.53214      80564.463      43.189798      43.189798      43.189798      1.0700398      959.6724       1246.4277      2375.5258    
     24000   24000          684.6444      -2988.4148      30795.74       34220.553      12528.44       21692.113      5493.7702      5798.0048      6078.979       681.62566     -90.848164      11285.522     -7554.94       -505.98635      78581.472      42.832496      42.832496      42.832496      1.0970421     -3079.4614     -4268.9452     -1616.8378    
     25000   25000          694.97886     -32.093764      34402.185      34439.556      12717.552      21722.004      5525.6394      5819.423       5937.6888      714.01082     -27.18479       11298.718     -7546.2915     -497.99254      79842.866      43.060464      43.060464      43.060464      1.0797105      1725.5265     -2674.9963      853.18852    
     26000   26000          698.52696      184.83099      34851.152      34637.262      12782.48       21854.782      5415.9474      5936.3098      6081.3996      722.28504     -43.502459      11294.259     -7551.9167     -501.09451      79348.609      42.971427      42.971427      42.971427      1.086436      -473.1622       1639.0255     -611.37031    
     27000   27000          701.41328      3.8064356      34347.29       34342.901      12835.297      21507.604      5491.5822      5715.3191      5998.03        675.29437     -134.55168      11308.865     -7546.935      -502.86088      79069.885      42.921053      42.921053      42.921053      1.0902657      1543.9302     -791.51719     -740.99366    
     28000   28000          698.58295     -410.41255      34045.825      34518.04       12783.504      21734.536      5435.3442      5986.2665      5896.8932      710.17863     -53.783987      11305.98      -7546.3426     -503.98224      78893.954      42.889196      42.889196      42.889196      1.0926969     -407.29272      1104.4        -1928.3449    
     29000   29000          694.20767      846.3851       35268.898      34292.238      12703.44       21588.798      5597.1004      5897.5807      5801.8361      682.37341     -150.44453      11308.276     -7547.9247     -502.52708      79122.406      42.930554      42.930554      42.930554      1.089542       711.09375      1089.2111      738.85049    
     30000   30000          698.43477      747.02362      35285.365      34417.383      12780.792      21636.591      5409.8909      5831.5136      5963.0508      711.99284     -41.169721      11306.331     -7545.0185     -499.06642      79671.062      43.029556      43.029556      43.029556      1.0820388      2832.066      -657.40278      66.407653    
     31000   31000          687.91549      619.1185       35072.127      34367.99       12588.298      21779.692      5577.3679      5957.6421      5881.2472      707.71485     -114.18801      11314.927     -7545.0198     -509.86054      77984.368      42.723732      42.723732      42.723732      1.1054418     -537.20018      989.26682      1405.2889    
     32000   32000          689.18136     -899.55113      33344.49       34390.148      12611.463      21778.686      5660.9484      5899.5679      5779.2018      705.82134     -31.180146      11315.321     -7550.9951     -498.8511       79705.451      43.035747      43.035747      43.035747      1.081572      -922.34474     -586.50566     -1189.803     
     33000   33000          681.05746     -1325.5304      32371.55       33906.508      12462.802      21443.707      5383.0443      5673.8498      6003.0128      698.73251     -72.248536      11306.781     -7549.4651     -500.75805      79401.923      42.981049      42.981049      42.981049      1.0857065     -625.46533     -2028.7051     -1322.4209    
     34000   34000          687.47099      840.79752      35111.572      34136.213      12580.164      21556.049      5406.3873      5888.984       5807.8178      660.65103      37.011424      11303.519     -7548.3217     -499.87567      79542.083      43.006324      43.006324      43.006324      1.0837934      816.95117      2265.0947     -559.65327    
     35000   35000          687.70028     -1733.1393      32321.151      34330.68       12584.36       21746.32       5486.3467      5937.6573      6000.6347      716.12161     -156.50034      11306.153     -7544.0936     -500.11987      79503.243      42.999323      42.999323      42.999323      1.0843228     -812.72254     -3546.159      -840.53625    
     36000   36000          686.94277      1525.5935      35946.459      34166.78       12570.498      21596.282      5440.6469      5974.6015      5815.7593      684.63533     -69.354712      11301.883     -7551.8896     -497.08653      79988.391      43.08661       43.08661       43.08661       1.0777462      2440.2563      1699.8325      436.69182    
     37000   37000          690.20926     -1452.3879      32633.868      34354.653      12630.272      21724.381      5479.407       5991.0891      5809.7052      662.14002      34.218771      11297.23      -7549.4095     -489.43026      81239.669      43.310119      43.310119      43.310119      1.0611464     -2627.2685      345.2466      -2075.1417    
     38000   38000          695.95022      64.059759      34559.503      34485.478      12735.327      21750.15       5620.4322      5796.6503      5921.2989      722.37009     -49.753086      11292.686     -7553.5345     -501.81105      79235.306      42.950964      42.950964      42.950964      1.0879895      1898.3663     -596.2588      -1109.9282    
     39000   39000          688.94602     -611.56017      33469.5        34184.351      12607.156      21577.195      5525.3417      5880.9371      5938.8822      687.59958     -180.65146      11276.319     -7551.2335     -496.08807      80149.382      43.115497      43.115497      43.115497      1.0755814     -1080.6218      119.05897     -873.11769    
     40000   40000          689.36079     -385.11863      33684.58       34130.064      12614.746      21515.318      5501.6018      5872.3679      5811.1424      687.40956     -87.007857      11282.937     -7553.1332     -501.30038      79316.022      42.965543      42.965543      42.965543      1.0868823     -115.25905     -735.45141     -304.64544    
     41000   41000          679.15863      668.28154      34929.173      34144.367      12428.055      21716.313      5548.2488      5894.4327      5897.7231      663.00306     -63.74909       11325.585     -7548.9308     -493.77858      80524.255      43.182612      43.182612      43.182612      1.0705741     -471.0108       341.59232      2134.2631    
     42000   42000          706.03263      1590.977       36329.262      34464.58       12919.827      21544.753      5495.3111      5807.0695      5788.1549      714.18072     -10.812386      11301.935     -7551.0866     -494.75934      80364.631      43.154059      43.154059      43.154059      1.0727005     -1774.4584      2262.2496      4285.1399    
     43000   43000          683.15647      961.02276      35341.008      34206.61       12501.212      21705.398      5605.8046      5812.2781      5839.4976      690.94055     -1.8345962      11310.567     -7551.8555     -491.25045      80938.658      43.256562      43.256562      43.256562      1.0650928      1334.0291      2290.2169     -741.17764    
     44000   44000          688.81736     -2012.1029      31909.389      34254.67       12604.802      21649.868      5478.2982      5850.1095      5949.4671      695.42565     -85.317433      11311.859     -7549.9736     -497.49661      79922.458      43.074768      43.074768      43.074768      1.0786353     -2128.7594     -968.83766     -2938.7116    
     45000   45000          692.56283     -1035.5466      33176.291      34387.173      12673.341      21713.833      5558.5845      5884.6291      5891.879       699.85485     -73.532571      11304.402     -7551.9838     -495.90948      80178.245      43.120672      43.120672      43.120672      1.0751942     -4138.5356      2127.6382     -1095.7425    
     46000   46000          688.82001     -705.69688      33309.324      34132.968      12604.85       21528.118      5559.3303      5824.5827      5862.0415      671.58722     -123.6236       11282.665     -7548.4659     -496.83647      80028.649      43.093837      43.093837      43.093837      1.077204      -246.59505     -886.31754     -984.17805    
     47000   47000          695.06342     -78.98184       34078.147      34169.41       12719.1        21450.31       5527.5773      5693.5836      5916.9641      662.40722     -106.21438      11308.653     -7552.6602     -501.84399      79230.105      42.950024      42.950024      42.950024      1.0880609      656.95783      1483.0102     -2376.9135    
     48000   48000          686.78347     -1465.19        32580.256      34279.126      12567.583      21711.542      5472.7216      5822.0022      6058.5021      750.95195     -151.0291       11306.872     -7548.4785     -500.11366      79504.232      42.999501      42.999501      42.999501      1.0843094     -2553.8737      411.80338     -2253.4997    
     49000   49000          700.42525      441.04599      34935.381      34423.578      12817.217      21606.362      5525.1331      5773.1673      5962.0062      714.67652     -91.109593      11273.81      -7551.3216     -499.70802      79568.768      43.011133      43.011133      43.011133      1.0834299      1576.1944      1215.8839     -1468.9404    
     50000   50000          689.89341      2597.9556      37159.25       34142.715      12624.493      21518.222      5324.4459      5888.3737      5819.0727      724.36725      1.4911997      11310.3       -7549.8291     -499.41102      79616.089      43.019657      43.019657      43.019657      1.082786       3675.5001      2452.1851      1666.1816    
     51000   51000          698.14216      474.32664      34860.567      34314.726      12775.438      21539.288      5428.3549      5819.9201      5947.8759      700.25165     -91.076693      11293.696     -7559.7332     -503.9027       78906.408      42.891453      42.891453      42.891453      1.0925245      2387.2494     -508.42304     -455.84646    
     52000   52000          695.13496     -740.66565      33580.332      34439.464      12720.409      21719.055      5444.3459      5967.5267      6000.8472      703.85137     -143.27572      11300.885     -7555.1253     -499.91647      79535.592      43.005154      43.005154      43.005154      1.0838818      71.335302     -653.59668     -1639.7356    
     53000   53000          684.35519      707.54002      34902.596      34073.293      12523.148      21550.145      5366.3001      5871.8246      5917.9464      688.41158     -25.998081      11291.428     -7559.7672     -494.7352       80368.552      43.154761      43.154761      43.154761      1.0726482      2694.5919     -2503.889       1931.9171    
     54000   54000          691.988       -1289.4841      32815.89       34308.182      12662.822      21645.361      5374.5334      5737.5321      6208.8836      713.93683     -113.58695      11281.089     -7557.0278     -501.06838      79352.746      42.972174      42.972174      42.972174      1.0863793     -1731.0995     -1844.5708     -292.78185    
     55000   55000          677.5199      -832.33703      32919.934      33895.488      12398.067      21497.421      5317.6321      5881.8759      5898.3041      684.2531      -22.056486      11293.413     -7556.0013     -494.74622      80366.762      43.15444       43.15444       43.15444       1.0726721     -667.28801     -582.39135     -1247.3317    
     56000   56000          679.75466      2.5550259      34049.453      34046.507      12438.962      21607.545      5529.4897      5919.1626      5838.5722      676.17827     -111.28123      11304.51      -7549.0862     -502.89432      79064.627      42.920102      42.920102      42.920102      1.0903382     -1983.7505      1540.9487      450.46684    
     57000   57000          690.59403     -839.58456      33249.334      34215.44       12637.313      21578.127      5441.0104      5777.7475      6037.133       709.48805     -132.66187      11293.316     -7547.9067     -503.93516      78901.325      42.890532      42.890532      42.890532      1.0925949     -445.64936     -1515.7159     -557.38841    
     58000   58000          694.39302      330.90904      34601.558      34217.113      12706.832      21510.281      5366.7593      5791.7394      5965.7583      722.17152     -84.410236      11303.232     -7554.9691     -499.12437      79661.813      43.027891      43.027891      43.027891      1.0821645      299.35991      172.83158      520.53563    
     59000   59000          673.71824      559.11548      34150.61       33501.948      12328.5        21173.448      5231.7487      5687.0198      5885.0186      684.12918     -48.843179      11285.313     -7550.9379     -499.82499      79550.147      43.007777      43.007777      43.007777      1.0836835      912.16575      46.342677      718.83801    
     60000   60000          704.18619     -1784.3436      32421.625      34496.423      12886.039      21610.384      5413.5067      5751.9224      6028.7749      704.76556     -34.103465      11295.513     -7549.9953     -498.69795      79729.929      43.040152      43.040152      43.040152      1.0812399     -1636.999      -2931.7033     -784.32842    
     61000   61000          690.7813      -1464.9828      32410.125      34122.179      12640.74       21481.439      5433.4971      5732.7163      5932.47        660.43979     -4.0731781      11278.926     -7552.5371     -496.19217      80132.566      43.112481      43.112481      43.112481      1.0758071      1161.4938     -2673.5141     -2882.9279    
     62000   62000          690.54915     -2335.1259      31364.332      34081.218      12636.492      21444.726      5376.971       5810.8733      5914.0406      691.14733     -71.318987      11278.675     -7555.6619     -498.39498      79778.395      43.048871      43.048871      43.048871      1.0805831     -443.59181     -2771.4875     -3790.2985    
     63000   63000          683.60769     -680.46152      33146.471      33939.049      12509.469      21429.581      5407.6039      5765.5236      5894.4395      670.53878     -62.184761      11306.947     -7553.2874     -497.84711      79866.191      43.064657      43.064657      43.064657      1.0793952      1018.6021      91.55551      -3151.5422    
     64000   64000          699.50457     -1149.6889      33412.649      34738.46       12800.369      21938.091      5563.6174      5842.359       6172.0543      733.87845     -123.45935      11298.862     -7549.2212     -502.84439      79072.478      42.921522      42.921522      42.921522      1.0902299     -3425.6991     -156.73521      133.36771    
     65000   65000          687.17539     -349.75822      33588.565      33997.432      12574.755      21422.677      5393.3554      5678.3866      5971.2639      666.10986     -39.71413       11299.726     -7546.4505     -496.04479      80156.375      43.11675       43.11675       43.11675       1.0754876     -1923.7374      832.29895      42.163736    
     66000   66000          682.78566      125.33151      34246.588      34099.048      12494.426      21604.622      5470.4055      5951.9414      5846.42        670.41636     -73.050513      11292.176     -7553.6875     -492.58978      80718.589      43.217322      43.217322      43.217322      1.0679967     -121.43893      3748.8528     -3251.4194    
     67000   67000          696.3306      -3007.2792      31125.006      34620.326      12742.288      21878.038      5588.6408      5854.6229      6063.4318      711.98425     -77.745075      11281.269     -7544.166      -498.90935      79696.145      43.034072      43.034072      43.034072      1.0816983     -2283.0174     -3146.9059     -3591.9144    
     68000   68000          689.00208     -2058.7126      31802.117      34179.751      12608.182      21571.569      5376.76        5752.9479      6097.6901      710.72521     -105.01995      11291.455     -7552.9895     -502.09474      79190.537      42.942873      42.942873      42.942873      1.0886046     -1624.7043     -2487.0569     -2064.3766    
     69000   69000          688.71775      665.52508      35093.467      34315.82       12602.979      21712.841      5438.7815      5979.3424      5880.1299      695.90921     -34.15893       11302.593     -7549.7559     -496.26826      80120.28       43.110278      43.110278      43.110278      1.0759721      1497.919       894.27203     -395.61578    
     70000   70000          686.84738      1240.8112      35579.198      34126.67       12568.753      21557.918      5415.9788      5838.4776      5884.2985      677.09791      4.4549486      11288.298     -7550.6883     -495.35442      80268.088      43.136772      43.136772      43.136772      1.0739907      701.5572       1595.3882      1425.4881    
     71000   71000          686.77011      1469.4116      35855.49       34149.27       12567.339      21581.932      5404.3537      5840.3739      5910.6471      688.03287     -8.6892532      11293.614     -7546.4009     -499.39405      79618.795      43.020145      43.020145      43.020145      1.0827492      1254.2227      1667.9359      1486.0761    
     72000   72000          687.57786      375.53866      34539.569      34103.443      12582.12       21521.323      5457.7784      5844.9755      5822.232       669.59643     -11.269825      11291.372     -7553.3611     -499.31754      79630.995      43.022342      43.022342      43.022342      1.0825833      456.92424     -1058.018       1727.7097    
     73000   73000          687.00433     -1989.3849      31913.91       34245.388      12571.625      21673.764      5433.9298      5871.7962      5946.2806      696.31799     -13.376146      11289.698     -7550.8825     -494.79153      80359.404      43.153123      43.153123      43.153123      1.0727703     -2239.9867     -1057.333      -2670.835     
     74000   74000          702.64049     -1666.945       32364.592      34299.134      12857.754      21441.38       5496.9951      5780.7944      5861.0613      664.48904     -111.9689       11298.85      -7548.8412     -499.66386      79575.801      43.0124        43.0124        43.0124        1.0833342     -3648.4483     -294.24522     -1058.1415    
     75000   75000          685.59509      812.91658      34978.801      34037.309      12545.837      21491.473      5403.8561      5703.6127      6001.8934      650.71162     -27.620727      11302.44      -7543.421      -500.68474      79413.548      42.983146      42.983146      42.983146      1.0855476     -86.713948     -123.56581      2649.0295    
     76000   76000          680.28742     -307.10803      33529.509      33887.179      12448.711      21438.469      5530.0199      5696.8999      5872.9787      684.43368     -90.029377      11290.169     -7546.0032     -497.90172      79857.43       43.063082      43.063082      43.063082      1.0795136      60.045013     -95.092208     -886.27688    
     77000   77000          692.73433      1164.58        35531.26       34160.49       12676.479      21484.011      5496.6422      5758.7128      5719.617       715.0982       47.978216      11301.949     -7555.9866     -492.65111      80708.541      43.215529      43.215529      43.215529      1.0681296      2497.582       1266.7079     -270.55008    
     78000   78000          687.78363     -812.7624       33117.058      34060.179      12585.885      21474.293      5407.3262      5785.4112      5931.1478      707.16311     -88.848274      11279.607     -7547.514      -499.72519      79566.034      43.01064       43.01064       43.01064       1.0834671      180.23562     -3903.1025      1284.5797    
     79000   79000          686.25169     -233.92579      33931.828      34205.811      12557.852      21647.959      5438.7466      5844.5472      5943.1995      697.77296     -27.946061      11299.133     -7547.4947     -495.09657      80309.891      43.144259      43.144259      43.144259      1.0734317     -430.81514     -906.04129      635.07904    
     80000   80000          679.81538     -4119.4596      29309.69       34062.625      12440.073      21622.552      5377.2093      5728.4005      6226.0567      673.84157     -109.28197      11283.191     -7556.8654     -502.58931      79112.61       42.928782      42.928782      42.928782      1.0896769     -2853.4916     -5324.3081     -4180.5791    
     81000   81000          674.5319      -1092.2422      32408.467      33671.103      12343.389      21327.714      5268.2165      5766.1812      5959.9464      701.61104     -115.31648      11295.227     -7548.1515     -501.62082      79265.354      42.956393      42.956393      42.956393      1.0875771     -233.8772      -410.13609     -2632.7134    
     82000   82000          686.69302     -366.86614      33718.386      34145.049      12565.928      21579.121      5355.3784      5851.349       5941.9007      708.06301     -27.420096      11297.904     -7548.0537     -498.60576      79744.67       43.042804      43.042804      43.042804      1.0810401     -1684.03        703.52251     -120.09092    
     83000   83000          695.51154     -1761.2533      32401.914      34464.613      12727.3        21737.313      5487.879       5866.3498      5948.4992      708.13535     -26.572764      11302.978     -7549.9553     -495.13176      80304.184      43.143237      43.143237      43.143237      1.073508      -1788.0285     -2639.4265     -856.30488    
     84000   84000          687.16438      281.39577      34452.396      34127.08       12574.554      21552.527      5543.9025      5847.5993      5797.8648      659.09758     -54.095595      11309.17      -7551.0115     -501.58796      79270.546      42.95733       42.95733       42.95733       1.0875059      203.21087     -125.42841      766.40486    
     85000   85000          688.05084     -494.94292      33223.388      33804.979      12590.775      21214.204      5310.4615      5804.5985      5726.5266      657.15038     -47.782218      11312.459     -7549.2101     -493.48313      80572.464      43.191228      43.191228      43.191228      1.0699336     -733.03965     -792.82957      41.040454    
     86000   86000          684.58987      1602.1151      35703.929      33850.817      12527.442      21323.375      5379.0817      5748.8104      5862.7237      673.15996     -82.9998        11299.995     -7557.3959     -501.33381      79310.733      42.964588      42.964588      42.964588      1.0869548      1049.2366      1819.285       1937.8237    
     87000   87000          679.10199      2244.2793      36649.505      34001.901      12427.018      21574.882      5362.8097      5892.0344      5840.0296      675.34774      53.991375      11298.413     -7547.7431     -491.53973      80891.024      43.248075      43.248075      43.248075      1.06572        2831.3499      3380.6968      520.7911     
     88000   88000          692.82069      436.83995      34743.092      34232.031      12678.059      21553.971      5378.264       5897.7854      5827.1232      678.0831       24.212368      11295.315     -7546.8124     -495.66055      80218.512      43.127889      43.127889      43.127889      1.0746545      88.71959       2279.2028     -1057.4025    
     89000   89000          681.85447     -552.98273      33432.062      34082.194      12477.387      21604.808      5366.0854      5799.2605      6058.2333      727.82702     -103.15978      11311.248     -7554.6864     -493.2244       80614.731      43.198779      43.198779      43.198779      1.0693726     -1549.1289     -201.17584      91.356514    
     90000   90000          698.69234     -655.51911      33613.603      34379.644      12785.506      21594.138      5550.7189      5838.9463      5853.8185      692.19625     -75.989709      11282.952     -7548.5047     -496.21342      80129.135      43.111866      43.111866      43.111866      1.0758532      198.57052     -1972.4536     -192.67423    
     91000   91000          691.31575     -1641.9126      32319.263      34274.128      12650.52       21623.608      5331.7848      5851.7517      5968.7702      697.54611      25.030158      11302.897     -7554.1719     -487.04387      81637.721      43.38074       43.38074       43.38074       1.0559724     -151.12194     -1883.4082     -2891.2076    
     92000   92000          681.83932     -748.25993      33073.577      33955.065      12477.109      21477.956      5320.5446      5765.6815      6054.8743      651.69045     -67.524641      11305.383     -7552.6928     -492.23289      80777.114      43.227764      43.227764      43.227764      1.0672229     -266.84039     -1501.5467     -476.3927     
     93000   93000          674.91091     -1077.7919      32940.687      34201.387      12350.325      21851.062      5583.2461      5743.8265      6082.7019      714.48734     -14.541135      11295.107     -7553.765      -495.74464      80204.906      43.12545       43.12545       43.12545       1.0748368     -1740.9029     -1126.5528     -365.91999    
     94000   94000          685.45438     -2309.0587      31421.906      34155.78       12543.262      21612.518      5328.4911      5735.8916      6151.4045      704.04757     -48.239967      11297.567     -7556.6432     -489.76909      81183.465      43.300129      43.300129      43.300129      1.061881      -2074.4042     -3239.5125     -1613.2594    
     95000   95000          692.70478      1186.2204      35449.391      34060.802      12675.938      21384.863      5405.4492      5806.4742      5658.9671      728.12304      25.049673      11308.961     -7548.1607     -495.36625      80266.171      43.136428      43.136428      43.136428      1.0740164      595.61693      3719.5494     -756.50516    
     96000   96000          689.22099      814.06215      35206.624      34258.808      12612.188      21646.62       5391.2949      5925.7345      5884.4069      706.0963      -2.2149861      11296.324     -7555.0207     -498.04466      79834.51       43.058962      43.058962      43.058962      1.0798235     -877.58579      1500.9721      1818.8001    
     97000   97000          679.50489     -676.22765      33247.788      34042.178      12434.391      21607.787      5414.1727      5807.4122      5914.1453      699.64729      24.974463      11299.671     -7552.2359     -493.62125      80549.92       43.187199      43.187199      43.187199      1.070233      -1566.0112     -1299.7544      837.08271    
     98000   98000          697.29184     -480.46152      33911.144      34473.014      12759.878      21713.136      5564.2503      5758.3324      5951.2982      708.26085     -4.8834408      11287.624     -7551.7464     -495.85865      80186.464      43.122145      43.122145      43.122145      1.075084      -944.25073     -911.60923      414.47541    
     99000   99000          697.20409      2235.554       36788.562      34162.398      12758.272      21404.125      5357.6598      5792.2157      5826.3447      691.85483     -21.887372      11313.505     -7555.567      -493.62606      80549.135      43.187059      43.187059      43.187059      1.0702434      3754.8764      2875.1508      76.634784    
    100000   100000         686.7655      -1720.4188      32428.643      34481.586      12567.254      21914.332      5674.3495      5821.7402      5952.6249      701.033        25.254307      11290.56      -7551.2304     -485.95062      81821.383      43.413247      43.413247      43.413247      1.0536021     -495.05687     -2425.6836     -2240.516     
    101000   101000         677.01011     -939.56562      32680.84       33772.419      12388.739      21383.681      5289.0971      5843.6926      5795.2699      712.33524      16.678138      11282.62      -7556.0124     -499.12202      79662.188      43.027959      43.027959      43.027959      1.0821594     -110.63646     -871.40502     -1836.6554    
    102000   102000         680.98372      2194.4416      36716.428      34139.27       12461.452      21677.818      5583.4126      5756.0855      5825.1844      705.5284       71.894705      11289.013     -7553.3004     -493.76235      80526.901      43.183085      43.183085      43.183085      1.0705389      3220.6277      1790.903       1571.7943    
    103000   103000         692.162        1083.5937      35458.039      34194.422      12666.006      21528.416      5347.5343      5702.845       6012.3373      684.89929      13.739657      11315.375     -7548.3148     -497.26273      79960.048      43.08152       43.08152       43.08152       1.0781282      1064.4104      1996.3698      190.00085    
    104000   104000         676.42055      1016.3755      35276.431      34081.445      12377.95       21703.495      5512.3749      5894.8531      5810.7334      678.46515      49.038573      11311.591     -7553.5615     -493.20355      80618.138      43.199387      43.199387      43.199387      1.0693274      2634.6087      899.6407      -485.12289    
    105000   105000         676.98746      808.41394      34942.958      34000.236      12388.324      21611.912      5594.7591      5876.8581      5777.8667      672.99028     -60.873941      11300.01      -7549.699      -497.26131      79960.277      43.081561      43.081561      43.081561      1.0781251      2796.6832      222.2735      -593.71484    
    106000   106000         687.5543       1049.2466      35092.283      33886.099      12581.689      21304.411      5422.5443      5672.4285      5863.9416      679.97634     -94.898081      11309.272     -7548.8538     -504.42785      78824.26       42.876563      42.876563      42.876563      1.0936631      589.48003      1205.4693      1352.7904    
    107000   107000         683.5352       118.71264      34431.832      34291.834      12508.142      21783.691      5492.7622      5827.3421      6019.4513      713.58723     -41.9542        11314.407     -7541.9041     -491.71198      80862.687      43.243024      43.243024      43.243024      1.0660935      1694.183      -958.65162     -379.39346    
    108000   108000         678.69678     -899.34704      33055.418      34117.577      12419.603      21697.973      5446.4027      5884.5045      5910.2279      705.46385      2.9388116      11290.913     -7542.4774     -490.98998      80981.596      43.26421       43.26421       43.26421       1.0645281     -133.78499     -2184.4609     -379.79523    
    109000   109000         697.21778      225.31261      34698.279      34433.711      12758.523      21675.188      5493.6253      5745.8691      6057.258       690.42172     -74.182458      11311.299     -7549.1023     -493.83646      80514.816      43.180924      43.180924      43.180924      1.0706996      680.41542     -611.66496      607.18735    
    110000   110000         688.0917       293.70156      34395.591      34047.661      12591.523      21456.138      5399.7382      5789.5725      5846.4434      654.72235      20.221593      11297.889     -7552.4485     -489.49596      81228.764      43.308181      43.308181      43.308181      1.0612889      624.16047     -1778.6754      2035.6196    
    111000   111000         696.50923     -216.12905      34036.633      34287.702      12745.557      21542.145      5422.11        5754.0556      5998.4005      705.055       -82.866354      11297.758     -7552.3671     -499.17739      79653.352      43.026368      43.026368      43.026368      1.0822794     -1090.5407     -234.59114      676.74467    
    112000   112000         688.10329     -640.79738      33469.046      34227.776      12591.735      21636.042      5377.4382      5812.987       6023.6722      716.36656     -45.149651      11302.401     -7551.6739     -489.74301      81187.789      43.300898      43.300898      43.300898      1.0618245     -800.59486     -77.389782     -1044.4075    
    113000   113000         670.52589     -2913.0739      30362.555      33759.761      12270.083      21489.678      5471.0328      5719.7437      6016.0639      656.83171     -116.53483      11292.474     -7549.9333     -497.23829      79963.979      43.082226      43.082226      43.082226      1.0780752     -2256.2896     -6069.6123     -413.31998    
    114000   114000         688.55312      767.57863      34952.321      34056.455      12599.966      21456.489      5316.9146      5823.0243      5920.4205      688.6313      -9.2877637      11274.188     -7557.402      -496.838        80028.404      43.093793      43.093793      43.093793      1.0772073      896.2776       1845.7534     -439.2951     
    115000   115000         695.98492      567.83381      34853.066      34192.13       12735.962      21456.167      5375.603       5735.2931      5970.69        729.93544     -99.542335      11292.816     -7548.6283     -498.19193      79810.912      43.054719      43.054719      43.054719      1.0801428      172.48359      1806.516      -275.49813    
    116000   116000         671.57777     -1091.5266      32604.197      33881.275      12289.331      21591.944      5387.6196      5883.1225      5988.1831      671.23126     -73.671871      11294.249     -7558.7894     -495.62314      80224.567      43.128974      43.128974      43.128974      1.0745734     -149.76126     -2029.9867     -1094.8317    
    117000   117000         694.20574      1490.3656      35956.76       34233.492      12703.405      21530.087      5502.8829      5884.8416      5754.3931      681.25405     -22.657055      11283.83      -7554.4578     -501.50447      79283.744      42.959714      42.959714      42.959714      1.0873248      1422.1766      1701.0904      1347.8299    
    118000   118000         681.56577      419.75515      34560.75       34071.175      12472.103      21599.071      5442.8355      5879.5855      5849.3813      691.53149     -28.064966      11312.588     -7548.785      -497.1773       79973.788      43.083987      43.083987      43.083987      1.077943       1576.8408      148.29172     -465.86703    
    119000   119000         679.53085      1532.8484      35797.155      34019.441      12434.866      21584.575      5379.8845      5855.8008      5903.263       721.86831     -46.490789      11318.065     -7547.8159     -500.00249      79521.909      43.002688      43.002688      43.002688      1.0840683      1702.9776      2379.0258      516.54175    
    120000   120000         684.29662     -1180.323       32472.818      33857.814      12522.076      21335.738      5374.5287      5648.3845      5942.364       717.12227     -81.581604      11289.686     -7554.766      -494.18235      80458.463      43.170848      43.170848      43.170848      1.0714495     -3.4471857     -2015.1979     -1522.324     
    121000   121000         682.01067     -713.03659      33187.017      34012.588      12480.245      21532.344      5308.787       5846.6748      6036.1409      716.66498     -111.47926      11291.706     -7556.151      -500.83184      79390.223      42.978937      42.978937      42.978937      1.0858665      346.28823     -1996.7907     -488.60728    
    122000   122000         688.71222      150.12955      34136.232      33963.325      12602.878      21360.448      5446.2127      5713.0982      5856.5932      720.19314     -126.19268      11304.219     -7553.6757     -503.48997      78971.09       42.90317       42.90317       42.90317       1.0916296      1008.4901     -1070.5114      512.40991    
    123000   123000         678.90304      902.96144      34983.05       33925.34       12423.378      21501.962      5468.2748      5911.3987      5787.0821      651.03125     -61.089125      11299.958     -7554.694      -495.03667      80319.609      43.145999      43.145999      43.145999      1.0733018      66.37209       1806.5564      835.95585    
    124000   124000         703.39321     -311.85144      34047.125      34410.601      12871.528      21539.073      5386.2031      5896.069       5857.2289      700.09776     -58.632171      11300.763     -7542.6571     -497.51665      79919.24       43.07419       43.07419       43.07419       1.0786787      974.60718     -1379.0209     -531.14061    
    125000   125000         682.96853      921.63597      35111.991      34035.656      12497.773      21537.883      5397.4031      5826.6857      5863.42        675.14801      13.533878      11311.374     -7549.6821     -496.53139      80077.821      43.102661      43.102661      43.102661      1.0765426     -151.44533      1568.3552      1347.9981    
    126000   126000         689.90542     -2261.386       31461.378      34094.895      12624.712      21470.183      5253.53        5797.5582      6020.6432      708.90629     -53.031724      11300.259     -7557.6819     -497.93576      79851.972      43.062101      43.062101      43.062101      1.0795874     -2507.7956     -1784.7495     -2491.6127    
    127000   127000         688.3512       506.08882      34566.425      33979.105      12596.271      21382.833      5410.0558      5720.763       5903.0831      684.81193     -69.175265      11291.515     -7558.2203     -499.6742       79574.155      43.012103      43.012103      43.012103      1.0833566      66.874367      760.7073       690.6848     
    128000   128000         677.68655      1188.0527      35217.504      33824.944      12401.117      21423.827      5455.3783      5743.3124      5729.9154      699.43347      39.220161      11303.826     -7547.2587     -494.71656      80371.581      43.155303      43.155303      43.155303      1.0726078      2060.7061      217.33923      1286.1129    
    129000   129000         689.85807      883.0244       35128.204      34087.133      12623.846      21463.287      5366.1143      5830.5826      5720.897       707.82562      54.12786       11325.796     -7542.0557     -491.84405      80840.974      43.239153      43.239153      43.239153      1.0663798     -186.26574      345.2467       2490.0923    
    130000   130000         683.01644     -320.48203      33452.293      33823.454      12498.65       21324.805      5315.1865      5644.0404      6003.0076      677.67206     -53.87371       11290.041     -7551.2696     -500.6976       79411.51       42.982778      42.982778      42.982778      1.0855754     -1142          -6.2810055      186.83492    
    131000   131000         683.94824     -2201.2603      31453.635      34049.084      12515.701      21533.384      5252.0268      5959.3245      5868.3885      703.7066       6.6314464      11292.798     -7549.4925     -491.80585      80847.253      43.240273      43.240273      43.240273      1.066297      -2523.4033     -1054.9596     -3025.418     
    132000   132000         670.27923      95.877629      33739.085      33627.321      12265.569      21361.752      5477.9595      5817.2247      5776.4095      682.2244      -128.77024      11284.483     -7547.779      -497.45103      79929.782      43.076083      43.076083      43.076083      1.0785365      309.79347     -1206.8753      1184.7147    
    133000   133000         694.75326     -1637.4178      32270.336      34175.101      12713.424      21461.677      5310.9011      5934.7486      5863.3658      695.42529     -90.326054      11299.992     -7552.4296     -498.48591      79763.843      43.046253      43.046253      43.046253      1.0807802     -1719.3348      127.65033     -3320.5689    
    134000   134000         679.04326     -1983.272       31518.489      33813.653      12425.944      21387.709      5364.6364      5825.6095      5874.7772      685.66593     -104.38908      11291.172     -7549.7623     -501.07578      79351.574      42.971962      42.971962      42.971962      1.0863954     -1098.1042     -1160.0311     -3691.6809    
    135000   135000         683.0002       469.22121      34697.607      34147.345      12498.352      21648.993      5327.1475      5902.1737      5896.875       732.39156      37.736332      11305.956     -7553.2869     -494.47365      80411.064      43.162369      43.162369      43.162369      1.0720811      1407.5239      77.55646      -77.416761    
    136000   136000         669.33166     -618.29546      32917.69       33642.941      12248.229      21394.712      5311.9129      5775.9826      5902.7919      715.5028      -55.040958      11294.619     -7551.0559     -494.35892      80429.724      43.165707      43.165707      43.165707      1.0718324      1289.1993     -2106.3561     -1037.7296    
    137000   137000         685.28997      241.01159      34393.436      34114.235      12540.253      21573.982      5506.8707      5774.9419      5947.4164      702.89393     -87.217696      11288.675     -7559.5987     -500.55923      79433.461      42.986739      42.986739      42.986739      1.0852754      433.33221      976.06695     -686.36439    
    138000   138000         682.56866     -617.47316      33110.623      33823.393      12490.456      21332.938      5230.5287      5832.0629      5943.4665      701.23954     -112.53257      11288.452     -7550.2796     -502.34636      79150.87       42.935702      42.935702      42.935702      1.0891502     -1391.8789     -2169.2255      1708.6849    
    139000   139000         669.59938     -337.32384      33380.773      33772.011      12253.128      21518.883      5259.7165      5864.6426      6009.1575      709.79007     -72.425474      11294.332     -7546.3299     -499.96639      79527.65       43.003722      43.003722      43.003722      1.0839901     -729.53167      576.08855     -858.52839    
    140000   140000         687.87036      1693.9106      35955.139      33951.061      12587.472      21363.589      5399.3333      5936.0164      5617.4565      676.68573     -21.40272       11305.219     -7549.7194     -490.12943      81123.779      43.289515      43.289515      43.289515      1.0626623      1526.8304      2519.0295      1035.8719    
    141000   141000         680.13936      95.787892      33881.234      33768.453      12446.001      21322.452      5360.0417      5812.953       5690.4981      714.33376      35.153567      11261.245     -7551.7738     -492.50501      80732.482      43.219802      43.219802      43.219802      1.0678129     -204.00697     -167.50775      658.87839    
    142000   142000         690.09951      1451.5845      35963.93       34278.464      12628.264      21650.2        5327.6378      5870.9686      5884.0089      751.45286      64.702983      11300.562     -7549.1328     -499.41008      79616.239      43.019684      43.019684      43.019684      1.0827839     -1904.2671      4323.8006      1935.2202    
    143000   143000         684.73958      2104.7591      36268.075      33775.44       12530.182      21245.259      5336.0183      5843.6989      5602.4305      659.57705      57.284744      11296.603     -7550.3543     -489.64191      81204.551      43.303878      43.303878      43.303878      1.0616053      2163.4866      3225.5906      925.20025    
    144000   144000         676.86075     -2886.9516      30489.317      33843.708      12386.005      21457.702      5342.2244      5836.6595      5923.7582      654.5223      -26.299558      11286.35      -7559.5128     -499.06911      79670.633      43.029479      43.029479      43.029479      1.0820447     -1943.7972     -3844.0023     -2873.0555    
    145000   145000         669.88349     -1417.2894      32206.514      33878.876      12258.327      21620.549      5540.7334      5752.7998      5883.9187      683.22324      17.486698      11295.617     -7553.2301     -491.4315       80908.839      43.251249      43.251249      43.251249      1.0654854     -1204.1237     -1417.8944     -1629.8502    
    146000   146000         686.13645     -2750.8522      30702.493      33925.02       12555.743      21369.277      5350.4487      5755.0395      5934.3869      678.71492     -105.82506      11309.656     -7553.1435     -495.0003       80325.512      43.147056      43.147056      43.147056      1.073223      -1233.4448     -3298.4695     -3720.6422    
    147000   147000         678.02461     -243.03095      33712.266      33996.61       12407.303      21589.307      5326.3924      5820.404       6011.3503      700.18647     -21.244454      11305.842     -7553.6235     -495.62471      80224.313      43.128929      43.128929      43.128929      1.0745768      1100.5496     -438.02486     -1391.6176    
    148000   148000         674.96362      222.42665      33997.004      33737.048      12351.289      21385.758      5241.2776      5954.5847      5778.302       685.82845      14.548453      11269.339     -7558.122      -496.15998      80137.765      43.113413      43.113413      43.113413      1.0757373     -1051.5448      617.70127      1101.1235    
    149000   149000         682.3761       142.35287      34185.348      34018.051      12486.932      21531.119      5443.8805      5830.2132      5856.5791      669.94345      9.7251011      11274.863     -7554.0859     -493.41521      80583.555      43.193209      43.193209      43.193209      1.0697863      32.90351      -263.98476      658.13987    
    150000   150000         682.26629     -1566.018       32035.379      33870.869      12484.922      21385.947      5386.5016      5875.6934      5769.7828      675.61791     -75.744443      11301.828     -7547.7324     -494.74286      80367.308      43.154538      43.154538      43.154538      1.0726648     -3060.9971      414.14102     -2051.1978    
    151000   151000         680.17        -25.0778        34119.412      34148.768      12446.562      21702.206      5566.7438      5892.7431      5789.1535      708.12878     -21.826652      11311.061     -7543.797      -495.36205      80266.851      43.13655       43.13655       43.13655       1.0740073     -1895.7512      750.40014      1070.1176    
    152000   152000         678.58672     -1150.0773      32430.414      33777.291      12417.589      21359.701      5293.8351      5785.0217      5868.3991      672.64537     -2.1581615      11298.529     -7556.5702     -495.14679      80301.746      43.1428        43.1428        43.1428        1.0735406     -802.95841     -2008.043      -639.23056    
    153000   153000         678.96203     -876.95129      32819.516      33840.186      12424.457      21415.729      5361.0332      5754.8344      5880.7495      693.41957      9.216796       11272.764     -7556.2891     -498.22467      79805.667      43.053776      43.053776      43.053776      1.0802138     -822.18431     -2183.6596      374.99004    
    154000   154000         672.9571      -1980.2345      31471.484      33812.797      12314.572      21498.225      5332.9167      5948.8184      5844.6669      675.38636     -37.792699      11280.944     -7546.7142     -490.44692      81071.264      43.280172      43.280172      43.280172      1.0633507     -837.98845     -2011.4829     -3091.2322    
    155000   155000         676.85253      454.73375      34699.325      34168.432      12385.855      21782.577      5547.2173      5916.7905      5899.9616      675.08721      32.035341      11266.315     -7554.8305     -496.68971      80052.296      43.098081      43.098081      43.098081      1.0768858      731.1833      -1892.1921      2525.2101    
    156000   156000         673.99977      467.17195      34339.793      33801.233      12333.652      21467.581      5446.2462      5754.1045      5834.6421      710.962       -9.8676605      11287.607     -7556.1127     -503.0108       79046.318      42.916788      42.916788      42.916788      1.0905907     -473.06179      2056.3439     -181.76627    
    157000   157000         678.85143      2195.861       36743.776      34171.35       12422.433      21748.917      5531.2012      5920.6516      5777.5567      686.53276      76.517389      11309.319     -7552.8616     -494.99037      80327.122      43.147344      43.147344      43.147344      1.0732014      2589.1978      2655.6242      1342.7612    
    158000   158000         674.23268     -655.17915      32897.012      33652.613      12337.914      21314.699      5496.91        5804.6773      5678.4507      687.73648     -91.829382      11287.253     -7548.499      -502.80861      79078.105      42.92254       42.92254       42.92254       1.0901524     -3813.5745      1546.7296      301.30743    
    159000   159000         681.57259      861.21994      34736.551      33724.573      12472.228      21252.345      5381.6571      5778.4024      5660.5862      657.21811      4.0713481      11320.081     -7549.6714     -493.48952      80571.422      43.191041      43.191041      43.191041      1.0699474      1115.6502     -280.08123      1748.0908    
    160000   160000         688.70359     -163.29633      33858.395      34045.768      12602.72       21443.048      5387.3093      5790.9335      5886.2818      683.23229     -52.606042      11299.888     -7551.991      -505.36369      78678.292      42.85008       42.85008       42.85008       1.0956921     -937.82403     -357.17551      805.11055    
    161000   161000         680.6437       414.37488      34452.521      33971.251      12455.23       21516.021      5533.6162      5736.0509      5859.0626      712.49853     -73.328967      11300.571     -7552.4495     -499.2754       79637.715      43.023552      43.023552      43.023552      1.0824919     -106.65416      1212.4389      137.33985    
    162000   162000         671.87542     -741.17357      32648.124      33504.931      12294.778      21210.153      5218.1825      5779.1528      5850.1446      678.96659     -72.139146      11301.125     -7545.2796     -501.61674      79265.999      42.956509      42.956509      42.956509      1.0875682     -987.44493     -921.40915     -314.66664    
    163000   163000         686.78363      2706.6319      37217.709      34109.72       12567.586      21542.134      5473.9067      5964.6954      5734.5679      716.05506     -95.335853      11297.47      -7549.2255     -504.99203      78736.197      42.86059       42.86059       42.86059       1.0948863      5283.4656      703.86179      2132.5682    
    164000   164000         672.37965      996.82493      34866.411      33702.347      12304.005      21398.342      5495.3891      5701.0983      5808.0737      669.80252     -3.1570323      11279.85      -7552.7138     -496.56594      80072.249      43.101661      43.101661      43.101661      1.0766175      919.653        61.335279      2009.4865    
    165000   165000         684.70902     -121.64005      33814.347      33955.083      12529.623      21425.461      5507.6049      5877.6027      5753.7658      663.24649     -105.70262      11282.494     -7553.5507     -501.19321      79332.982      42.968606      42.968606      42.968606      1.08665       -880.36794      1613.4559     -1098.0081    
    166000   166000         679.02714      633.13394      34556.792      33817.542      12425.649      21391.894      5419.2755      5679.8678      5923.0956      681.96422     -45.903639      11287.081     -7553.487      -496.63736      80060.734      43.099595      43.099595      43.099595      1.0767723      244.50581      380.74016      1274.1559    
    167000   167000         667.51228     -1894.562       31417.904      33615.574      12214.936      21400.638      5350.8682      5768.8916      6009.9827      698.57049     -172.3109       11291.195     -7546.5591     -499.89776      79538.567      43.00569       43.00569       43.00569       1.0838413     -865.97553     -2329.5389     -2488.1716    
    168000   168000         665.58631     -978.69432      32342.055      33486.775      12179.692      21307.083      5284.8978      5832.0906      5841.5416      684.04958     -85.006196      11303.386     -7553.8765     -495.7729       80200.334      43.124631      43.124631      43.124631      1.0748981      793.39107     -879.20614     -2850.2679    
    169000   169000         691.41332     -617.22348      33166.941      33895.474      12652.306      21243.169      5400.0489      5852.1031      5665.965       618.79115     -31.960079      11290.899     -7552.6786     -491.27831      80934.068      43.255744      43.255744      43.255744      1.0651532     -1553.9843      1779.9617     -2077.6478    
    170000   170000         676.67298     -323.18189      33431.159      33807.986      12382.569      21425.417      5472.8819      5773.5952      5845.6483      670.82992     -63.110514      11276.059     -7550.4873     -497.32346      79950.284      43.079766      43.079766      43.079766      1.0782599     -2004.9806      741.67605      293.75891    
    171000   171000         690.22706      909.76572      35025.144      33960.665      12630.598      21330.067      5423.3785      5766.3988      5788.7379      643.94575     -32.888093      11293.71      -7553.2157     -495.59569      80229.01       43.12977       43.12977       43.12977       1.0745139      3570.5089     -2023.7521      1182.5403    
    172000   172000         681.41323     -93.195905      33702.821      33812.469      12469.312      21343.157      5277.7929      5803.0183      5877.1221      697.11109     -51.570872      11286.162     -7546.4786     -492.86995      80672.705      43.209132      43.209132      43.209132      1.0686041     -234.43434     -44.789474     -0.36389543   
    173000   173000         675.14165      1020.3135      35099.46       33909.218      12354.547      21554.67       5438.4028      5719.7922      5920.0981      706.1234       28.171177      11291.357     -7549.2749     -497.08766      79988.21       43.086577      43.086577      43.086577      1.0777486     -619.45846      3637.6149      42.783911    
    174000   174000         668.34493     -61.182034      33705.964      33776.899      12230.173      21546.726      5424.7226      5718.2641      5960.0149      691.17118      6.6038321      11294.065     -7548.115      -500.14784      79498.798      42.998521      42.998521      42.998521      1.0843835     -325.71189      792.86629     -650.7005     
    175000   175000         680.09535      142.5179       34161.726      33995.885      12445.196      21550.689      5357.2123      5797.1566      6047.2847      676.21961     -98.271313      11318.726     -7547.6387     -498.32641      79789.374      43.050846      43.050846      43.050846      1.0804344      1287.0703      526.72186     -1386.2385    
    176000   176000         683.30555      1853.5594      35942.326      33817.564      12503.94       21313.624      5455.4412      5652.8179      5835.3925      671.79596     -73.396035      11324.936     -7553.3635     -505.86085      78600.967      42.836038      42.836038      42.836038      1.09677        2427.8522      960.12825      2172.6977    
    177000   177000         680.37604      1807.4722      35854.353      33757.113      12450.332      21306.781      5478.9869      5749.2372      5678.223       674.62999     -21.524616      11296.495     -7549.2673     -499.75649      79561.051      43.009742      43.009742      43.009742      1.083535       1269.7775      1922.3437      2230.2955    
    178000   178000         669.5313       1759.8518      35523.001      33475.203      12251.883      21223.32       5352.7252      5737.3243      5686.1859      669.01146      52.599085      11278.706     -7553.2315     -498.33776      79787.557      43.050519      43.050519      43.050519      1.080459       2219.2045      2682.8756      377.47533    
    179000   179000         679.51865     -1313.0688      32306.002      33833.055      12434.643      21398.412      5417.3802      5804.7384      5782.9305      680.50226     -26.715683      11296.229     -7556.6524     -498.61849      79742.634      43.042438      43.042438      43.042438      1.0810677     -930.5281      -1541.3881     -1467.2903    
    180000   180000         677.21192      220.73267      33848.8        33593.821      12392.432      21201.389      5302.3327      5788.248       5815.0625      672.81486     -82.320244      11261.661     -7556.409      -501.99243      79206.676      42.94579       42.94579       42.94579       1.0883828      2992.6585     -3053.1003      722.63986    
    181000   181000         676.01888     -858.63423      32634.869      33630.434      12370.6        21259.834      5383.3708      5753.4845      5834.631       699.68089     -146.51366      11286.654     -7551.4732     -500.11895      79503.389      42.999349      42.999349      42.999349      1.0843209      696.51127     -728.65409     -2543.7599    
    182000   182000         666.49888      831.51031      34509.213      33544.17       12196.392      21347.778      5421.5007      5754.786       5779.7637      686.62574     -10.378566      11269.74      -7554.2601     -499.63815      79579.897      43.013138      43.013138      43.013138      1.0832784      1677.3699      54.199559      762.96149    
    183000   183000         658.5366      -989.45994      32037.21       33181.412      12050.688      21130.724      5372.8545      5856.7517      5629.7195      673.17792     -139.96957      11292.143     -7553.9528     -501.45311      79291.864      42.961181      42.961181      42.961181      1.0872135     -1167.7576      172.15891     -1972.7811    
    184000   184000         671.17141      867.39153      34580.621      33573.186      12281.895      21291.291      5482.7367      5749.6966      5801.2277      691.18169     -159.95807      11282.648     -7556.2419     -499.26716      79639.029      43.023789      43.023789      43.023789      1.0824741     -1103.1973      2050.9678      1654.4041    
    185000   185000         673.95074     -1320.2456      32107.873      33620.542      12332.755      21287.788      5473.0807      5782.3753      5766.409       685.34552     -150.99229      11286.401     -7554.8318     -506.1107       78562.164      42.828988      42.828988      42.828988      1.0973117     -2848.3043     -857.31738     -255.11522    
    186000   186000         678.60548      1331.447       35143.661      33602.547      12417.933      21184.614      5301.2394      5765.4312      5732.2418      684.99856     -25.08224       11284.18      -7558.3949     -500.9841       79366.095      42.974583      42.974583      42.974583      1.0861966     -321.46645      2088.7849      2227.0225    
    187000   187000         682.04914     -436.81517      33395.869      33902.035      12480.949      21421.086      5386.9008      5839.503       5796.6368      706.69229     -61.574814      11300.01      -7547.0821     -500.42599      79454.61       42.990553      42.990553      42.990553      1.0849866      293.85131     -882.28984     -722.00697    
    188000   188000         679.47351     -2082.2521      31370.167      33794.455      12433.817      21360.638      5398.1564      5778.7351      5929.1484      690.62036     -168.57498      11291.626     -7559.0728     -498.06262      79831.633      43.058445      43.058445      43.058445      1.0798625     -2285.2302     -1016.3051     -2945.2212    
    189000   189000         676.96241     -1355.359       32101.21       33669.353      12387.866      21281.488      5381.4306      5862.0168      5691.7009      683.94405     -82.587881      11296.583     -7551.5997     -501.19121      79333.299      42.968663      42.968663      42.968663      1.0866456     -522.38715     -1449.7188     -2093.9711    
    190000   190000         672.07114      197.86513      33842.533      33612.42       12298.359      21314.061      5364.1029      5752.5249      5811.2289      664.9368      -15.901948      11289.013     -7551.8434     -498.61323      79743.476      43.042589      43.042589      43.042589      1.0810563     -2459.0887     -533.91391      3586.598     
    191000   191000         662.91871      660.07775      33938.339      33165.454      12130.877      21034.577      5134.5981      5812.5674      5661.4906      650.18464      62.323232      11267.99      -7554.5774     -495.23923      80286.757      43.140116      43.140116      43.140116      1.073741       527.61822      737.628        714.98703    
    192000   192000         678.33326      1763.5165      35998.37       33940.761      12412.951      21527.81       5411.6439      5869.3813      5743.278       678.32695      96.89394       11280.497     -7552.2108     -496.99449      80003.205      43.089269      43.089269      43.089269      1.0775466     -65.608716      1039.7118      4316.4463    
    193000   193000         679.71072     -487.97957      33305.193      33873.447      12438.158      21435.289      5359.4697      5887.2232      5888.146       671.85205     -105.31588      11285.561     -7551.6463     -497.9593       79848.197      43.061422      43.061422      43.061422      1.0796384     -784.31285     -868.67114      189.04528    
    194000   194000         682.44125     -401.81511      33445.943      33915.249      12488.124      21427.125      5355.1806      5775.7496      5853.0328      681.21646      24.802716      11287.738     -7550.596      -496.48426      80085.423      43.104025      43.104025      43.104025      1.0764404      382.39829     -940.19294     -647.65069    
    195000   195000         680.1721      -171.8252       33490.135      33692.144      12446.6        21245.544      5295.4824      5810.8333      5804.9163      664.49998     -65.476319      11285.86      -7550.5715     -493.22982      80613.845      43.19862       43.19862       43.19862       1.0693843     -1457.0401      232.10408      709.46045    
    196000   196000         675.48172      464.74928      34213.759      33671.954      12360.77       21311.183      5401.5887      5779.9389      5768.6049      676.36606     -38.253349      11276.911     -7553.9723     -497.40489      79937.196      43.077415      43.077415      43.077415      1.0784364      942.82596      16.17081       435.25107    
    197000   197000         675.00498      943.42188      34970.484      33864.26       12352.046      21512.214      5367.4784      5839.468       5872.9251      681.29306     -7.9128396      11311.236     -7552.2747     -494.53578      80400.961      43.160561      43.160561      43.160561      1.0722158      2460.667      -27.067407      396.66604    
    198000   198000         668.5023      -594.36995      32901.842      33606.169      12233.052      21373.117      5218.4696      5838.1642      5977.8271      667.85123     -97.314835      11317.223     -7549.1036     -489.34735      81253.432      43.312565      43.312565      43.312565      1.0609667     -721.12835     -1227.0594      165.07787    
    199000   199000         672.58489     -1571.7408      31759.75       33601.074      12307.761      21293.313      5324.113       5780.5945      5865.9083      670.47961     -70.168911      11276.999     -7554.6123     -494.97752      80329.208      43.147718      43.147718      43.147718      1.0731736     -1681.8231     -2996.6184     -36.780756    
    200000   200000         688.65539      576.52518      34477.487      33804.133      12601.838      21202.295      5400.4402      5748.6784      5702.8888      672.30522     -53.330181      11284.83      -7553.5172     -496.48963      80084.557      43.10387       43.10387       43.10387       1.076452      -450.61254     -758.68406      2938.8721    
    201000   201000         685.88262     -405.67873      33433.255      33910.938      12551.098      21359.84       5504.9412      5761.1894      5720.8792      663.77033     -26.246918      11289.789     -7554.4824     -492.46718      80738.684      43.220908      43.220908      43.220908      1.0677308     -1102.2081      802.0613      -916.88936    
    202000   202000         665.33038     -1844.8646      31366.978      33529.865      12175.009      21354.856      5134.635       5752.2517      6001.7279      684.73859      30.514843      11298.323     -7547.3353     -494.61298      80388.411      43.158315      43.158315      43.158315      1.0723832     -1333.4841     -1062.0181     -3139.0915    
    203000   203000         675.52172      1098.4429      35022.077      33716.57       12361.502      21355.067      5516.021       5743.063       5725.5982      659.64803     -22.33858       11289.667     -7556.5913     -487.90236      81494.076      43.355282      43.355282      43.355282      1.0578337      2501.3773      903.81555     -109.86419    
    204000   204000         678.50903      1380.0089      35104.641      33496.804      12416.168      21080.637      5266.7758      5733.1373      5674.2311      654.01653      42.305123      11265.718     -7555.5473     -497.70815      79888.488      43.068664      43.068664      43.068664      1.0790939      5.4300014      3628.0608      506.53574    
    205000   205000         678.77814      889.34507      34814.067      33770.557      12421.092      21349.465      5395.4454      5787.0772      5795.4022      659.45133     -16.544389      11282.173     -7553.5403     -494.20633      80454.558      43.170149      43.170149      43.170149      1.0715015      2785.2951      109.72018     -226.98006    
    206000   206000         670.5478      -469.12077      33033.741      33583.402      12270.484      21312.918      5205.0492      5828.0123      5863.2075      693.98669      0.63738213     11280.532     -7558.507      -494.90865      80340.387      43.149719      43.149719      43.149719      1.0730242     -601.29244      560.91286     -1366.9827    
    207000   207000         673.08354     -1847.4209      31485.854      33635.179      12316.886      21318.294      5413.5202      5782.498       5836.975       650.14086     -94.672889      11280.383     -7550.5502     -498.42343      79773.843      43.048052      43.048052      43.048052      1.0806447     -1874.1024     -1925.6888     -1742.4715    
    208000   208000         677.95117     -1463.1199      32038.964      33745.301      12405.959      21339.341      5253.3519      5877.0278      5822.8489      691.55697     -56.783348      11300.796     -7549.4572     -497.22177      79966.635      43.082703      43.082703      43.082703      1.0780394     -419.00345     -1171.1928     -2799.1636    
    209000   209000         676.77506      32.526655      33867.757      33829.429      12384.437      21444.991      5435.9782      5611.1487      5977.1661      714.44743     -31.527305      11293.903     -7556.1244     -492.1062       80797.909      43.231474      43.231474      43.231474      1.0669482      865.89953     -1287.2668      518.94724    
    210000   210000         653.45906      935.12119      34191.354      33098.24       11957.773      21140.467      5241.8442      5819.379       5681.2961      675.11962     -32.776319      11306.675     -7551.0714     -496.06335      80153.375      43.116213      43.116213      43.116213      1.0755278      1568.0009      1771.2404     -533.87774    
    211000   211000         674.52431      697.05321      34471.176      33659.313      12343.25       21316.062      5332.7514      5853.1304      5802.2836      682.83672     -100.57046      11295.119     -7549.4883     -497.87204      79862.191      43.063938      43.063938      43.063938      1.0794493     -210.4229       1258.8177      1042.7648    
    212000   212000         674.29646      1093.9937      35144.573      33855.242      12339.081      21516.161      5508.9026      5816.2172      5752.8368      702.44247     -18.064259      11297.181     -7543.3556     -492.02276      80811.611      43.233917      43.233917      43.233917      1.0667673      411.512        1628.3359      1242.1333    
    213000   213000         682.74572     -60.240266      33809.226      33879.647      12493.696      21385.952      5303.5007      5834.8031      5817.3036      717.97988     -33.542235      11295.752     -7549.8449     -496.0404       80157.084      43.116878      43.116878      43.116878      1.075478      -563.30391      1396.7498     -1014.1667    
    214000   214000         655.96746     -144.93617      33010.353      33179.304      12003.675      21175.629      5325.0803      5900.9658      5604.9465      643.09106     -34.550257      11285.028     -7548.9317     -497.45116      79929.76       43.07608       43.07608       43.07608       1.0785367     -16.979781     -186.60676     -231.22196    
    215000   215000         671.39929     -810.18585      32452.27       33401.032      12286.065      21114.967      5402.9388      5729.1661      5686.1885      654.8671      -90.142448      11284.939     -7552.9901     -495.17923      80296.485      43.141858      43.141858      43.141858      1.0736109     -1459.4354     -628.32425     -342.79793    
    216000   216000         668.53866     -147.15283      33329.797      33500.031      12233.718      21266.313      5407.9305      5825.8099      5670.5241      664.89946     -59.177591      11312.084     -7555.7581     -501.25509      79323.188      42.966837      42.966837      42.966837      1.0867841     -2789.0714      2967.2782     -619.66529    
    217000   217000         673.05803      360.57828      34237.818      33817.059      12316.419      21500.64       5687.3087      5672.7398      5807.3106      661.59468     -46.083564      11276.03      -7558.2598     -496.93608      80012.608      43.090957      43.090957      43.090957      1.07742       -274.33695     -1124.6409      2480.7127    
    218000   218000         668.00832     -297.63631      33055.556      33399.239      12224.013      21175.226      5397.7085      5714.3512      5719.349       686.53488     -77.892447      11292.531     -7557.3566     -502.1837       79176.508      42.940337      42.940337      42.940337      1.0887975     -765.4056       241.30361     -368.80695    
    219000   219000         676.99948      861.39276      34822.802      33826.404      12388.544      21437.86       5450.1599      5850.3834      5784.782       688.10599     -72.304519      11300.602     -7563.8684     -501.30637      79315.075      42.965372      42.965372      42.965372      1.0868953      276.29226      2523.7351     -215.84905    
    220000   220000         676.83074      740.00379      34334.63       33480.721      12385.456      21095.264      5389.4204      5858.2459      5529.0758      645.34307     -60.949163      11294.686     -7560.5579     -502.52406      79122.882      42.93064       42.93064       42.93064       1.0895354      370.085       -817.69334      2667.6197    
    221000   221000         679.33724      681.08734      34434.088      33650.652      12431.323      21219.328      5381.1005      5760.7872      5743.6908      664.72371     -66.947203      11294.14      -7558.1661     -504.11997      78872.399      42.88529       42.88529       42.88529       1.0929956     -295.25079      1755.9645      582.54826    
    222000   222000         666.38944      1106.1579      34725.564      33453.395      12194.389      21259.006      5495.8325      5734.2683      5733.2359      676.84347     -115.13448      11292.54      -7558.5798     -504.20481      78859.128      42.882885      42.882885      42.882885      1.0931795      1621.5822      1652.9839      43.907672    
    223000   223000         683.66303     -106.03623      33635.381      33755.95       12510.482      21245.469      5358.5478      5921.3137      5737.7882      670.21924     -177.30928      11289.347     -7554.4384     -509.97869      77966.301      42.720433      42.720433      42.720433      1.105698       233.06548      45.729425     -596.90358    
    224000   224000         665.7982       395.0175       33844.343      33386.386      12183.57       21202.816      5387.9922      5664.5028      5818.3608      686.81769     -99.118064      11304.186     -7559.9254     -500.1806       79493.591      42.997582      42.997582      42.997582      1.0844545      1165.4293     -620.45743      640.08066    
    225000   225000         669.44075     -1050.9234      32382.201      33598.013      12250.225      21347.787      5291.8285      5718.3223      5872.7079      715.43798      25.970444      11274.035     -7550.5147     -501.23277      79326.721      42.967475      42.967475      42.967475      1.0867357     -948.25051     -3126.6956      922.17575    
    226000   226000         673.92839      958.06541      34679.036      33567.834      12332.346      21235.489      5306.1084      5831.6365      5711.7471      693.05615     -58.733569      11305.5       -7553.8262     -499.962        79528.348      43.003848      43.003848      43.003848      1.0839806      1291.0539      395.18502      1187.9573    
    227000   227000         671.89301     -492.22331      32828.199      33391.767      12295.1        21096.667      5322.3272      5727.2434      5789.843       668.44435     -145.57769      11294.861     -7560.4745     -506.46626      78507.011      42.818963      42.818963      42.818963      1.0980826     -490.19191     -415.5964      -570.88163    
    228000   228000         678.84839      695.65933      34516.617      33718.763      12422.378      21296.385      5393.7935      5900.6916      5770.4784      667.05436     -177.93335      11293.987     -7551.6868     -505.6012       78641.332      42.84337       42.84337       42.84337       1.0962071      184.34037     -1250.1503      3152.7879    
    229000   229000         667.85124      761.55195      34346.665      33470.816      12221.139      21249.677      5380.2251      5825.2716      5715.8639      682.01989     -113.52658      11317.481     -7557.6574     -504.20274      78859.452      42.882943      42.882943      42.882943      1.093175       51.320104      494.49123      1738.8445    
    230000   230000         661.80657     -680.78888      32611.351      33406.093      12110.526      21295.567      5502.856       5809.8015      5648.8498      660.60843     -60.411013      11285.81      -7551.9474     -496.73066      80045.697      43.096896      43.096896      43.096896      1.0769746     -2084.3841     -47.303704      89.321158    
    231000   231000         679.02141      2629.3179      36687.879      33650.558      12425.544      21225.014      5273.7638      5870.0252      5721.524       688.82732     -64.829119      11290.597     -7554.8945     -501.98093      79208.491      42.946118      42.946118      42.946118      1.0883578      1752.2028      2177.5363      3958.2146    
    232000   232000         667.63159      223.53939      33771.998      33510.358      12217.119      21293.239      5435.5412      5790.4763      5699.6995      651.18879     -56.552392      11320.212     -7547.327      -495.43308      80255.344      43.134489      43.134489      43.134489      1.0741613      2338.8911     -2414.024       745.75105    
    233000   233000         670.41427      644.59107      34404.317      33653.661      12268.04       21385.621      5404.5196      5792.2686      5815.7681      694.81164     -44.345676      11275.037     -7552.4383     -497.94132      79851.079      43.06194       43.06194       43.06194       1.0795995      938.29858      1330.8378     -335.36312    
    234000   234000         658.73276      82.590761      33080.314      32984.866      12054.278      20930.588      5226.2005      5697.7074      5682.9053      671.86252     -75.042483      11273.984     -7547.0296     -501.76422      79242.701      42.9523        42.9523        42.9523        1.087888       241.73833      1478.8715     -1472.8376    
    235000   235000         678.15932      2518.6592      36534.037      33589.863      12409.768      21180.095      5367.3036      5926.1124      5534.2794      666.29138     -56.571503      11299.493     -7556.8138     -496.06745      80152.714      43.116094      43.116094      43.116094      1.0755367      3187.58        3323.087       1045.3105    
    236000   236000         672.52952      860.37941      34235.59       33237.769      12306.747      20931.022      5169.7954      5680.5576      5707.7265      692.69343     -50.426193      11290.221     -7559.5458     -500.00265      79521.883      43.002683      43.002683      43.002683      1.0840687      927.23705      492.98845      1160.9127    
    237000   237000         688.18834     -1761.9204      31640.524      33688.135      12593.291      21094.844      5237.3137      5806.3167      5828.4971      665.55519     -156.4978       11274.804     -7561.1457     -498.96928      79686.573      43.032349      43.032349      43.032349      1.0818282     -2356.4753     -303.85499     -2625.4309    
    238000   238000         656.81912      613.85785      34036.644      33329.347      12019.26       21310.087      5256.2143      5920.8212      5753.685       680.36646     -16.127569      11278.59      -7563.463      -503.26978      79005.641      42.909426      42.909426      42.909426      1.0911522      1771.8055     -1298.0137      1367.7817    
    239000   239000         676.73189      2293.6481      36339.668      33669.37       12383.647      21285.722      5341.2599      5828.31        5633.7233      673.49083      81.242728      11285.312     -7557.6162     -498.08329      79828.32       43.057849      43.057849      43.057849      1.0799073      2813.5947      301.84821      3765.5014    
    240000   240000         666.71468      763.44258      34446.463      33565.577      12200.341      21365.237      5420.178       5765.2569      5863.2697      713.30577     -129.89223      11294.824     -7561.7052     -502.56455      79116.508      42.929487      42.929487      42.929487      1.0896232      196.15651      1652.9513      441.21993    
    241000   241000         657.07136      664.42486      34094.214      33318.939      12023.876      21295.064      5292.1434      5727.5373      5847.6029      679.98901      42.988146      11267.038     -7562.2343     -496.96413      80008.092      43.090147      43.090147      43.090147      1.0774808      805.92819      932.40153      254.94487    
    242000   242000         670.5396      -1505.759       31970.3        33734.53       12270.333      21464.197      5305.0633      5894.8981      5908.9306      673.89537     -38.085513      11278.912     -7559.4172     -494.92007      80338.532      43.149387      43.149387      43.149387      1.073049      -962.73896     -993.78788     -2560.7501    
    243000   243000         679.50024      168.853        33675.648      33479.73       12434.306      21045.424      5083.6842      5790.8068      5767.1161      678.83177     -34.277302      11316.026     -7556.7635     -499.7685       79559.139      43.009397      43.009397      43.009397      1.083561      -123.66738      1747.1425     -1116.9162    
    244000   244000         663.53991     -422.55613      32906.077      33398.749      12142.245      21256.504      5327.5041      5768.8795      5811.4067      699.59825     -76.020937      11277.963     -7552.8259     -497.3492       79946.146      43.079023      43.079023      43.079023      1.0783157     -291.21308      553.90537     -1530.3607    
    245000   245000         671.86717      1131.1466      34765.194      33451.308      12294.627      21156.681      5342.5174      5667.1728      5854.1862      651.18516     -107.21623      11305.852     -7557.0162     -499.22456      79645.825      43.025012      43.025012      43.025012      1.0823817      753.4758       466.25063      2173.7135    
    246000   246000         663.44381     -359.49704      32879.589      33293.213      12140.486      21152.727      5349.2727      5725.3264      5812.1481      658.16814     -126.48267      11290.936     -7556.6419     -503.99275      78892.309      42.888898      42.888898      42.888898      1.0927197     -1169.438      -666.44921      757.39609    
    247000   247000         681.32903      1947.6573      35878.876      33674.335      12467.771      21206.564      5500.2527      5692.7849      5685.437       682.47951     -88.331797      11288.224     -7554.2831     -512.30581      77612.144      42.65565       42.65565       42.65565       1.1107435      2518.9737      2376.6329      947.36535    
    248000   248000         669.372       -1189.6348      31955.636      33331.003      12248.967      21082.036      5291.2103      5751.8975      5792.5137      693.74665     -181.32098      11290.186     -7556.1978     -501.56806      79273.692      42.957899      42.957899      42.957899      1.0874627     -3199.5239     -1597.2379      1227.8572    
    249000   249000         677.22731      898.82897      34614.655      33585.704      12392.713      21192.99       5361.602       5772.8522      5729.3915      658.63091     -62.564744      11290.086     -7557.0079     -506.54392      78494.975      42.816775      42.816775      42.816775      1.098251       2242.5999     -1037.7585      1491.6456    
    250000   250000         668.69579     -1160.8993      32074.296      33414.867      12236.593      21178.274      5408.9682      5821.6064      5690.8181      664.64423     -139.08103      11286.466     -7555.1485     -502.15724      79180.68       42.941091      42.941091      42.941091      1.0887401     -1615.5286     -1126.2931     -740.87636    
Loop time of 535.502 on 1 procs for 250000 steps with 6140 atoms

Performance: 40.336 ns/day, 0.595 hours/ns, 466.851 timesteps/s, 2.866 Matom-step/s
100.0% CPU use with 1 MPI tasks x 1 OpenMP threads

MPI task timing breakdown:
Section |  min time  |  avg time  |  max time  |%varavg| %total
---------------------------------------------------------------
Pair    | 49.229     | 49.229     | 49.229     |   0.0 |  9.19
Bond    | 65.954     | 65.954     | 65.954     |   0.0 | 12.32
Kspace  | 240.44     | 240.44     | 240.44     |   0.0 | 44.90
Neigh   | 75.891     | 75.891     | 75.891     |   0.0 | 14.17
Comm    | 13.121     | 13.121     | 13.121     |   0.0 |  2.45
Output  | 2.1365     | 2.1365     | 2.1365     |   0.0 |  0.40
Modify  | 78.402     | 78.402     | 78.402     |   0.0 | 14.64
Other   |            | 10.33      |            |       |  1.93

Nlocal:           6140 ave        6140 max        6140 min
Histogram: 1 0 0 0 0 0 0 0 0 0
Nghost:          16148 ave       16148 max       16148 min
Histogram: 1 0 0 0 0 0 0 0 0 0
Neighs:              0 ave           0 max           0 min
Histogram: 1 0 0 0 0 0 0 0 0 0
FullNghs:  3.03078e+06 ave 3.03078e+06 max 3.03078e+06 min
Histogram: 1 0 0 0 0 0 0 0 0 0

Total # of neighbors = 3030782
Ave neighs/atom = 493.6127
Ave special neighs/atom = 5.6319218
Neighbor list builds = 17988
Dangerous builds = 0
System init for write_data ...
PPPM Kokkos initialization ...
  using 12-bit tables for long-range coulomb
  G vector (1/distance) = 0.31408349
  grid = 36 36 36
  stencil order = 5
  estimated absolute RMS force accuracy = 0.00024656075
  estimated relative force accuracy = 7.4251036e-07
  using double precision cuFFT
  3d grid and FFT values/proc = 79507 46656
Generated 21 of 21 mixed pair_coeff terms from sixthpower/sixthpower mixing rule
System init for write_restart ...
PPPM Kokkos initialization ...
  using 12-bit tables for long-range coulomb
  G vector (1/distance) = 0.31408349
  grid = 36 36 36
  stencil order = 5
  estimated absolute RMS force accuracy = 0.00024656075
  estimated relative force accuracy = 7.4251036e-07
  using double precision cuFFT
  3d grid and FFT values/proc = 79507 46656
Generated 21 of 21 mixed pair_coeff terms from sixthpower/sixthpower mixing rule
STAGE COMPLETE: NPT T=695.0->670.0K P=1.0->1.0atm steps=250000
