Authorization required, but no authorization protocol specified

Authorization required, but no authorization protocol specified

Authorization required, but no authorization protocol specified

Authorization required, but no authorization protocol specified

LAMMPS (22 Jul 2025 - Update 3)
KOKKOS mode with Kokkos version 4.6.2 is enabled
  will use up to 1 GPU(s) per node
  using 1 OpenMP thread(s) per MPI task
Reading data file ...
  orthogonal box = (6.8277474 6.8277474 6.8277474) to (46.864946 46.864946 46.864946)
  1 by 1 by 1 MPI processor grid
  reading atoms ...
  4940 atoms
  reading velocities ...
  4940 velocities
  scanning bonds ...
  4 = max bonds/atom
  scanning angles ...
  12 = max angles/atom
  scanning dihedrals ...
  24 = max dihedrals/atom
  scanning impropers ...
  10 = max impropers/atom
  orthogonal box = (6.8277474 6.8277474 6.8277474) to (46.864946 46.864946 46.864946)
  1 by 1 by 1 MPI processor grid
  reading bonds ...
  4930 bonds
  reading angles ...
  9840 angles
  reading dihedrals ...
  14670 dihedrals
  reading impropers ...
  6560 impropers
Finding 1-2 1-3 1-4 neighbors ...
  special bond factors lj:    0        0        1       
  special bond factors coul:  0        0        1       
     4 = max # of 1-2 neighbors
     6 = max # of 1-3 neighbors
    10 = max # of special neighbors
  special bonds CPU = 0.003 seconds
  read_data CPU = 0.192 seconds
Finding SHAKE clusters ...
     810 = # of size 2 clusters
     820 = # of size 3 clusters
      10 = # of size 4 clusters
       0 = # of frozen angles
  find clusters CPU = 0.002 seconds
PPPM Kokkos initialization ...
  using 12-bit tables for long-range coulomb
  G vector (1/distance) = 0.29596665
  grid = 27 27 27
  stencil order = 5
  estimated absolute RMS force accuracy = 0.00036098026
  estimated relative force accuracy = 1.0870813e-06
  using double precision cuFFT
  3d grid and FFT values/proc = 39304 19683
Generated 6 of 6 mixed pair_coeff terms from sixthpower/sixthpower mixing rule
Neighbor list info ...
  update: every = 1 steps, delay = 0 steps, check = yes
  max neighbors/atom: 4000, page size: 100000
  master list distance cutoff = 11.5
  ghost atom cutoff = 11.5
  binsize = 11.5, bins = 4 4 4
  1 neighbor lists, perpetual/occasional/extra = 1 0 0
  (1) pair lj/class2/coul/long/kk, perpetual
      attributes: full, newton off, kokkos_device
      pair build: full/bin/kk/device
      stencil: full/bin/3d
      bin: kk/device
Setting up Verlet run ...
  Unit style    : real
  Current step  : 0
  Time step     : 1
Per MPI rank memory allocation (min/avg/max) = 30.1 | 30.1 | 30.1 Mbytes
   Step          Time           Temp          Press         Enthalpy        TotEng         KinEng         PotEng         E_bond        E_angle        E_dihed        E_impro         E_vdwl         E_coul         E_long         E_tail         Volume           Lx             Ly             Lz          Density          Pxx            Pyy            Pzz      
         0   0              335.6188      -214.23014     -1549.9619     -1349.4466      4114.0436     -5463.4903      1025.0003      2852.24       -2829.0446      20.490012     -1224.4583     -2225.209      -3082.5087     -367.93508      64178.717      40.037198      40.037198      40.037198      1.3265304     -438.80651     -425.24687      221.36295    
       500   500            307.67461      202.14126     -1775.8565     -1964.534       3771.5014     -5736.0354      954.05494      2686.2037     -2849.5549      19.979839     -1243.6615     -2227.8118     -3075.2457     -368.95459      64001.377      40.000287      40.000287      40.000287      1.3302061      659.48737     -378.95514      325.89154    
      1000   1000           309.82755     -72.221765     -2057.7573     -1990.4793      3797.8922     -5788.3716      984.60826      2623.2819     -2832.1644      18.606095     -1269.683      -2232.7202     -3080.3002     -369.68649      63874.667      39.973872      39.973872      39.973872      1.3328448      695.01087     -78.154361     -833.52181    
      1500   1500           309.68169      147.78401     -1817.8933     -1955.012       3796.1044     -5751.1164      943.65589      2732.3099     -2850.9087      20.765274     -1280.071      -2236.8787     -3079.9889     -371.16653      63619.964      39.920669      39.920669      39.920669      1.3381809      1485.8837     -535.58708     -506.94462    
      2000   2000           308.85554      852.66759     -1130.8084     -1926.5522      3785.9773     -5712.5295      954.15854      2668.9858     -2804.7203      18.579944     -1236.3353     -2231.2208     -3081.9775     -369.0155       63990.813      39.998086      39.998086      39.998086      1.3304257      53.172127      1226.3962      1278.4344    
      2500   2500           317.08908      54.415047     -1614.0119     -1664.8056      3886.9047     -5551.7103      989.46859      2735.6887     -2810.8163      19.598703     -1167.8061     -2237.1283     -3080.7156     -368.93286      64005.146      40.001072      40.001072      40.001072      1.3301277     -418.05585      273.26704      308.03395    
      3000   3000           311.12761      213.03332     -1717.7905     -1916.7959      3813.8285     -5730.6245      964.75955      2723.2991     -2860.6768      19.975229     -1269.3867     -2231.532      -3077.0629     -368.65554      64053.295      40.0111        40.0111        40.0111        1.3291279      188.35693      157.60852      293.1345     
      3500   3500           308.46857     -227.47826     -2108.3502     -1896.4987      3781.2339     -5677.7326      978.54541      2761.5427     -2837.3479      20.549838     -1286.0287     -2231.9076     -3083.0863     -369.7825       63858.084      39.970412      39.970412      39.970412      1.333191      -199.46405     -604.30304      121.33233    
      4000   4000           314.31327     -775.8768      -2548.7928     -1826.3451      3852.8786     -5679.2237      953.49118      2699.6754     -2801.6076      18.711359     -1234.1523     -2235.0597     -3080.282      -369.84903      63846.596      39.968015      39.968015      39.968015      1.3334308      32.977998     -1642.9467     -717.66167    
      4500   4500           314.91351      507.89081     -1370.5794     -1838.973       3860.2364     -5699.2094      983.67646      2712.0401     -2835.5283      19.832956     -1272.5752     -2230.2188     -3076.4366     -373.41993      63236.051      39.840207      39.840207      39.840207      1.3463051      139.37127      260.2153       1124.0859    
      5000   5000           312.49625      480.06034     -1412.3236     -1857.9399      3830.6055     -5688.5454      971.36623      2694.6477     -2829.1065      20.168099     -1226.6502     -2240.1015     -3078.8694     -370.99909      63648.678      39.926674      39.926674      39.926674      1.3375772      906.46679      840.55594     -306.84172    
      5500   5500           308.8098      -645.15583     -2557.7178     -1956.8206      3785.4167     -5742.2373      995.86505      2650.3966     -2801.3898      19.256238     -1290.8605     -2237.4894     -3078.0153     -369.74523      63864.52       39.971755      39.971755      39.971755      1.3330566     -1691.8853      127.41252     -370.99467    
      6000   6000           309.54901     -930.21152     -2798.233      -1928.3348      3794.4779     -5722.8127      1008.3123      2664.7212     -2836.6028      19.82525      -1287.4531     -2215.464      -3076.1516     -368.25732      64122.558      40.025517      40.025517      40.025517      1.3276922     -1113.4993     -523.64338     -1153.4919    
      6500   6500           311.66946      90.886958     -1834.5335     -1918.7062      3820.4706     -5739.1768      998.07692      2678.182      -2830.2963      19.303876     -1295.6214     -2230.2183     -3078.6036     -371.85054      63502.937      39.896176      39.896176      39.896176      1.340647      -558.16419      1144.9279     -314.10287    
      7000   7000           311.64106     -1281.1966     -3080.7048     -1877.7197      3820.1224     -5697.8421      1023.6088      2679.5232     -2822.2581      18.146982     -1292.301      -2227.1946     -3077.3672     -366.76986      64382.612      40.079553      40.079553      40.079553      1.3223294     -569.52361     -862.68983     -2411.3762    
      7500   7500           309.48977     -447.29304     -2334.761      -1917.5974      3793.7517     -5711.3491      994.35056      2682.2138     -2833.3257      20.532323     -1270.525      -2229.4498     -3075.1453     -369.25279      63949.69       39.989516      39.989516      39.989516      1.3312812      74.909105     -1627.8188      211.03058    
      8000   8000           312.14945      939.55109     -977.59028     -1846.7294      3826.3544     -5673.0838      989.05244      2664.8689     -2825.0296      18.752782     -1204.4687     -2238.6632     -3077.5963     -372.2796       63429.749      39.880843      39.880843      39.880843      1.3421938      1614.895       442.85195      760.90629    
      8500   8500           313.54726     -1127.5535     -3032.1276     -1979.5031      3843.4888     -5822.9918      999.71049      2621.5831     -2836.2901      19.828624     -1327.5138     -2225.0218     -3075.2883     -368.89414      64011.865      40.002472      40.002472      40.002472      1.3299881     -1071.1153     -1387.0943     -924.45081    
      9000   9000           311.24674     -598.17848     -2488.1809     -1931.036       3815.2888     -5746.3248      1025.3431      2632.4334     -2843.0623      19.571763     -1262.6164     -2237.8744     -3080.12       -369.7437       63864.785      39.97181       39.97181       39.97181       1.3330511     -95.825285     -1372.7786     -325.93152    
      9500   9500           304.55342     -599.89304     -2506.0523     -1949.1376      3733.2416     -5682.3792      987.54631      2751.2709     -2832.398       20.064351     -1297.7576     -2233.6059     -3077.4993     -370.95673      63655.946      39.928193      39.928193      39.928193      1.3374245     -743.63501     -202.92251     -853.1216     
     10000   10000          317.1849       442.54393     -1438.4423     -1847.7332      3888.0793     -5735.8125      954.38267      2740.6158     -2832.6181      20.530164     -1320.4584     -2223.1259     -3075.1388     -372.35946      63416.145      39.877992      39.877992      39.877992      1.3424818      534.10437      1777.4665     -983.93909    
     10500   10500          304.60943     -271.37258     -2334.401      -2082.7573      3733.9281     -5816.6855      957.72542      2683.961      -2848.7529      20.367173     -1309.2984     -2236.1353     -3084.5524     -371.37957      63583.469      39.913034      39.913034      39.913034      1.338949      -679.86634     -897.58367      763.33228    
     11000   11000          303.33993      143.73614     -1856.0452     -1989.9848      3718.3665     -5708.3513      982.95096      2702.195      -2823.7189      19.894901     -1262.1347     -2241.5868     -3085.9518     -369.56872      63895.022      39.978118      39.978118      39.978118      1.3324202      411.17511     -22.022393      42.055717    
     11500   11500          308.59684     -433.46376     -2351.2269     -1948.3942      3782.8061     -5731.2003      963.52379      2728.4498     -2845.6058      19.869071     -1277.5643     -2239.0193     -3080.8536     -370.56652      63722.977      39.942203      39.942203      39.942203      1.3360176      827.96661     -1780.938      -347.41988    
     12000   12000          317.53717     -90.514094     -1922.8288     -1838.8864      3892.3975     -5731.284       964.35625      2682.3701     -2813.1823      18.028475     -1260.6738     -2238.0825     -3084.1001     -371.34107      63590.062      39.914413      39.914413      39.914413      1.3388101     -710.45276      876.36506     -437.45458    
     12500   12500          316.41783      333.64183     -1599.4171     -1909.1159      3878.6765     -5787.7924      924.02007      2713.7255     -2823.9239      20.16586      -1301.9085     -2238.0929     -3081.7784     -371.00438      63647.771      39.926484      39.926484      39.926484      1.3375962      77.913908      788.95869      134.05291    
     13000   13000          316.54495     -551.97844     -2347.8979     -1832.2407      3880.2347     -5712.4754      1011.8165      2666.7939     -2832.336       19.734411     -1270.8231     -2226.5749     -3081.0861     -368.63714      64056.491      40.011766      40.011766      40.011766      1.3290615      554.46692     -736.62709     -1473.7752    
     13500   13500          318.58639      1131.7022     -832.71313     -1888.027       3905.2589     -5793.2859      931.45248      2655.8013     -2841.9871      18.342992     -1237.3877     -2240.1321     -3079.3757     -369.30794      63940.141      39.987526      39.987526      39.987526      1.33148        916.42993      1668.2914      810.38522    
     14000   14000          305.74219     -237.02864     -2202.8446     -1981.5331      3747.8136     -5729.3467      998.82552      2695.2729     -2844.5075      20.096916     -1290.4936     -2232.7258     -3075.8152     -368.83741      64021.71       40.004522      40.004522      40.004522      1.3297836     -818.86729     -191.42937      299.21073    
     14500   14500          310.5427       185.75251     -1784.0699     -1957.2892      3806.6587     -5763.9479      961.52734      2684.2857     -2826.8906      19.892938     -1276.5354     -2241.587      -3084.6409     -369.2977       63941.913      39.987895      39.987895      39.987895      1.3314431      988.80195     -213.24511     -218.2993     
     15000   15000          316.65194      151.69189     -1715.7382     -1856.9398      3881.5462     -5738.4861      969.83538      2715.8413     -2836.822       19.227376     -1288.968      -2233.2775     -3084.3225     -369.96498      63826.587      39.96384       39.96384       39.96384       1.3338489     -1035.3011      580.1315       910.24524    
     15500   15500          316.61023     -523.60752     -2316.6239     -1832.6746      3881.0349     -5713.7095      946.90978      2725.2158     -2819.7477      21.147458     -1266.3763     -2234.4697     -3086.3889     -372.6011       63375.018      39.869369      39.869369      39.869369      1.343353      -51.42122      -1468.3354     -51.065888    
     16000   16000          308.47544      524.89753     -1410.4103     -1901.5111      3781.318      -5682.8291      954.42995      2724.887      -2838.3574      19.47077      -1219.357      -2244.822      -3079.0804     -368.07979      64153.486      40.031951      40.031951      40.031951      1.3270521      862.77616      16.176623      695.73981    
     16500   16500          310.22411     -30.523517     -2027.4801     -1999.1594      3802.7533     -5801.9127      903.40352      2654.8296     -2810.7627      18.160104     -1249.4038     -2235.6057     -3082.5337     -371.16583      63620.086      39.920694      39.920694      39.920694      1.3381783     -303.16618     -80.841771      292.4374     
     17000   17000          307.85623      181.62257     -1724.3899     -1893.778       3773.7277     -5667.5058      958.09795      2722.0519     -2808.819       20.187169     -1238.0406     -2239.7856     -3081.1975     -369.25375      63949.525      39.989482      39.989482      39.989482      1.3312846      308.33656     -786.81274      1023.3439    
     17500   17500          312.27984     -69.836213     -2065.1191     -2000.3334      3827.9526     -5828.2861      944.24036      2638.4481     -2823.6802      19.196529     -1280.49       -2239.1726     -3086.8282     -371.22763      63609.494      39.918478      39.918478      39.918478      1.3384012     -253.46793      108.97429     -65.014999    
     18000   18000          311.46739     -69.059121     -1961.3667     -1897.566       3817.9935     -5715.5595      947.24493      2695.5714     -2800.4732      21.141544     -1289.1289     -2216.2085     -3073.7068     -372.76338      63347.429      39.863583      39.863583      39.863583      1.343938       886.27909      356.76217     -1450.2186    
     18500   18500          312.38037      282.43272     -1632.4896     -1895.0275      3829.185      -5724.2126      999.97381      2654.9903     -2824.879       19.760153     -1269.5645     -2226.5684     -3077.9249     -370.47676      63738.415      39.945429      39.945429      39.945429      1.335694       781.07972     -5.9969587      72.21539     
     19000   19000          312.32084     -786.97106     -2640.3223     -1905.0772      3828.4552     -5733.5325      974.82249      2675.7943     -2832.6795      20.48529      -1262.6293     -2229.4613     -3079.8644     -368.60802      64061.551      40.012819      40.012819      40.012819      1.3289566      338.15543     -1018.7959     -1680.2728    
     19500   19500          317.25552     -258.67826     -2155.7999     -1915.8031      3888.945      -5804.7481      949.95416      2677.0207     -2830.563       20.571057     -1311.4949     -2230.4836     -3079.7525     -371.18683      63616.485      39.919941      39.919941      39.919941      1.3382541     -532.57067     -605.39746      361.93336    
     20000   20000          319.04207     -234.05654     -2051.1293     -1833.4515      3910.8446     -5744.2961      967.47323      2686.5383     -2813.8882      19.166376     -1301.4777     -2221.4781     -3080.63       -370.29233      63770.161      39.95206       39.95206       39.95206       1.3350291      44.408589      268.22707     -1014.8053    
     20500   20500          317.11262     -471.7         -2283.7405     -1845.2867      3887.1933     -5732.48        965.18191      2670.2964     -2813.2026      19.215742     -1268.7399     -2227.8709     -3077.3606     -370.49307      63735.61       39.944843      39.944843      39.944843      1.3357528     -427.08326     -932.61263     -55.40411     
     21000   21000          309.20935     -124.48558     -2012.3382     -1895.2129      3790.3143     -5685.5272      965.97249      2738.3903     -2859.9813      20.051593     -1243.3854     -2226.0087     -3080.5662     -366.02136      64514.273      40.106854      40.106854      40.106854      1.3196308      764.42172     -962.38123     -175.49722    
     21500   21500          310.27719      1405.4771     -580.55542     -1880.9164      3803.4041     -5684.3205      906.37075      2700.2266     -2803.1437      18.729318     -1179.3441     -2245.7885     -3081.3709     -372.21849      63440.162      39.883025      39.883025      39.883025      1.3419735      1091.1301      1331.4448      1793.8563    
     22000   22000          323.68748     -11.254547     -1707.227      -1696.6829      3967.7885     -5664.4714      964.51171      2714.4714     -2798.9634      20.486721     -1252.6635     -2229.7067     -3082.6077     -367.58396      64240.022      40.049942      40.049942      40.049942      1.3252645     -506.48351      416.40199      56.317873    
     22500   22500          313.2565       281.82742     -1558.3039     -1821.4316      3839.9246     -5661.3562      978.70607      2695.9763     -2840.4416      19.238364     -1205.6344     -2235.1743     -3074.0266     -368.85426      64018.785      40.003913      40.003913      40.003913      1.3298443      202.93761      14.793878      627.75078    
     23000   23000          308.16449      773.42167     -1148.235      -1864.1736      3777.5063     -5641.6799      968.57577      2723.1846     -2816.9221      19.887128     -1231.6802     -2229.8155     -3074.9097     -372.03061      63472.201      39.889738      39.889738      39.889738      1.3412962      340.74323     -315.8984       2295.4202    
     23500   23500          305.71032     -226.31914     -2155.8811     -1943.8288      3747.4229     -5691.2517      970.9969       2727.8998     -2829.2484      20.356479     -1268.174      -2232.5292     -3080.5533     -367.54993      64245.97       40.051178      40.051178      40.051178      1.3251418     -562.51834      707.04715     -823.48623    
     24000   24000          310.48021     -1056.1497     -2886.6591     -1897.7898      3805.8927     -5703.6825      957.52254      2713.3658     -2818.3776      20.404525     -1273.4357     -2227.9191     -3075.243      -367.81099      64200.371      40.0417        40.0417        40.0417        1.326083      -494.0175      -1956.8855     -717.54597    
     24500   24500          312.86722      90.695818     -1822.0317     -1906.1461      3835.1529     -5741.299       947.05951      2661.0711     -2800.1088      19.949416     -1249.1324     -2238.8713     -3081.2664     -371.32574      63592.687      39.914962      39.914962      39.914962      1.3387549      1480.2433     -332.18691     -875.96897    
     25000   25000          311.75119      232.46832     -1708.5912     -1925.0896      3821.4725     -5746.562       905.94924      2713.5103     -2833.8646      19.45853      -1237.4748     -2234.1439     -3079.9969     -369.78336      63857.935      39.970381      39.970381      39.970381      1.3331941      452.27894      335.4522      -90.326183    
     25500   25500          310.70008     -184.8045      -2039.2612     -1866.4673      3808.5878     -5675.0551      1003.6442      2638.0779     -2828.0117      19.291859     -1208.7623     -2225.2821     -3074.0129     -368.31741      64112.098      40.02334       40.02334       40.02334       1.3279088      99.838747     -1239.4193      585.16704    
     26000   26000          319.12274      398.54297     -1448.7163     -1820.8488      3911.8336     -5732.6823      968.4168       2671.1398     -2838.1843      19.377307     -1249.4497     -2228.7953     -3075.187      -368.82106      64024.548      40.005114      40.005114      40.005114      1.3297246      1414.0651     -356.3382       137.90204    
     26500   26500          316.67356     -295.92706     -2077.4807     -1802.6341      3881.8112     -5684.4454      989.42104      2720.0428     -2847.2658      19.715817     -1258.2208     -2232.6864     -3075.452      -370.79382      63683.914      39.93404       39.93404       39.93404       1.3368371     -1549.8857     -143.58584      805.69033    
     27000   27000          310.96607      158.50391     -1749.0443     -1896.5648      3811.8484     -5708.4132      985.99834      2631.5336     -2829.4773      17.833133     -1213.927      -2229.6103     -3070.7636     -370.02047      63817.014      39.961842      39.961842      39.961842      1.3340489      1012.5741     -131.27633     -405.78605    
     27500   27500          309.6796       649.42562     -1346.9344     -1953.0477      3796.0787     -5749.1264      942.31325      2679.7967     -2842.8594      19.681224     -1243.1471     -2233.0558     -3071.8553     -368.9893       63995.356      39.999033      39.999033      39.999033      1.3303312     -838.65091      1199.242       1587.6858    
     28000   28000          307.90945     -1122.2003     -2946.481      -1897.0877      3774.38       -5671.4677      995.27402      2704.6449     -2826.2102      19.634264     -1259.9613     -2226.709      -3078.1404     -368.27329      64119.777      40.024938      40.024938      40.024938      1.3277498     -1236.871      -1655.9874     -473.74266    
     28500   28500          319.45712      721.50896     -1071.9573     -1742.5736      3915.9324     -5658.506       971.12945      2739.7169     -2832.2261      21.511448     -1244.4932     -2239.7865     -3074.358      -370.51499      63731.839      39.944055      39.944055      39.944055      1.3358318      995.44032      855.19702      313.88954    
     29000   29000          309.18348      297.04773     -1625.3627     -1903.5501      3789.9972     -5693.5473      978.17822      2701.395      -2858.2263      20.282569     -1210.7079     -2243.0195     -3081.4494     -367.72821      64214.823      40.044705      40.044705      40.044705      1.3257845      1373.7377      123.85797     -606.45245    
     29500   29500          311.1541      -97.766897     -2027.3184     -1936.3633      3814.1533     -5750.5166      975.30639      2651.9292     -2823.4664      19.487153     -1262.2191     -2231.6915     -3079.8623     -370.17126      63791.018      39.956415      39.956415      39.956415      1.3345926     -794.58176      958.12555     -456.84448    
     30000   30000          310.00851      553.79359     -1464.4221     -1980.6444      3800.1105     -5780.755       927.10387      2660.5907     -2847.3451      20.365049     -1233.3016     -2229.9991     -3078.1687     -369.44453      63916.501      39.982597      39.982597      39.982597      1.3319725      789.96804      390.02307      481.38966    
     30500   30500          312.18852      766.19947     -1213.6242     -1934.7698      3826.8332     -5761.6031      914.64626      2638.4686     -2851.8001      19.574851     -1173.0782     -2232.8506     -3076.5638     -365.89542      64536.478      40.111455      40.111455      40.111455      1.3191767      1087.695       6.1969994      1204.7064    
     31000   31000          309.58876     -382.03915     -2186.2404     -1829.7602      3794.9652     -5624.7254      997.9514       2766.5213     -2847.9668      20.413556     -1249.735      -2230.5041     -3081.4058     -369.07162      63981.083      39.996059      39.996059      39.996059      1.330628      -241.72239     -738.40095     -165.99411    
     31500   31500          318.83733     -242.02465     -2027.737      -1802.4764      3908.335      -5710.8113      944.33647      2692.5923     -2816.6829      18.804618     -1239.3256     -2233.5605     -3076.9757     -370.0091       63818.976      39.962251      39.962251      39.962251      1.3340079      260.80617     -1092.806       105.92585    
     32000   32000          308.32457     -656.67913     -2524.622      -1912.5518      3779.4686     -5692.0204      1002.9379      2728.6765     -2829.4666      19.633384     -1301.4298     -2231.7129     -3080.6588     -369.47927      63910.491      39.981344      39.981344      39.981344      1.3320977     -964.9435      -608.70497     -396.3889     
     32500   32500          310.68353     -1363.4741     -3180.4707     -1904.9565      3808.3849     -5713.3414      995.48866      2658.8537     -2823.6214      19.02352      -1263.9182     -2225.1177     -3074.0499     -368.12871      64144.96       40.030177      40.030177      40.030177      1.3272285     -1635.2583     -1662.3581     -792.80581    
     33000   33000          305.45929     -408.04773     -2323.3086     -1945.6404      3744.3458     -5689.9862      1013.7771      2667.5111     -2806.0773      19.336224     -1277.8073     -2228.038      -3078.688      -372.08201      63463.433      39.887901      39.887901      39.887901      1.3414815     -1557.7031      1003.7249     -670.16503    
     33500   33500          307.27898      16.552907     -1979.6402     -1994.9987      3766.6517     -5761.6504      971.04689      2624.7321     -2825.552       19.156873     -1255.0521     -2222.1166     -3073.8655     -371.16352      63620.482      39.920777      39.920777      39.920777      1.33817        1343.0181     -1220.2577     -73.101668    
     34000   34000          303.24705      188.44385     -1845.5043     -2020.5483      3717.228      -5737.7763      966.9381       2661.2255     -2827.4688      19.954747     -1236.4754     -2239.5539     -3082.3966     -370.74303      63692.638      39.935864      39.935864      39.935864      1.336654       886.76838     -1032.7243      711.28746    
     34500   34500          314.06413      205.68747     -1670.7881     -1863.0719      3849.8247     -5712.8966      955.33501      2682.5441     -2837.1667      19.237728     -1229.7267     -2222.3791     -3080.7408     -368.38612      64100.139      40.020851      40.020851      40.020851      1.3281566      140.78242      1104.9309     -628.65095    
     35000   35000          314.86365      652.96143     -1139.2418     -1748.4891      3859.6252     -5608.1144      975.51317      2732.3357     -2814.4547      20.001164     -1211.1359     -2230.0467     -3080.3272     -369.08977      63977.936      39.995403      39.995403      39.995403      1.3306934      883.06566      902.02145      173.79718    
     35500   35500          309.7975      -255.26616     -2109.2329     -1871.4436      3797.524      -5668.9676      983.09429      2691.3718     -2809.8518      18.628598     -1245.4758     -2229.564      -3077.1707     -369.69119      63873.856      39.973703      39.973703      39.973703      1.3328617     -706.88349      342.7564      -401.6714     
     36000   36000          317.32921     -1437.2445     -3258.6413     -1908.6321      3889.8483     -5798.4804      990.30994      2585.9474     -2846.4715      18.564119     -1243.7033     -2225.6681     -3077.459      -366.63342      64406.572      40.084524      40.084524      40.084524      1.3218375     -1506.1949     -2998.1731      192.63435    
     36500   36500          310.41083      86.204374     -1819.7737     -1899.8768      3805.0421     -5704.9189      980.9085       2681.4844     -2808.9017      19.215674     -1257.0854     -2233.1836     -3087.3568     -370.61105      63715.32       39.940603      39.940603      39.940603      1.3361782     -235.11762     -589.79734      1083.5281    
     37000   37000          309.64584      524.23062     -1252.5179     -1741.1768      3795.6648     -5536.8416      999.60012      2757.4201     -2802.2654      19.78263      -1190.6137     -2232.8179     -3087.9475     -369.44919      63915.694      39.982429      39.982429      39.982429      1.3319893      1842.469      -878.5902       608.81307    
     37500   37500          310.01739      506.91297     -1356.5458     -1828.5338      3800.2193     -5628.7531      962.3008       2728.9489     -2819.7542      19.941618     -1216.4413     -2227.0373     -3076.7116     -369.86276      63844.226      39.967521      39.967521      39.967521      1.3334803      1356.1232      1164.6102     -999.99448    
     38000   38000          308.20581     -805.41456     -2662.4708     -1911.1217      3778.0129     -5689.1346      963.85374      2718.7447     -2813.9362      19.820724     -1272.3833     -2219.8897     -3085.3445     -369.161        63965.591      39.99283       39.99283       39.99283       1.3309502     -229.6709      -1188.4819     -998.0909     
     38500   38500          305.30183      523.54076     -1468.9056     -1957.8457      3742.4156     -5700.2613      922.50447      2704.9581     -2821.0401      19.662873     -1204.1945     -2237.1598     -3084.9924     -368.75079      64036.749      40.007655      40.007655      40.007655      1.3294713      1669.903       248.72317     -348.00394    
     39000   39000          311.18043      462.69007     -1528.0824     -1960.7281      3814.476      -5775.2041      960.85819      2656.5656     -2847.7379      20.606        -1233.3058     -2245.629      -3086.5612     -368.29504      64115.991      40.02415       40.02415       40.02415       1.3278282     -202.1366       792.5366       797.67022    
     39500   39500          312.77661      739.74961     -1193.6554     -1883.4896      3834.0421     -5717.5317      976.65729      2646.6971     -2805.0645      19.932525     -1242.4385     -2229.8039     -3083.5118     -369.29902      63941.685      39.987847      39.987847      39.987847      1.3314478      1373.3486      884.90855     -39.00828     
     40000   40000          310.35638      184.47077     -1689.8194     -1861.6217      3804.3747     -5665.9964      978.32737      2656.7549     -2812.9827      19.411995     -1189.5724     -2238.4461     -3079.4895     -369.77432      63859.496      39.970707      39.970707      39.970707      1.3331615      405.4829      -55.953826      203.88322    
     40500   40500          316.17141      826.16677     -1068.8308     -1836.3807      3875.6559     -5712.0366      915.12694      2745.9938     -2830.7351      19.562929     -1245.7224     -2236.1585     -3080.1043     -370.68008      63703.455      39.938124      39.938124      39.938124      1.336427       1029.7178      897.16548      551.61704    
     41000   41000          319.33326      226.21378     -1549.7754     -1761.2644      3914.4141     -5675.6786      987.8792       2731.6748     -2857.0331      20.328878     -1244.5716     -2233.3301     -3080.6267     -368.35738      64105.141      40.021892      40.021892      40.021892      1.3280529     -375.15056      749.2725       304.51942    
     41500   41500          313.49236      508.06117     -1432.0146     -1904.2931      3842.8159     -5747.1089      947.5897       2678.6042     -2828.7785      19.737204     -1234.0451     -2242.7859     -3087.4306     -370.47254      63739.141      39.94558       39.94558       39.94558       1.3356788      1242.7869     -279.71149      561.10811    
     42000   42000          316.7015       16.779513     -1830.0384     -1845.7513      3882.1537     -5727.905       939.47898      2701.0395     -2840.6986      18.539365     -1224.2185     -2235.0962     -3086.9496     -367.75636      64209.907      40.043683      40.043683      40.043683      1.325886      -563.29695      1260.5158     -646.88028    
     42500   42500          313.84104      217.18117     -1724.5557     -1928.1239      3847.0901     -5775.214       896.0348       2701.4034     -2819.0716      19.556889     -1248.3563     -2237.2601     -3087.521      -367.4093       64270.56       40.056287      40.056287      40.056287      1.3246348      535.04099      352.60577     -236.10327    
     43000   43000          312.05781     -7.0220256     -2012.3993     -2005.8292      3825.231      -5831.0601      947.82963      2651.1523     -2855.8521      20.429738     -1273.7522     -2237.0254     -3083.8421     -368.06836      64155.478      40.032365      40.032365      40.032365      1.3270109     -578.07846      524.63576      32.376617    
     43500   43500          312.49194     -539.84176     -2251.6161     -1745.192       3830.5527     -5575.7447      978.69288      2800.3362     -2834.8947      19.88124      -1217.9449     -2236.9884     -3084.8271     -367.10496      64323.843      40.067354      40.067354      40.067354      1.3235375     -428.97459     -1088.2602     -102.2905     
     44000   44000          312.61058     -391.56362     -2194.9416     -1825.1296      3832.0069     -5657.1365      969.14497      2716.0756     -2838.3487      19.658752     -1208.6008     -2231.994      -3083.0723     -364.63591      64759.397      40.157586      40.157586      40.157586      1.3146358      48.088168     -655.39828     -567.38076    
     44500   44500          310.79415      886.70254     -1087.6767     -1913.0219      3809.7409     -5722.7628      958.91322      2687.8506     -2836.1825      19.916891     -1243.1099     -2231.6769     -3078.4743     -369.98186      63823.674      39.963232      39.963232      39.963232      1.3339097      288.19213      1468.389       903.52652    
     45000   45000          311.08959      433.98368     -1491.1932     -1895.8479      3813.3625     -5709.2104      954.80824      2686.0972     -2809.993       19.513293     -1252.5842     -2226.5088     -3080.5432     -369.34056      63934.493      39.986348      39.986348      39.986348      1.3315976      1184.9494     -467.76934      584.77096    
     45500   45500          310.22808     -761.73552     -2625.8455     -1912.909       3802.8021     -5715.711       949.8622       2703.1526     -2845.2376      19.330535     -1214.862      -2236.9882     -3090.9687     -367.95226      64175.722      40.036575      40.036575      40.036575      1.3265923     -1114.0512     -1903.735       732.57964    
     46000   46000          311.3691      -627.3366      -2468.8202     -1881.5176      3816.7887     -5698.3063      950.62519      2728.0529     -2830.8728      19.358025     -1251.2248     -2230.9944     -3083.2504     -367.85509      64192.673      40.0401        40.0401        40.0401        1.326242       724.01172     -1490.3209     -1115.7006    
     46500   46500          317.732        437.34214     -1328.8662     -1736.9674      3894.7858     -5631.7532      942.94444      2736.0946     -2817.5404      19.748327     -1193.4898     -2234.2229     -3085.2874     -369.05541      63983.892      39.996644      39.996644      39.996644      1.3305696      1264.1329     -61.518554      109.41206    
     47000   47000          310.77142     -370.0196      -2242.8118     -1894.1312      3809.4624     -5703.5936      996.10292      2656.2987     -2817.1583      18.859777     -1246.4563     -2225.0738     -3086.1666     -365.45592      64614.09       40.127528      40.127528      40.127528      1.3175922      1288.5922     -1243.5012     -1155.1499    
     47500   47500          308.47846      601.05119     -1406.3033     -1963.3486      3781.355      -5744.7036      942.35234      2597.3071     -2793.4139      18.957672     -1190.3408     -2238.6009     -3080.9651     -371.58571      63548.196      39.905652      39.905652      39.905652      1.3396922      931.30533     -210.5239       1082.3721    
     48000   48000          304.97991     -663.45654     -2630.065      -2010.2262      3738.4696     -5748.6958      967.76137      2655.6685     -2813.4584      19.790946     -1253.4043     -2237.707      -3087.347      -368.61401      64060.51       40.012602      40.012602      40.012602      1.3289782     -238.942       -1711.2597     -40.167959    
     48500   48500          308.54087     -478.55158     -2476.2194     -2026.9618      3782.1201     -5809.0819      921.86421      2600.6693     -2825.5266      18.452451     -1206.9502     -2232.7117     -3084.8793     -366.83556      64371.082      40.07716       40.07716       40.07716       1.3225662      342.57583     -1045.3847     -732.8459     
     49000   49000          313.6229       1226.5196     -733.49843     -1878.8603      3844.416      -5723.2763      936.09632      2662.3886     -2829.7295      20.061294     -1184.7805     -2240.4889     -3086.8236     -368.78213      64031.306      40.006521      40.006521      40.006521      1.3295843      1019.8992      1581.9478      1077.7117    
     49500   49500          316.45761     -599.69005     -2414.8391     -1853.8917      3879.1642     -5733.0558      1029.4787      2572.1133     -2810.0446      18.189962     -1221.6717     -2232.0583     -3089.0631     -368.16524      64138.596      40.028853      40.028853      40.028853      1.3273602     -969.85281     -1394.8849      565.66758    
     50000   50000          312.68904     -191.21523     -1997.8026     -1819.1028      3832.9687     -5652.0715      978.42522      2707.6189     -2817.8489      20.207498     -1223.1324     -2234.8954     -3082.4464     -368.49919      64080.471      40.016758      40.016758      40.016758      1.3285642      561.95575     -394.3413      -741.26013    
     50500   50500          310.08462     -530.76925     -2416.113      -1918.4535      3801.0434     -5719.497       969.00178      2653.0061     -2816.3685      19.09464      -1241.717      -2219.5643     -3082.9497     -367.29214      64291.061      40.060546      40.060546      40.060546      1.3242124     -614.46061      23.795189     -1001.6423    
     51000   51000          312.87313     -434.05735     -2297.2801     -1890.4248      3835.2253     -5725.6501      976.0559       2688.3513     -2861.6458      20.612737     -1239.2164     -2226.9048     -3082.903      -367.40518      64271.281      40.056437      40.056437      40.056437      1.3246199      439.79484     -1061.0832     -680.88369    
     51500   51500          315.88688      72.778322     -1746.3109     -1813.8114      3872.1681     -5685.9794      982.58367      2667.0319     -2801.2577      18.853543     -1230.9937     -2236.9482     -3085.249      -371.30731      63595.843      39.915623      39.915623      39.915623      1.3386884      936.07289     -1066.3391      348.60114    
     52000   52000          311.86567     -801.80239     -2668.7587     -1920.5162      3822.8758     -5743.392       986.02746      2614.7811     -2805.2535      18.405508     -1252.6357     -2221.7808     -3082.9361     -369.03121      63988.089      39.997518      39.997518      39.997518      1.3304823     -929.91856     -153.89306     -1321.5955    
     52500   52500          309.33475      577.08985     -1374.9523     -1914.5772      3791.8515     -5706.4287      956.38802      2662.495      -2822.11        20.227619     -1205.7539     -2231.0962     -3086.5792     -368.28967      64116.927      40.024345      40.024345      40.024345      1.3278088      1790.8084      378.59635     -438.13516    
     53000   53000          317.23112     -706.81313     -2462.0179     -1799.0918      3888.6459     -5687.7377      990.70852      2665.1454     -2828.835       19.262752     -1217.2202     -2232.2807     -3084.5186     -367.17882      64310.904      40.064667      40.064667      40.064667      1.3238038      352.87106     -966.80253     -1506.5079    
     53500   53500          315.43512     -544.09498     -2318.7944     -1814.8289      3866.6304     -5681.4593      987.13463      2696.1367     -2810.4028      19.1564       -1263.1131     -2227.9673     -3082.4037     -371.80228      63511.181      39.897902      39.897902      39.897902      1.3404729     -1091.5538      456.28491     -997.01602    
     54000   54000          316.75826      356.63916     -1521.7099     -1856.5447      3882.8495     -5739.3942      940.82791      2700.1656     -2832.7506      20.408039     -1247.0447     -2230.8959     -3090.1046     -366.80614      64376.243      40.078231      40.078231      40.078231      1.3224602     -827.6252       699.75156      1197.7911    
     54500   54500          308.99023     -734.75779     -2567.4848     -1876.86        3787.6283     -5664.4883      981.37386      2708.6512     -2835.3869      21.15117      -1229.9014     -2227.2506     -3083.1256     -366.38708      64449.875      40.093505      40.093505      40.093505      1.3209493     -644.06817     -1102.6067     -457.59855    
     55000   55000          305.82931     -440.526       -2304.9368     -1890.7735      3748.8816     -5639.6551      985.0173       2673.7904     -2818.837       18.785188     -1183.3417     -2231.098      -3083.9713     -366.30098      64465.025      40.096646      40.096646      40.096646      1.3206389      607.52755     -597.54667     -1331.5589    
     55500   55500          305.64398      973.95168     -1149.8355     -2054.396       3746.6098     -5801.0058      912.13274      2672.8049     -2852.4983      20.651212     -1237.2685     -2230.2619     -3086.566      -370.79846      63683.117      39.933873      39.933873      39.933873      1.3368538      1278.3264      166.80307      1476.7256    
     56000   56000          309.27083     -954.24915     -2826.0247     -1929.391       3791.0679     -5720.4589      998.14361      2642.9771     -2816.1059      19.960768     -1256.0324     -2225.6086     -3083.7934     -366.50915      64428.409      40.089054      40.089054      40.089054      1.3213894     -1131.5458     -1252.6691     -478.53255    
     56500   56500          307.0923      -234.68683     -2057.4252     -1836.866       3764.3633     -5601.2293      1023.7149      2718.0094     -2827.9915      20.005839     -1211.0127     -2236.691      -3087.2643     -366.43904      64440.737      40.09161       40.09161       40.09161       1.3211366      868.65088     -1063.4497     -509.26168    
     57000   57000          309.51991     -691.39514     -2517.5324     -1867.2443      3794.1212     -5661.3655      957.89894      2751.0676     -2821.0086      21.022957     -1255.3101     -2229.2571     -3085.7792     -366.14965      64491.667      40.102169      40.102169      40.102169      1.3200933     -348.19859     -73.854629     -1652.1322    
     57500   57500          309.45865      818.65342     -1176.1866     -1948.2854      3793.3703     -5741.6557      958.27552      2601.3814     -2800.6256      19.202668     -1186.7238     -2246.5743     -3086.5917     -365.14497      64669.114      40.138916      40.138916      40.138916      1.3164711      328.88204      1948.0612      179.01697    
     58000   58000          306.83429      382.67526     -1601.2372     -1958.9114      3761.2006     -5720.112       979.78693      2653.6096     -2823.5408      19.24648      -1226.6978     -2237.6785     -3084.8379     -368.45194      64088.688      40.018468      40.018468      40.018468      1.3283938      558.89678     -384.44737      973.57636    
     58500   58500          316.06393     -373.83358     -2162.2735     -1811.0682      3874.3383     -5685.4065      1003.0433      2676.4477     -2831.3885      19.314556     -1237.2883     -2229.3845     -3086.1508     -366.56869      64417.945      40.086883      40.086883      40.086883      1.3216041     -866.65652     -654.61206      399.76785    
     59000   59000          306.26798     -556.59744     -2436.7142     -1914.2718      3754.2588     -5668.5306      985.51114      2677.2565     -2801.7705      20.183326     -1225.3947     -2235.041      -3089.2753     -366.89425      64360.784      40.075023      40.075023      40.075023      1.3227778     -1025.6279     -1384.036       739.87166    
     59500   59500          308.24822      1073.9417     -1015.5845     -2006.4568      3778.5328     -5784.9896      941.73491      2647.0509     -2826.911       20.210093     -1248.8595     -2232.5657     -3085.6493     -373.2511       63264.653      39.846212      39.846212      39.846212      1.3456964      1579.1337      94.321893      1548.3694    
     60000   60000          304.67113     -236.35469     -2231.2315     -2010.1174      3734.6845     -5744.8019      969.38766      2662.5595     -2828.0074      19.98253      -1253.4249     -2230.7832     -3084.516      -368.11698      64147.005      40.030603      40.030603      40.030603      1.3271862     -572.40391     -220.99883      84.338683    
     60500   60500          308.86841     -251.73982     -2128.8284     -1891.1671      3786.1351     -5677.3022      959.60039      2732.421      -2829.9714      19.624399     -1236.355      -2236.7813     -3085.8403     -364.7804       64733.746      40.152283      40.152283      40.152283      1.3151567     -406.48096     -674.81694      326.07844    
     61000   61000          315.63128     -485.50815     -2378.9409     -1924.477       3869.0349     -5793.5118      996.23565      2593.9325     -2837.8737      19.700203     -1250.0156     -2231.0852     -3084.4057     -367.90465      64184.026      40.038302      40.038302      40.038302      1.3264207     -560.48001     -1428.9751      532.93069    
     61500   61500          311.35832      68.98056      -1810.6706     -1874.8134      3816.6566     -5691.47        968.84116      2640.8095     -2831.0084      19.595263     -1167.728      -2237.8615     -3084.118      -370.35364      63759.605      39.949855      39.949855      39.949855      1.3352501      862.13619     -924.13521      268.9407     
     62000   62000          320.17164      500.63706     -1290.2407     -1760.2318      3924.6911     -5684.9229      982.23059      2663.9315     -2828.7732      19.60876      -1197.8115     -2238.3329     -3085.7761     -366.83563      64371.07       40.077157      40.077157      40.077157      1.3225665      481.81306      1252.5101     -232.41199    
     62500   62500          317.85097      225.00959     -1521.3908     -1731.3016      3896.244      -5627.5456      995.31872      2712.0666     -2825.6414      19.839513     -1211.1578     -2234.4426     -3083.5286     -369.15125      63967.281      39.993182      39.993182      39.993182      1.3309151      575.65558     -1248.0377      1347.4108    
     63000   63000          308.37517     -629.38151     -2558.7903     -1972.3886      3780.0889     -5752.4775      959.61431      2647.8689     -2806.4218      19.473224     -1254.0195     -2233.4705     -3085.5221     -369.62118      63885.955      39.976226      39.976226      39.976226      1.3326093     -307.46571     -341.83311     -1238.8457    
     63500   63500          305.42853      550.88433     -1531.3194     -2044.815       3743.9687     -5788.7837      902.30287      2648.7275     -2823.784       20.29205      -1209.1688     -2240.9333     -3086.2201     -369.45522      63914.652      39.982211      39.982211      39.982211      1.332011       797.69258      431.396        423.56441    
     64000   64000          314.3969       271.90492     -1541.3478     -1796.983       3853.9038     -5650.8868      964.73303      2723.5858     -2828.045       20.801373     -1209.3877     -2238.0027     -3084.5716     -366.298        64465.548      40.096755      40.096755      40.096755      1.3206282      85.761912      582.3497       147.60316    
     64500   64500          311.43908      39.671687     -1778.5047     -1815.602       3817.6465     -5633.2485      969.56254      2741.4285     -2826.3384      19.523075     -1235.1611     -2222.1144     -3080.1488     -368.27894      64118.795      40.024734      40.024734      40.024734      1.3277701      1735.3724     -807.86769     -808.48961    
     65000   65000          309.48694      31.335511     -1845.8259     -1875.4411      3793.717      -5669.1582      981.0086       2706.1958     -2852.042       19.908268     -1197.1443     -2240.5481     -3086.5365     -364.38475      64804.034      40.166811      40.166811      40.166811      1.3137302      1165.8969     -323.31144     -748.57895    
     65500   65500          310.71306      1263.7304     -823.944       -1990.2608      3808.747      -5799.0078      926.90138      2635.2649     -2818.1104      19.974414     -1231.1424     -2244.9958     -3086.8998     -373.14362      63282.877      39.850038      39.850038      39.850038      1.3453089      1084.9237      2281.4743      424.79308    
     66000   66000          305.5557       204.30868     -1693.778      -1884.7554      3745.5276     -5630.283       979.35059      2753.4036     -2820.9759      19.997307     -1250.2156     -2226.5862     -3085.2567     -368.41965      64094.305      40.019637      40.019637      40.019637      1.3282774     -112.44402     -418.49059      1143.8606    
     66500   66500          311.17104      108.1236      -1788.4658     -1889.4643      3814.3609     -5703.8252      1004.4269      2642.4259     -2834.4453      20.264947     -1215.831      -2238.8501     -3081.8166     -368.67502      64049.909      40.010395      40.010395      40.010395      1.3291981     -146.54646      92.152338      378.76491    
     67000   67000          307.48299      683.29927     -1326.6678     -1965.4724      3769.1525     -5734.6249      907.83684      2695.1227     -2837.716       20.461901     -1213.5377     -2222.08       -3084.7127     -368.36724      64103.425      40.021535      40.021535      40.021535      1.3280885      1031.2916      294.27209      724.33411    
     67500   67500          307.54826     -755.03227     -2640.5944     -1932.4284      3769.9525     -5702.3809      1016.1353      2645.0004     -2838.1561      19.815218     -1220.1035     -2241.5321     -3083.54       -367.17114      64312.248      40.064946      40.064946      40.064946      1.3237761      323.14863     -1031.55       -1556.6955    
     68000   68000          310.95077      179.32184     -1662.3789     -1829.6595      3811.6608     -5641.3203      1011.9636      2721.4882     -2843.9469      20.364884     -1235.045      -2230.1313     -3086.0139     -369.16937      63964.14       39.992528      39.992528      39.992528      1.3309804      117.18553     -305.19082      725.97081    
     68500   68500          316.67998     -184.08882     -2024.4077     -1852.8391      3881.8899     -5734.7291      982.62147      2637.1177     -2808.1973      18.987875     -1263.6944     -2219.6756     -3081.8887     -369.51141      63904.933      39.980184      39.980184      39.980184      1.3322136      1.8505494     -189.66018     -364.45683    
     69000   69000          313.61239     -405.40626     -2247.5272     -1870.3568      3844.2872     -5714.644       976.53042      2645.6511     -2801.8859      18.446526     -1226.3961     -2237.896      -3089.094      -370.16124      63792.745      39.956775      39.956775      39.956775      1.3345565     -1181.6739      319.37247     -353.91733    
     69500   69500          316.86735      253.60379     -1654.9491     -1891.7389      3884.1868     -5775.9257      913.84966      2661.8158     -2832.148       20.062962     -1220.7043     -2237.4256     -3081.3762     -368.83385      64022.327      40.004651      40.004651      40.004651      1.3297708     -1036.6147      644.87733      1152.5488    
     70000   70000          302.87884     -963.59136     -2930.6712     -2028.7683      3712.7144     -5741.4827      981.24363      2644.9429     -2835.1744      19.450344     -1241.8524     -2229.9383     -3080.1544     -367.9351       64178.714      40.037198      40.037198      40.037198      1.3265305      570.48612     -804.11312     -2657.1471    
     70500   70500          306.53502      668.1187      -1377.2422     -2002.0214      3757.5322     -5759.5536      941.92896      2656.0622     -2846.4136      19.822271     -1200.2981     -2241.5        -3089.1553     -368.269        64120.525      40.025094      40.025094      40.025094      1.3277343      513.67553      511.72724      978.95332    
     71000   71000          307.94414      1432.1115     -632.30461     -1957.9718      3774.8053     -5732.777       935.9415       2675.1459     -2832.6199      19.360488     -1217.4586     -2227.41       -3085.7363     -372.03215      63471.938      39.889683      39.889683      39.889683      1.3413017      1448.2135      1496.3408      1351.7803    
     71500   71500          308.50718      297.04182     -1660.3453     -1938.6722      3781.707      -5720.3793      946.15993      2658.7546     -2817.6459      17.986538     -1209.8023     -2230.511      -3085.3212     -367.53647      64248.322      40.051667      40.051667      40.051667      1.3250933     -105.65928     -31.45248       1028.2372    
     72000   72000          308.06727     -337.1379      -2244.0509     -1930.5098      3776.3146     -5706.8244      1009.4181      2624.3435     -2793.3325      19.000701     -1235.7798     -2239.5795     -3090.8949     -370.29788      63769.205      39.95186       39.95186       39.95186       1.3350491      118.85168     -1262.1825      131.91714    
     72500   72500          307.3046       122.536       -1721.7259     -1835.9675      3766.9658     -5602.9333      1004.8553      2761.7742     -2805.1053      20.523033     -1261.0516     -2239.0782     -3084.8507     -369.38358      63927.048      39.984796      39.984796      39.984796      1.3317527     -232.20128     -366.05198      965.86126    
     73000   73000          318.00875     -395.95502     -2165.873      -1797.97        3898.1782     -5696.1481      964.44312      2716.9368     -2829.178       20.282963     -1255.6639     -2228.386      -3084.5831     -370.63851      63710.599      39.939617      39.939617      39.939617      1.3362772     -472.04963     -693.65767     -22.157765    
     73500   73500          312.18261     -61.575812     -1946.4231     -1889.0638      3826.7608     -5715.8246      974.72359      2693.0564     -2828.4698      19.861923     -1273.2367     -2224.3592     -3077.4008     -369.69549      63873.112      39.973548      39.973548      39.973548      1.3328773     -1042.5426      1315.6588     -457.84373    
     74000   74000          307.03362     -443.52945     -2387.0461     -1973.416       3763.6441     -5737.06        961.51765      2697.5175     -2846.0608      20.364351     -1242.3052     -2242.6504     -3085.4431     -369.27376      63946.058      39.988759      39.988759      39.988759      1.3313568     -533.50072     -442.84315     -354.24448    
     74500   74500          310.60629     -401.21667     -2295.2376     -1916.0041      3807.4382     -5723.4423      968.12131      2639.1825     -2832.3394      19.320674     -1192.345      -2235.414      -3089.9684     -364.34293      64811.472      40.168347      40.168347      40.168347      1.3135795     -968.70357     -83.636966     -151.30947    
     75000   75000          312.78539      284.51        -1612.6977     -1876.3383      3834.1497     -5710.488       992.50487      2667.5061     -2813.3054      20.287008     -1267.5614     -2228.1865     -3081.7326     -371.64085      63538.767      39.903678      39.903678      39.903678      1.339891      -99.298641      209.83599      742.99264    
     75500   75500          309.15971      151.59045     -1861.3299     -2001.8388      3789.7058     -5791.5446      960.67212      2622.4225     -2824.8703      19.203307     -1246.619      -2241.2386     -3081.1147     -371.54061      63555.91       39.907266      39.907266      39.907266      1.3395295      185.60063      391.79765     -122.62692    
     76000   76000          313.28457      661.68668     -1408.801      -2026.5992      3840.2688     -5866.868       911.70534      2590.5569     -2815.3234      20.473256     -1256.358      -2237.1342     -3080.7878     -368.845        64020.393      40.004248      40.004248      40.004248      1.329811       155.24993      1094.554       735.25613    
     76500   76500          306.2672      -492.93801     -2413.3975     -1955.2936      3754.2493     -5709.5429      976.58971      2715.262      -2841.6387      20.980192     -1273.4304     -2228.2329     -3079.0728     -370.56679      63722.931      39.942194      39.942194      39.942194      1.3360186     -765.51852     -694.73461     -18.560883    
     77000   77000          312.10923      220.25399     -1691.5959     -1898.5686      3825.8613     -5724.4298      967.00602      2634.5489     -2835.997       18.646681     -1197.6386     -2231.1985     -3079.7973     -366.47885      64433.737      40.090159      40.090159      40.090159      1.3212802      198.5318       661.52462     -199.29444    
     77500   77500          310.05386     -266.03177     -2037.6929     -1788.2985      3800.6665     -5588.9649      1026.3062      2751.4312     -2829.4156      19.185035     -1248.1939     -2226.4156     -3081.8624     -367.35405      64280.227      40.058296      40.058296      40.058296      1.3244356     -691.30846      520.51682     -627.30368    
     78000   78000          318.9343       2444.2214      387.5537      -1869.9501      3909.5236     -5779.4737      866.8791       2693.6645     -2824.0483      19.639436     -1214.9915     -2239.7903     -3080.8267     -372.86376      63330.375      39.860005      39.860005      39.860005      1.3442999      1222.2549      2371.1621      3739.2472    
     78500   78500          307.31654     -479.40813     -2403.2758     -1955.1348      3767.1121     -5722.2469      976.18578      2675.2773     -2824.9683      20.194829     -1256.5421     -2229.9982     -3082.3962     -368.4078       64096.367      40.020066      40.020066      40.020066      1.3282347     -768.10878     -439.73931     -230.37629    
     79000   79000          310.06102      573.18556     -1435.2386     -1969.3593      3800.7542     -5770.1135      915.48562      2656.8211     -2822.7796      19.757429     -1223.2751     -2234.9478     -3081.1751     -369.56763      63895.21       39.978157      39.978157      39.978157      1.3324163      1507.6633     -152.79899      364.69236    
     79500   79500          307.89027     -660.7177      -2614.9706     -1998.4882      3774.145      -5772.6332      945.70006      2695.443      -2840.9315      20.275069     -1291.8758     -2223.4827     -3077.7613     -369.09094      63977.732      39.99536       39.99536       39.99536       1.3306977     -65.342604     -1344.7025     -572.10795    
     80000   80000          302.99927      148.33928     -1899.6073     -2037.3149      3714.1906     -5751.5055      944.58137      2656.2483     -2818.4302      19.814507     -1256.3475     -2223.6052     -3073.7668     -370.968        63654.012      39.927789      39.927789      39.927789      1.3374651     -594.31989      80.706622      958.63112    
     80500   80500          308.90487      191.94058     -1789.026      -1967.3849      3786.582      -5753.9669      975.3942       2677.5469     -2835.8314      20.923434     -1282.5058     -2231.3605     -3078.1337     -370.60409      63716.516      39.940854      39.940854      39.940854      1.3361531     -842.60997      1194.3872      224.04455    
     81000   81000          313.50611     -1146.4196     -3000.4379     -1936.4717      3842.9844     -5779.4561      1025.6038      2604.4919     -2832.937       19.763326     -1291.2389     -2226.9183     -3078.2209     -371.06832      63636.803      39.92419       39.92419       39.92419       1.3378268     -1641.5911     -273.15227     -1524.5153    
     81500   81500          307.26056      240.88303     -1716.1612     -1940.5419      3766.426      -5706.9679      943.025        2686.1402     -2815.4782      19.720791     -1234.7953     -2227.6597     -3077.9206     -369.70803      63870.946      39.973096      39.973096      39.973096      1.3329225     -198.79825     -535.47336      1456.9207    
     82000   82000          307.64355     -920.27814     -2751.8485     -1896.4474      3771.1206     -5667.568       965.47651      2774.9302     -2845.1227      20.342436     -1276.2457     -2228.6673     -3078.2814     -370.49931      63734.536      39.944618      39.944618      39.944618      1.3357753     -1269.7911     -462.95526     -1028.0881    
     82500   82500          318.2066       702.45444     -1153.5373     -1802.9242      3900.6034     -5703.5276      980.6298       2655.9303     -2813.5305      19.37826      -1219.998      -2241.944      -3083.9935     -372.52272      63388.352      39.872165      39.872165      39.872165      1.3430704      825.88551      521.64077      759.83703    
     83000   83000          312.93107      458.30178     -1415.2105     -1840.851       3835.9355     -5676.7865      943.96519      2748.905      -2827.3976      19.762161     -1243.027      -2237.5928     -3081.4014     -370.80602      63681.819      39.933602      39.933602      39.933602      1.3368811      371.13116      1256.9824     -253.20819    
     83500   83500          310.61545     -454.46895     -2326.7509     -1905.154       3807.5505     -5712.7045      992.29468      2648.6134     -2798.1045      19.276401     -1267.0917     -2227.6876     -3080.0052     -371.23162      63608.81       39.918335      39.918335      39.918335      1.3384155     -955.23866     -965.21085      557.04266    
     84000   84000          311.82154     -1392.7137     -3152.1547     -1855.8419      3822.3348     -5678.1767      1027.1789      2711.4398     -2826.5818      20.604234     -1318.8887     -2208.8486     -3083.0805     -369.99013      63822.247      39.962934      39.962934      39.962934      1.3339396     -1011.2553     -651.94019     -2514.9456    
     84500   84500          311.48635     -174.73911     -2048.3587     -1886.2108      3818.226      -5704.4368      963.14544      2743.938      -2842.8098      21.044435     -1271.3728     -2232.8988     -3085.4833     -371.12219      63627.566      39.922259      39.922259      39.922259      1.338021      -617.67488      565.25898     -471.80142    
     85000   85000          314.37832     -1004.7647     -2882.7933     -1945.6766      3853.676      -5799.3527      990.28293      2619.4237     -2834.7843      18.735154     -1282.4544     -2228.1356     -3082.4201     -369.24007      63951.893      39.989975      39.989975      39.989975      1.3312353     -575.94129     -1318.8464     -1119.5065    
     85500   85500          307.62032      551.63148     -1506.6939     -2017.0697      3770.8359     -5787.9055      953.76851      2662.9478     -2834.9977      19.857242     -1279.151      -2228.8375     -3081.4929     -372.21776      63440.288      39.883052      39.883052      39.883052      1.3419709      879.87455     -562.71773      1337.7376    
     86000   86000          315.89057     -671.58432     -2398.5351     -1773.8279      3872.2133     -5646.0413      995.90715      2743.5768     -2825.9509      21.221986     -1266.272      -2228.0621     -3086.4623     -370.22198      63782.279      39.95459       39.95459       39.95459       1.3347754     -472.02447     -612.65211     -930.07638    
     86500   86500          314.58233      287.52915     -1609.5265     -1876.3951      3856.1769     -5732.572       946.12989      2669.675      -2820.9977      17.967931     -1212.0509     -2246.3751     -3086.9211     -371.04154      63641.395      39.925151      39.925151      39.925151      1.3377302      1214.7293     -356.11519      3.9733187    
     87000   87000          307.90877      199.92721     -1751.6761     -1937.1118      3774.3717     -5711.4835      957.02222      2701.2195     -2834.1724      20.238474     -1230.6868     -2237.6171     -3087.4875     -371.2929       63598.313      39.916139      39.916139      39.916139      1.3386364      1329.9046     -69.888899     -660.23409    
     87500   87500          311.42894      680.36053     -1198.5784     -1839.1993      3817.5222     -5656.7216      990.68619      2675.7802     -2826.7093      18.781416     -1188.7843     -2238.6745     -3087.8013     -365.74305      64563.364      40.117025      40.117025      40.117025      1.3186274     -16.637837      1381.754       675.96544    
     88000   88000          313.34587      398.62258     -1467.9042     -1836.9273      3841.0201     -5677.9474      973.95052      2723.0964     -2825.8619      18.977687     -1256.3454     -2228.0322     -3083.7325     -372.00307      63476.901      39.890723      39.890723      39.890723      1.3411969      234.12699      33.677249      928.06351    
     88500   88500          309.35515      611.58935     -1287.0155     -1854.7944      3792.1016     -5646.896       997.82083      2719.8814     -2830.648       19.100321     -1233.3173     -2233.587      -3086.1462     -370.95292      63656.6        39.92833       39.92833       39.92833       1.3374107      388.03923      555.93626      890.79256    
     89000   89000          313.94015      151.37192     -1739.5616     -1881.6931      3848.3048     -5729.9979      965.85511      2706.164      -2848.9907      21.195322     -1268.1472     -2221.9813     -3084.0932     -366.76954      64382.668      40.079564      40.079564      40.079564      1.3223282      200.43334     -198.05541      451.73784    
     89500   89500          310.53395      409.89278     -1555.6272     -1937.2397      3806.5514     -5743.7911      963.90759      2697.175      -2826.3529      20.572672     -1281.9168     -2232.8748     -3084.3018     -369.90124      63837.584      39.966135      39.966135      39.966135      1.3336191      426.09463      1014.5878     -211.00403    
     90000   90000          307.0413       228.12161     -1709.4727     -1921.9174      3763.7382     -5685.6557      949.43672      2718.5654     -2802.7661      19.186613     -1254.1875     -2232.725      -3083.1658     -369.79292      63856.284      39.970037      39.970037      39.970037      1.3332285     -472.94235      979.05658      178.2506     
     90500   90500          320.90713      254.04716     -1608.7573     -1843.4693      3933.7067     -5777.1761      958.33208      2661.5243     -2820.2567      19.936704     -1274.5725     -2238.6761     -3083.4638     -372.74944      63349.798      39.86408       39.86408       39.86408       1.3438878      1402.7423     -917.00508      276.40424    
     91000   91000          318.26097     -251.51391     -2070.078      -1836.2213      3901.2699     -5737.4912      1014.8919      2666.8297     -2832.5446      19.604649     -1290.0546     -2233.6165     -3082.6019     -370.38228      63754.675      39.948825      39.948825      39.948825      1.3353534     -809.04074     -286.63683      341.13585    
     91500   91500          312.54887     -545.14304     -2441.5062     -1929.077       3831.2505     -5760.3275      955.85303      2677.7134     -2838.5055      20.315781     -1248.0525     -2239.6482     -3088.0036     -366.36564      64453.648      40.094288      40.094288      40.094288      1.320872       177.79537     -880.20425     -933.02024    
     92000   92000          306.92045     -1200.3241     -3013.5716     -1889.3131      3762.2568     -5651.5699      1010.3064      2758.9772     -2826.4483      21.260199     -1294.8943     -2233.113      -3087.6582     -367.68039      64223.173      40.046441      40.046441      40.046441      1.3256122     -1636.9666     -269.8248      -1694.1809    
     92500   92500          319.79825      491.42076     -1383.1278     -1840.8027      3920.114      -5760.9166      977.643        2678.3291     -2841.1616      19.395037     -1274.3631     -2234.9603     -3085.7987     -369.77246      63859.816      39.970774      39.970774      39.970774      1.3331548      1122.5743      57.182774      294.50525    
     93000   93000          311.71787      913.95463     -1048.6813     -1893.7649      3821.064      -5714.8289      973.20324      2663.6942     -2817.9923      19.158663     -1230.9538     -2236.0393     -3085.8996     -372.4458       63401.444      39.87491       39.87491       39.87491       1.3427931      1365.0451      1181.1504      195.66838    
     93500   93500          310.78875      118.81788     -1868.3954     -1978.6918      3809.6748     -5788.3666      938.32335      2706.327      -2845.3553      20.183325     -1285.7302     -2233.9061     -3088.2087     -370.98707      63650.739      39.927105      39.927105      39.927105      1.3375339      687.75981     -206.74037     -124.5658     
     94000   94000          312.34257      85.230855     -1940.207      -2019.7378      3828.7216     -5848.4595      928.46266      2629.117      -2834.1026      20.453135     -1266.5424     -2236.4468     -3089.4004     -369.0623       63982.699      39.996395      39.996395      39.996395      1.3305944      857.44591     -1313.7111      711.95774    
     94500   94500          308.59652      265.52898     -1657.6428     -1904.3972      3782.8022     -5687.1994      960.97669      2749.9807     -2834.3808      20.045844     -1247.2997     -2247.3291     -3089.193      -370.58265      63720.202      39.941624      39.941624      39.941624      1.3360758      257.59893      318.45645      220.53155    
     95000   95000          308.89864      541.89362     -1372.553      -1874.1348      3786.5057     -5660.6404      964.54996      2739.4013     -2813.1703      19.484059     -1251.0618     -2233.1265     -3086.7172     -372.05784      63467.555      39.888765      39.888765      39.888765      1.3413943      121.22481      1015.3262      489.12989    
     95500   95500          313.08161      117.19351     -1743.7841     -1852.918       3837.7808     -5690.6989      1006.0166      2700.5608     -2823.8955      20.439288     -1294.231      -2219.9569     -3079.6321     -369.8127       63852.868      39.969324      39.969324      39.969324      1.3332999     -299.91265      89.979961      561.51321    
     96000   96000          307.67301      200.04523     -1867.6373     -2052.1273      3771.4817     -5823.609       940.06088      2625.4869     -2803.9195      18.843708     -1286.6368     -2231.5421     -3085.9021     -373.41661      63236.614      39.840325      39.840325      39.840325      1.3462931     -541.85967     -75.557135      1217.5525    
     96500   96500          310.30374     -79.764827     -2127.3733     -2053.4013      3803.7294     -5857.1307      960.39337      2643.0297     -2838.6351      19.991468     -1326.1854     -2230.5152     -3085.2096     -371.34867      63588.76       39.914141      39.914141      39.914141      1.3388376      1080.453      -383.26132     -936.48618    
     97000   97000          311.61806      573.70355     -1396.7416     -1930.3831      3819.8405     -5750.2236      927.08069      2660.9348     -2808.8418      19.454093     -1229.6297     -2234.3408     -3084.8809     -370.23381      63780.241      39.954164      39.954164      39.954164      1.3348181      1675.1606      705.32272     -659.37269    
     97500   97500          310.02723      345.64357     -1580.0031     -1901.0643      3800.34       -5701.4042      962.48737      2698.5665     -2819.8569      19.590323     -1242.106      -2236.2819     -3083.8036     -370.74803      63691.779      39.935684      39.935684      39.935684      1.336672       551.99056      1654.6453     -1169.7052    
     98000   98000          307.64689     -177.35573     -2032.9004     -1869.0905      3771.1616     -5640.2521      1004.7341      2709.9239     -2829.3361      19.747777     -1224.4284     -2235.3671     -3085.5263     -372.85781      63331.386      39.860217      39.860217      39.860217      1.3442785      18.50835      -765.39742      214.82188    
     98500   98500          313.81476     -433.79805     -2267.7502     -1862.0449      3846.7678     -5708.8127      975.24217      2717.8947     -2827.1753      20.200425     -1287.0083     -2224.6214     -3083.345      -368.22649      64127.927      40.026634      40.026634      40.026634      1.327581      -1011.361       106.95501     -396.98815    
     99000   99000          304.69343     -252.17821     -2249.4318     -2015.2168      3734.9578     -5750.1746      962.42515      2665.1016     -2844.2735      19.265919     -1228.9106     -2236.1838     -3087.5993     -370.79259      63684.124      39.934084      39.934084      39.934084      1.3368327     -447.73073     -651.72983      342.92591    
     99500   99500          306.0077       157.42071     -1804.5902     -1951.1289      3751.0682     -5702.1971      955.73572      2724.0147     -2835.4103      20.421195     -1235.2716     -2242.1037     -3089.5831     -369.95393      63828.492      39.964237      39.964237      39.964237      1.333809      -442.08017      42.492287      871.85002    
    100000   100000         307.99351      114.29492     -1775.4254     -1882.3185      3775.4105     -5657.729       1016.6866      2699.2488     -2837.5883      19.494662     -1231.6413     -2237.5823     -3086.3472     -368.22684      64127.867      40.026621      40.026621      40.026621      1.3275823     -116.34071     -74.749091      533.97457    
    100500   100500         314.97389     -405.01842     -2195.3983     -1818.948       3860.9766     -5679.9247      999.86453      2746.4698     -2834.8046      20.014994     -1275.5245     -2242.0532     -3093.8916     -370.51457      63731.911      39.94407       39.94407       39.94407       1.3358303     -475.95339     -640.89285     -98.209016    
    101000   101000         307.67694     -844.78412     -2700.406      -1919.0626      3771.5299     -5690.5925      995.74982      2748.7008     -2833.9864      20.671177     -1289.2046     -2239.9429     -3092.5804     -372.34189      63419.138      39.878619      39.878619      39.878619      1.3424184     -1147.5962     -858.28378     -528.47239    
    101500   101500         307.11796      792.02845     -1198.7371     -1937.0891      3764.678      -5701.767       972.43562      2722.884      -2836.1216      19.628154     -1251.4288     -2240.5248     -3088.6397     -369.41582      63921.469      39.983633      39.983633      39.983633      1.3318689      526.04807      1225.1843      624.85294    
    102000   102000         303.78824      322.18421     -1706.3065     -2003.5521      3723.8619     -5727.4141      961.78616      2666.1999     -2798.0658      19.899475     -1262.695      -2232.5328     -3082.006      -373.27329      63260.893      39.845423      39.845423      39.845423      1.3457764      782.12736      343.12884     -158.70355    
    102500   102500         309.7898       60.716846     -1866.2291     -1922.8671      3797.4296     -5720.2967      936.21735      2694.7444     -2821.095       20.702983     -1235.2447     -2234.277      -3081.3447     -369.18123      63962.086      39.9921        39.9921        39.9921        1.3310232     -300.70487      612.50065     -129.64525    
    103000   103000         314.46924      718.07065     -1163.8993     -1827.5182      3854.7906     -5682.3087      982.76356      2747.3523     -2837.1775      19.707857     -1294.2424     -2221.6601     -3079.0525     -372.63753      63368.822      39.86807       39.86807       39.86807       1.3434843      104.58758      371.41608      1678.2083    
    103500   103500         312.22597     -510.45398     -2379.0781     -1904.6715      3827.2923     -5731.9638      967.56556      2689.9633     -2824.0629      19.317741     -1277.2822     -2226.7595     -3080.7059     -370.54761      63726.229      39.942883      39.942883      39.942883      1.3359494     -5.5237351      753.67313     -2279.5113    
    104000   104000         314.7454       653.27743     -1260.2992     -1863.5939      3858.1757     -5721.7697      959.59098      2683.4639     -2820.982       20.349043     -1226.702      -2249.0868     -3088.4028     -372.91193      63322.193      39.858289      39.858289      39.858289      1.3444736      887.2199       694.76991      377.84248    
    104500   104500         312.78944     -130.40894     -1936.7706     -1815.1396      3834.1994     -5649.339       1027.0884      2694.7768     -2841.0054      19.574943     -1244.765      -2221.2576     -3083.7511     -369.23368      63953          39.990206      39.990206      39.990206      1.3312123     -137.31562     -307.98033      54.069128    
    105000   105000         311.31453     -1169.8993     -3035.7989     -1945.396       3816.1199     -5761.5159      975.47904      2683.4819     -2820.1404      19.758423     -1294.957      -2234.3258     -3090.8121     -369.48738      63909.088      39.981051      39.981051      39.981051      1.332127      -455.02416     -1537.1071     -1517.5668    
    105500   105500         306.57171      33.683258     -1886.4683     -1917.7726      3757.9819     -5675.7546      983.55621      2740.89       -2817.562       20.656803     -1279.5404     -2237.1798     -3086.5754     -370.55069      63725.699      39.942772      39.942772      39.942772      1.3359605      546.40313     -1104.3326      658.97924    
    106000   106000         311.50364     -1149.03       -2899.4218     -1824.958       3818.4379     -5643.3959      1036.3322      2723.3751     -2834.832       20.533256     -1280.6839     -2227.1591     -3080.9614     -368.27961      64118.678      40.024709      40.024709      40.024709      1.3277725     -863.37928     -850.13884     -1733.5718    
    106500   106500         314.64464      152.04253     -1677.2948     -1818.3681      3856.9406     -5675.3087      1002.6153      2711.9294     -2831.2748      19.335533     -1269.5688     -2228.6774     -3079.6679     -371.15762      63621.492      39.920988      39.920988      39.920988      1.3381487      504.99911      227.98862     -276.86015    
    107000   107000         315.33256     -845.9475      -2628.8102     -1843.214       3865.3732     -5708.5873      998.30896      2689.7551     -2824.0469      20.077943     -1277.8493     -2234.3281     -3080.5049     -370.83623      63676.631      39.932518      39.932518      39.932518      1.33699        1300.0344     -1681.1893     -2156.6876    
    107500   107500         313.51579      119.96569     -1746.6961     -1858.3955      3843.103      -5701.4985      968.77957      2699.7153     -2811.0765      19.80026      -1263.1487     -2231.4598     -3084.1086     -369.86616      63843.639      39.967398      39.967398      39.967398      1.3334926     -55.244599     -1398.1195      1813.2612    
    108000   108000         305.65319      22.193484     -1914.3733     -1934.9078      3746.7227     -5681.6305      965.70275      2746.2071     -2827.8132      20.083504     -1265.7663     -2236.6106     -3083.4337     -372.2029       63442.821      39.883582      39.883582      39.883582      1.3419173     -581.24751      489.4183       158.40967    
    108500   108500         303.97814      237.40235     -1798.1311     -2017.8724      3726.1897     -5744.0621      980.14636      2634.6251     -2830.2809      19.220199     -1224.6818     -2237.6505     -3085.4406     -372.05872      63467.406      39.888734      39.888734      39.888734      1.3413975      313.12572     -72.15626       471.23759    
    109000   109000         308.51517      706.25014     -1332.1787     -1982.8978      3781.8051     -5764.7028      955.8937       2693.1804     -2811.4116      21.005307     -1299.8543     -2238.1876     -3085.3287     -373.76891      63177.009      39.827803      39.827803      39.827803      1.3475633      1226.8758      1158.7357     -266.86109    
    109500   109500         314.2607      -372.94768     -2215.2142     -1868.6638      3852.2343     -5720.8981      948.56678      2714.3893     -2827.8251      19.092409     -1267.4474     -2227.169      -3080.505      -370.61211      63715.138      39.940565      39.940565      39.940565      1.336182      -828.97459     -255.41387     -34.454581    
    110000   110000         307.9269      -1466.4457     -3371.4725     -2002.0658      3774.5939     -5776.6597      1025.3942      2629.8285     -2849.9261      18.559843     -1286.4478     -2230.1901     -3083.8782     -368.78365      64031.042      40.006466      40.006466      40.006466      1.3295898     -1463.1578     -1818.2218     -1117.9575    
    110500   110500         313.73129      202.07581     -1789.2749     -1977.2856      3845.7447     -5823.0303      968.87799      2643.458      -2831.0763      19.997464     -1317.8117     -2226.8549     -3079.6209     -370.14335      63795.828      39.957419      39.957419      39.957419      1.334492       108.96746     -187.65861      684.91857    
    111000   111000         306.50074      549.26188     -1383.7073     -1895.6741      3757.112      -5652.7861      947.65515      2751.3189     -2829.0756      21.138594     -1230.5983     -2232.9381     -3080.2868     -369.46711      63912.595      39.981782      39.981782      39.981782      1.3320539      1311.7262     -36.137302      372.19675    
    111500   111500         305.23102     -327.84913     -2349.4034     -2046.9187      3741.5476     -5788.4663      966.80276      2640.227      -2807.091       18.568916     -1284.5822     -2239.7388     -3082.653      -373.25777      63263.524      39.845975      39.845975      39.845975      1.3457205     -896.0611       33.57059      -121.05687    
    112000   112000         304.82521     -576.47085     -2584.195      -2049.2052      3736.5732     -5785.7783      953.55153      2696.079      -2822.2838      19.554306     -1330.9284     -2222.9367     -3078.8143     -371.08203      63634.451      39.923699      39.923699      39.923699      1.3378762     -548.72956      241.22235     -1421.9053    
    112500   112500         303.20925     -406.44703     -2319.989      -1942.2015      3716.7646     -5658.9662      1006.2481      2714.2645     -2804.9716      19.514618     -1280.4042     -2230.4219     -3083.1957     -370.5054       63733.489      39.9444        39.9444        39.9444        1.3357973     -263.19575      156.11815     -1112.2635    
    113000   113000         310.39568      1183.067      -819.09256     -1918.1102      3804.8565     -5722.9667      930.41406      2728.293      -2828.8435      19.363497     -1245.552      -2238.5344     -3088.1074     -370.71725      63697.067      39.936789      39.936789      39.936789      1.3365611      1157.0326      287.45322      2104.7152    
    113500   113500         314.66315     -3.4506902     -1874.6053     -1871.3967      3857.1675     -5728.5642      1000.0827      2655.9606     -2856.9015      20.271804     -1225.8203     -2238.2158     -3083.9416     -370.3609       63758.355      39.949594      39.949594      39.949594      1.3352763      111.68664     -127.23219      5.1934818    
    114000   114000         301.00895     -161.18471     -2048.5343     -1897.7864      3689.7932     -5587.5795      978.82107      2793.1514     -2851.8791      19.369054     -1200.5254     -2242.1723     -3084.3442     -368.22272      64128.584      40.02677       40.02677       40.02677       1.3275674      742.66938     -519.19735     -707.02616    
    114500   114500         313.50273     -150.49998     -2101.9491     -1963.3705      3842.9429     -5806.3134      988.60362      2676.2619     -2864.5194      20.161781     -1307.2639     -2232.9748     -3086.5825     -374.00559      63137.028      39.8194        39.8194        39.8194        1.3484166      53.186056     -349.47026     -155.21572    
    115000   115000         311.22725      672.43876     -1364.0773     -1988.9579      3815.0499     -5804.0078      944.06658      2649.4673     -2858.6869      18.763784     -1233.8395     -2238.6325     -3085.1466     -370.59009      63718.924      39.941356      39.941356      39.941356      1.3361026      516.87991     -58.987144      1559.4235    
    115500   115500         310.97722      447.2421      -1529.172      -1942.2755      3811.9851     -5754.2606      969.88016      2640.3684     -2834.1561      18.461759     -1224.5967     -2239.0354     -3085.1826     -372.8395       63334.495      39.86087       39.86087       39.86087       1.3442125      728.74156      878.93172     -265.94698    
    116000   116000         306.46457     -360.93771     -2339.6993     -2003.9499      3756.6686     -5760.6186      970.59518      2664.5762     -2841.3047      19.833895     -1251.8158     -2237.2424     -3085.261      -370.21597      63783.314      39.954806      39.954806      39.954806      1.3347538     -922.29555     -410.45153      249.93395    
    116500   116500         315.20844     -276.75698     -2234.6345     -1977.4937      3863.8517     -5841.3454      942.98796      2625.637      -2828.0537      17.835343     -1279.7472     -2235.4784     -3084.5265     -370.65152      63708.363      39.93915       39.93915       39.93915       1.3363241     -544.47035     -847.58174      561.78114    
    117000   117000         312.25699     -535.5085      -2319.2482     -1817.67        3827.6725     -5645.3426      1021.3925      2664.8726     -2817.3629      18.54681      -1214.6418     -2231.0504     -3087.0994     -367.67649      64223.854      40.046582      40.046582      40.046582      1.3255981     -1538.7081      1340.5335     -1408.3509    
    117500   117500         312.95076      385.82731     -1492.2134     -1849.5553      3836.1768     -5685.7321      987.67006      2752.2875     -2848.9566      20.438926     -1272.7188     -2237.8354     -3086.6178     -371.83241      63506.034      39.896824      39.896824      39.896824      1.3405816      1093.3552      503.30156     -439.1748     
    118000   118000         311.1905       720.38339     -1240.8497     -1913.3701      3814.5994     -5727.9695      963.24412      2698.6908     -2856.3383      19.114713     -1217.8069     -2245.4039     -3089.47       -368.88956      64012.659      40.002637      40.002637      40.002637      1.3299716      1185.5414      677.51394      298.09481    
    118500   118500         312.24857     -170.60728     -2125.0694     -1965.9738      3827.5694     -5793.5432      972.36917      2618.2061     -2833.0506      18.634621     -1241.8055     -2240.0338     -3087.8632     -369.29852      63941.772      39.987865      39.987865      39.987865      1.331446      -695.87346     -627.73365      811.78526    
    119000   119000         309.39828      420.22955     -1510.4078     -1901.2049      3792.6303     -5693.8352      938.27038      2700.2417     -2797.1237      19.811296     -1230.2503     -2240.1413     -3084.6433     -370.31675      63765.955      39.951181      39.951181      39.951181      1.3351171     -126.07058      839.54748      547.21173    
    119500   119500         310.51039     -1062.0869     -2845.6804     -1849.3988      3806.2626     -5655.6614      1017.093       2707.1204     -2820.5679      19.843611     -1273.2428     -2226.3771     -3079.5306     -367.12676      64320.022      40.06656       40.06656       40.06656       1.3236161     -709.56842     -431.68972     -2045.0025    
    120000   120000         307.37411      318.41106     -1725.7608     -2021.2762      3767.8179     -5789.0941      978.95494      2589.2776     -2804.0732      18.672838     -1246.8962     -2238.3991     -3086.6311     -371.06171      63637.937      39.924428      39.924428      39.924428      1.3378029      1582.3786     -812.68111      185.53571    
    120500   120500         305.83934     -946.33924     -2884.6775     -2007.5827      3749.0044     -5756.5871      977.63907      2707.3687     -2846.6843      20.15592      -1299.877      -2230.3693     -3084.8202     -371.56809      63551.21       39.906283      39.906283      39.906283      1.3396286     -1604.5763     -861.23005     -373.21142    
    121000   121000         314.7759       782.74345     -1191.8281     -1914.2198      3858.5496     -5772.7694      934.235        2677.8551     -2822.9303      19.393037     -1259.1417     -2239.7155     -3082.4651     -373.15119      63281.593      39.849768      39.849768      39.849768      1.3453362      756.15858      438.02244      1154.0493    
    121500   121500         310.90519     -523.97783     -2397.2736     -1910.7199      3811.102      -5721.822       958.07769      2710.6502     -2837.1723      18.456509     -1252.4161     -2233.7318     -3085.6863     -370.86876      63671.045      39.93135       39.93135       39.93135       1.3371073     -1763.1511      889.47354     -698.25591    
    122000   122000         310.6405       932.44763     -988.17768     -1854.3393      3807.8575     -5662.1968      973.55979      2740.6143     -2847.7329      20.422407     -1233.3619     -2234.408      -3081.2905     -370.73505      63694.009      39.93615       39.93615       39.93615       1.3366252      545.77445      1075.8612      1175.7072    
    122500   122500         310.22736     -1469.6495     -3328.6265     -1948.7461      3802.7932     -5751.5392      1010.5879      2643.8848     -2823.8394      19.778006     -1278.5177     -2236.3429     -3087.0899     -366.78404      64380.122      40.079036      40.079036      40.079036      1.3223805     -772.14972     -2354.0629     -1282.7359    
    123000   123000         309.22666      905.07514     -1057.317      -1894.4098      3790.5265     -5684.9363      952.27637      2725.5383     -2832.757       19.298039     -1231.178      -2231.8866     -3086.2274     -372.3481       63418.08       39.878397      39.878397      39.878397      1.3424408      1501.1942      660.98517      553.04606    
    123500   123500         317.51221      357.76432     -1477.0676     -1810.3151      3892.0915     -5702.4066      992.05541      2696.5624     -2850.6396      19.771305     -1241.4714     -2232.4847     -3086.2        -369.71595      63869.578      39.97281       39.97281       39.97281       1.332951       531.55003     -967.47773      1509.2207    
    124000   124000         310.64403     -488.52482     -2323.7251     -1870.1538      3807.9007     -5678.0545      1026.9696      2651.6683     -2832.0167      18.69932      -1229.1938     -2232.1571     -3082.0241     -370.9191       63662.404      39.929543      39.929543      39.929543      1.3372888     -226.42748     -248.69185     -990.45514    
    124500   124500         306.43191     -262.33864     -2180.9602     -1936.504       3756.2683     -5692.7722      992.36804      2695.4806     -2822.2169      19.721561     -1258.5762     -2233.8238     -3085.7255     -369.57214      63894.432      39.977995      39.977995      39.977995      1.3324325     -1065.8332      334.21399     -55.396718    
    125000   125000         309.73258      5.7937906     -1968.4462     -1973.8472      3796.7281     -5770.5753      938.91923      2677.3658     -2841.8031      19.160474     -1254.3608     -2228.2473     -3081.6096     -369.42588      63919.727      39.98327       39.98327       39.98327       1.3319052     -1324.8065     -362.24716      1704.435     
    125500   125500         304.16121     -70.146474     -2057.6611     -1992.2942      3728.4338     -5720.728       971.1295       2680.7904     -2833.8296      19.391725     -1232.9726     -2243.2665     -3081.9709     -369.56122      63896.319      39.978388      39.978388      39.978388      1.3323932     -329.75554      95.448445      23.867676    
    126000   126000         307.53338     -1150.1288     -3005.422      -1932.9392      3769.7702     -5702.7094      1001.3785      2690.0094     -2818.1328      20.265259     -1277.2046     -2235.7129     -3083.3123     -369.31272      63939.313      39.987353      39.987353      39.987353      1.3314972     -2108.9149     -180.45446     -1161.0169    
    126500   126500         309.67255      344.66997     -1539.2525     -1862.1462      3795.9923     -5658.1386      952.64986      2723.6846     -2821.7036      19.511406     -1203.6846     -2241.48       -3087.1162     -367.60549      64236.26       40.04916       40.04916       40.04916       1.3253421     -631.1834       663.24374      1001.9496    
    127000   127000         308.29787     -371.46194     -2285.2432     -1940.7517      3779.1413     -5719.893       953.19089      2753.9287     -2848.5265      20.705209     -1268.952      -2244.0649     -3086.1746     -371.34195      63589.91       39.914382      39.914382      39.914382      1.3388133      341.57686     -294.58762     -1161.3751    
    127500   127500         313.62094     -247.02693     -2087.0264     -1855.549       3844.392      -5699.9411      983.96925      2690.8531     -2823.2038      20.014175     -1244.6507     -2239.5658     -3087.3573     -367.51403      64252.245      40.052482      40.052482      40.052482      1.3250124     -332.44233     -673.72733      265.08887    
    128000   128000         305.90066     -404.89958     -2354.6398     -1975.6082      3749.7562     -5725.3644      966.16145      2675.9819     -2834.2915      19.377182     -1222.4761     -2240.8044     -3089.3129     -367.88328      64187.754      40.039077      40.039077      40.039077      1.3263436     -556.93648     -785.51467      127.7524     
    128500   128500         309.78142     -177.48421     -2081.1194     -1916.7508      3797.3268     -5714.0776      931.71173      2714.7891     -2822.0728      19.940361     -1233.0744     -2237.8796     -3087.492      -371.85953      63501.403      39.895855      39.895855      39.895855      1.3406794      541.39758     -338.428       -735.4222     
    129000   129000         300.32095     -1352.8593     -3312.9158     -2055.8662      3681.3596     -5737.2258      991.82862      2675.8767     -2825.2636      19.713012     -1290.3436     -2223.5948     -3085.4422     -370.62811      63712.387      39.939991      39.939991      39.939991      1.3362397     -1580.9775     -1502.3419     -975.25855    
    129500   129500         304.30034      99.384643     -1871.7252     -1964.2915      3730.1393     -5694.4308      979.71886      2702.8043     -2831.5196      19.606899     -1253.1688     -2230.5997     -3081.2728     -369.74649      63864.303      39.97171       39.97171       39.97171       1.3330611      293.78174     -228.56826      232.94045    
    130000   130000         315.6852      -169.36059     -2059.8448     -1902.4942      3869.6958     -5772.19        939.94671      2678.5365     -2817.0334      19.218257     -1273.8774     -2233.3818     -3085.5989     -370.66547      63705.965      39.938649      39.938649      39.938649      1.3363744     -363.8977      -718.90654      574.72248    
    130500   130500         312.58752      217.88138     -1594.4103     -1798.2708      3831.7243     -5629.9951      988.54284      2730.6035     -2826.7992      19.976434     -1231.4565     -2228.8036     -3082.0586     -368.06539      64155.996      40.032473      40.032473      40.032473      1.3270002      300.0842       245.87602      107.68392    
    131000   131000         320.00946      457.34956     -1326.9713     -1753.251       3922.703      -5675.9541      985.82858      2705.9046     -2848.2188      20.349239     -1213.4675     -2238.9759     -3087.3743     -369.48061      63910.26       39.981295      39.981295      39.981295      1.3321025      335.95582      330.20106      705.89179    
    131500   131500         315.18733      180.54665     -1697.8719     -1865.4974      3863.5929     -5729.0903      963.50517      2704.3524     -2838.4299      20.658984     -1261.7844     -2234.0488     -3083.3437     -370.9263       63661.168      39.929285      39.929285      39.929285      1.3373147     -276.88171     -159.38388      977.90555    
    132000   132000         314.39956      536.88799     -1436.3025     -1936.5303      3853.9364     -5790.4667      946.02967      2667.5572     -2869.2933      20.651864     -1229.502      -2237.1722     -3088.738      -369.6187       63886.383      39.976316      39.976316      39.976316      1.3326004      251.58143      1548.0436     -188.96103    
    132500   132500         308.56681      236.02631     -1781.1225     -2001.7333      3782.438      -5784.1713      938.05533      2638.382      -2811.1768      18.69419      -1236.0752     -2241.9921     -3090.0588     -368.44415      64090.044      40.01875       40.01875       40.01875       1.3283658      475.73072      74.158309      158.1899     
    133000   133000         304.36719     -999.0833      -2956.2128     -2019.0991      3730.9587     -5750.0578      965.30693      2687.28       -2835.2287      19.709206     -1266.9305     -2235.5008     -3084.6939     -367.15341      64315.355      40.065591      40.065591      40.065591      1.3237122     -593.41052     -1003.3538     -1400.4855    
    133500   133500         309.13441     -713.84828     -2597.4235     -1932.6376      3789.3957     -5722.0333      988.90906      2711.4281     -2869.1998      20.395686     -1261.802      -2229.877      -3081.8874     -369.79603      63855.747      39.969925      39.969925      39.969925      1.3332397     -656.51373     -372.57213     -1112.459     
    134000   134000         314.22436     -116.52675     -1986.8553     -1878.2117      3851.7887     -5730.0004      933.56778      2706.5393     -2817.5429      19.652729     -1259.2212     -2228.7344     -3084.2617     -369.3682       63929.709      39.985351      39.985351      39.985351      1.3316973     -465.04892      158.23598     -42.76732     
    134500   134500         310.67484     -522.84302     -2394.5392     -1908.5192      3808.2785     -5716.7977      974.03515      2685.6517     -2818.1544      18.383001     -1265.8044     -2225.8702     -3085.0385     -370.47195      63739.242      39.945602      39.945602      39.945602      1.3356767     -1092.8073     -409.80018     -65.921588    
    135000   135000         315.20712     -185.56821     -1937.9823     -1764.4271      3863.8355     -5628.2626      1024.9234      2721.5801     -2822.2638      19.727799     -1247.1159     -2238.1118     -3087.0023     -368.21722      64129.542      40.02697       40.02697       40.02697       1.3275476      539.71813     -107.17585     -989.24691    
    135500   135500         311.36665      461.15838     -1400.342      -1832.0769      3816.7587     -5648.8356      996.94855      2726.7706     -2824.1132      20.123379     -1249.5561     -2233.3557     -3085.6532     -367.85026      64193.517      40.040275      40.040275      40.040275      1.3262246     -1054.5639      1638.0899      799.94912    
    136000   136000         305.08136     -812.34769     -2661.2371     -1901.8604      3739.7131     -5641.5735      1021.6734      2692.1712     -2817.4946      19.561584     -1254.8429     -2225.244      -3077.3982     -368.40273      64097.249      40.02025       40.02025       40.02025       1.3282164     -143.5396      -1067.1298     -1226.3737    
    136500   136500         308.81355      240.34778     -1728.8262     -1951.8128      3785.4626     -5737.2754      958.97544      2696.54       -2817.8377      19.4308       -1281.8785     -2232.2206     -3080.2849     -371.19268      63615.484      39.919731      39.919731      39.919731      1.3382751     -888.62405      1552.4573      57.210096    
    137000   137000         308.85337      372.72926     -1601.5782     -1947.3863      3785.9508     -5733.3371      950.88305      2709.2058     -2827.3943      20.118385     -1263.6513     -2237.212      -3085.2868     -371.19011      63615.924      39.919824      39.919824      39.919824      1.3382659     -9.8234591      231.46456      896.54669    
    137500   137500         306.86371      1073.1337     -942.58014     -1941.9846      3761.5612     -5703.5458      1024.8536      2644.3402     -2847.3481      20.18359      -1228.7097     -2236.7332     -3080.1322     -369.7862       63857.444      39.970279      39.970279      39.970279      1.3332043      1642.0852      12.326715      1564.9893    
    138000   138000         309.97073      832.28334     -1104.6633     -1877.9334      3799.6474     -5677.5808      941.96224      2743.1868     -2847.2653      20.380128     -1220.9237     -2231.9961     -3082.9248     -370.66205      63706.553      39.938772      39.938772      39.938772      1.336362       1386.8843      904.40109      205.5646     
    138500   138500         315.58174      602.80356     -1241.6024     -1801.5354      3868.4276     -5669.9631      982.13215      2684.2232     -2826.9295      19.778536     -1226.6196     -2223.4264     -3079.1215     -370.74714      63691.931      39.935716      39.935716      39.935716      1.3366688      49.286567      1328.8521      430.27203    
    139000   139000         303.1494       288.72872     -1810.8313     -2080.6099      3716.0309     -5796.6408      935.6233       2656.3477     -2836.2257      19.392568     -1249.8059     -2238.5464     -3083.4264     -368.57062      64068.052      40.014173      40.014173      40.014173      1.3288217      292.63569      609.87692     -36.326464    
    139500   139500         308.95004      98.576056     -1767.9412     -1859.8417      3787.1358     -5646.9774      955.38197      2741.447      -2818.7884      19.619279     -1246.3427     -2219.6686     -3078.626      -369.39568      63924.954      39.984359      39.984359      39.984359      1.3317963     -321.88185      695.60702     -77.997001    
    140000   140000         309.77127     -544.08553     -2395.5996     -1890.5571      3797.2025     -5687.7596      958.29004      2731.0733     -2835.9463      20.171419     -1258.8504     -2222.039      -3080.4586     -371.00298      63648.011      39.926534      39.926534      39.926534      1.3375912      226.12909     -767.54751     -1090.8382    
    140500   140500         311.4953      -1351.1211     -3169.7196     -1897.0239      3818.3357     -5715.3596      1011.1893      2649.8861     -2830.2463      19.975988     -1275.2293     -2215.4142     -3075.5212     -365.60137      64588.384      40.122206      40.122206      40.122206      1.3181166     -2016.8448     -1290.6437     -745.87483    
    141000   141000         309.68738      1066.3254     -944.13024     -1930.2717      3796.1741     -5726.4458      975.03009      2648.1616     -2831.0628      18.750545     -1225.4931     -2232.1627     -3079.6694     -372.38198      63412.311      39.877188      39.877188      39.877188      1.342563      -19.920612      2116.9128      1101.984     
    141500   141500         310.57728     -558.39129     -2389.842      -1869.2788      3807.0825     -5676.3614      970.57001      2729.0796     -2821.3825      19.138881     -1281.5976     -2214.9116     -3077.2583     -369.40545      63923.263      39.984007      39.984007      39.984007      1.3318316     -307.94126     -1026.7928     -340.43983    
    142000   142000         309.52334      996.68649     -968.82448     -1894.9685      3794.1633     -5689.1318      924.40294      2708.3735     -2832.3233      19.774949     -1190.0047     -2235.9278     -3083.4274     -370.61087      63715.351      39.94061       39.94061       39.94061       1.3361775      1229.1541      988.2178       772.68751    
    142500   142500         311.38894     -319.51288     -2245.3294     -1949.5649      3817.0319     -5766.5968      993.33209      2625.4786     -2822.5806      18.912073     -1260.32       -2234.8023     -3086.6166     -372.03205      63471.955      39.889687      39.889687      39.889687      1.3413014      319.18309      318.83958     -1596.5613    
    143000   143000         311.65879      206.25862     -1701.97       -1894.0354      3820.3398     -5714.3752      949.67898      2723.2401     -2836.0511      20.574617     -1254.9693     -2235.0596     -3081.7889     -369.82901      63850.052      39.968736      39.968736      39.968736      1.3333586      765.34977     -192.69479      46.120881    
    143500   143500         314.6083       51.142693     -1835.9589     -1883.676       3856.4951     -5740.1711      1018.8394      2593.8944     -2821.9645      18.626554     -1237.9378     -2226.8447     -3084.7844     -369.10324      63975.601      39.994916      39.994916      39.994916      1.330742      -542.11454     -380.30316      1075.8458    
    144000   144000         316.55109      484.0242      -1362.4101     -1815.5989      3880.31       -5695.9089      950.44035      2692.0585     -2828.8843      19.367122     -1215.9536     -2228.9367     -3084.0004     -367.81206      64200.183      40.041661      40.041661      40.041661      1.3260869      685.21538     -9.3575002      776.21471    
    144500   144500         311.51048     -589.53376     -2386.6821     -1836.6579      3818.5218     -5655.1798      1015.1722      2668.4369     -2823.9655      19.929562     -1220.9345     -2229.8654     -3083.953      -369.11779      63973.08       39.994391      39.994391      39.994391      1.3307944      534.02457      159.52199     -2462.1478    
    145000   145000         308.82437     -75.587913     -2010.4784     -1939.9573      3785.5952     -5725.5525      900.59662      2694.5337     -2830.3247      19.653916     -1199.9363     -2226.9535     -3083.1223     -369.12336      63972.115      39.99419       39.99419       39.99419       1.3308145     -422.13457      608.24963     -412.8788     
    145500   145500         312.93141      719.30213     -1258.4646     -1928.9076      3835.9397     -5764.8473      943.67583      2645.907      -2835.1393      18.357839     -1221.6448     -2233.9159     -3082.0879     -369.47718      63910.853      39.981419      39.981419      39.981419      1.3320902     -950.75987      1061.5009      2047.1654    
    146000   146000         308.45898      361.50222     -1617.7222     -1953.1901      3781.1162     -5734.3063      944.49697      2685.3874     -2834.5891      19.135561     -1244.9402     -2224.682      -3079.1149     -371.10608      63630.328      39.922836      39.922836      39.922836      1.3379629     -202.81305      562.15121      725.16849    
    146500   146500         306.2123      -203.11426     -2160.2713     -1970.1188      3753.5763     -5723.6951      978.35671      2665.2406     -2833.468       18.648934     -1249.9431     -2223.1487     -3079.3815     -367.85482      64192.72       40.04011       40.04011       40.04011       1.326241      -790.9931       663.42429     -481.77398    
    147000   147000         311.75065     -465.57717     -2361.2057     -1928.1795      3821.4658     -5749.6453      955.09889      2644.2719     -2787.043       20.53959      -1280.0535     -2220.1738     -3082.2854     -370.26751      63774.436      39.952952      39.952952      39.952952      1.3349396     -109.26076     -927.32693     -360.14381    
    147500   147500         308.45006      1225.4851     -767.38042     -1902.3789      3781.0069     -5683.3858      948.92637      2742.9944     -2822.1611      19.883827     -1264.1064     -2225.3104     -3083.6124     -371.83552      63505.502      39.896713      39.896713      39.896713      1.3405928      1183.3625      1060.374       1432.7188    
    148000   148000         306.94117      783.04724     -1147.3441     -1874.1167      3762.5108     -5636.6276      971.04284      2724.4979     -2813.3598      19.675511     -1220.7675     -2233.3067     -3084.4099     -371.04579      63640.666      39.924998      39.924998      39.924998      1.3377456      375.07482      884.78268      1089.2842    
    148500   148500         309.7934       294.79354     -1633.7235     -1907.6355      3797.4737     -5705.1092      972.11265      2663.7885     -2840.9926      19.128404     -1216.746      -2227.8024     -3074.5978     -370.63383      63711.404      39.939785      39.939785      39.939785      1.3362603      508.59778      778.83241     -403.04957    
    149000   149000         302.5778       1064.2637     -939.91116     -1927.7462      3709.0243     -5636.7705      994.60008      2676.7543     -2798.8741      19.668669     -1214.0896     -2233.4156     -3081.4142     -371.02481      63644.266      39.925751      39.925751      39.925751      1.3376699      210.2423       1239.6657      1742.883     
    149500   149500         314.3472       34.469599     -1771.8853     -1803.9875      3853.2945     -5657.282       990.97962      2677.2415     -2807.3836      19.523857     -1241.4379     -2218.424      -3077.7814     -369.77663      63859.098      39.970624      39.970624      39.970624      1.3331698      45.089071      5.6984119      52.621314    
    150000   150000         316.26002     -264.12396     -2000.2366     -1753.2398      3876.7421     -5629.9819      998.3359       2728.1262     -2834.2484      21.078476     -1236.7926     -2227.4964     -3078.985      -368.26014      64122.068      40.025415      40.025415      40.025415      1.3277023     -971.50605     -940.38705      1119.5212    
    150500   150500         310.4132       463.07327     -1411.0806     -1842.3316      3805.0712     -5647.4028      974.53622      2690.1117     -2798.6699      20.576912     -1222.4344     -2232.2584     -3079.2649     -369.79221      63856.406      39.970062      39.970062      39.970062      1.333226       1620.1127     -37.388898     -193.50402    
    151000   151000         311.27338     -999.76416     -2835.6776     -1896.3867      3815.6154     -5712.0021      976.07315      2668.2325     -2820.8651      19.529929     -1250.8443     -2226.1506     -3077.9776     -366.552        64420.878      40.087491      40.087491      40.087491      1.3215439     -2247.9336     -397.02924     -354.32964    
    151500   151500         306.38244      188.82846     -1719.054      -1894.8571      3755.6619     -5650.519       983.45255      2690.7697     -2817.137       18.883453     -1207.0907     -2236.4288     -3082.9682     -369.89555      63838.567      39.96634       39.96634       39.96634       1.3335985      741.84968     -160.24731     -15.117002    
    152000   152000         313.72918      324.83259     -1536.9552     -1840.1069      3845.7188     -5685.8257      995.24778      2676.6471     -2839.4438      19.935072     -1226.1878     -2232.7846     -3079.2395     -369.00973      63991.813      39.998294      39.998294      39.998294      1.3304049      728.9586      -850.58677      1096.126     
    152500   152500         309.81123     -160.83772     -2086.3165     -1936.3469      3797.6923     -5734.0391      946.35023      2657.5366     -2819.8323      19.177642     -1228.1591     -2228.5115     -3080.6007     -369.33682      63935.141      39.986483      39.986483      39.986483      1.3315841     -597.1506       481.07073     -366.4333     
    153000   153000         307.59963     -202.56019     -2035.1849     -1846.3043      3770.5823     -5616.8866      971.93728      2721.1507     -2827.9747      19.787702     -1194.5681     -2227.8696     -3079.3498     -369.32178      63937.744      39.987026      39.987026      39.987026      1.3315299      962.46678     -719.35107     -850.79628    
    153500   153500         305.82017     -743.28907     -2644.5944     -1946.443       3748.7695     -5695.2125      970.47248      2679.2112     -2806.5213      19.773953     -1245.1191     -2230.1375     -3082.8922     -366.64543      64404.462      40.084086      40.084086      40.084086      1.3218808      566.85981     -1525.1293     -1271.5977    
    154000   154000         308.40043     -15.676637     -1956.763      -1942.0664      3780.3985     -5722.4649      972.91318      2663.1348     -2829.8722      19.423939     -1235.4689     -2230.7744     -3081.8213     -367.34412      64281.964      40.058656      40.058656      40.058656      1.3243998     -531.70928      594.42718     -109.74782    
    154500   154500         310.94735     -1019.0961     -2844.7212     -1893.0153      3811.6189     -5704.6342      1005.2958      2651.978      -2815.2094      19.045893     -1252.1461     -2232.4927     -3081.1057     -368.76565      64034.168      40.007117      40.007117      40.007117      1.3295249     -1541.7764     -1075.0337     -440.47804    
    155000   155000         314.25479     -123.58891     -1887.4097     -1773.0932      3852.1618     -5625.255       1001.4901      2739.1953     -2818.0859      19.323778     -1255.2118     -2235.1696     -3076.7968     -372.31338      63423.995      39.879637      39.879637      39.879637      1.3423156      668.9344      -130.93914     -908.76198    
    155500   155500         318.66553     -175.36773     -1890.3818     -1726.0742      3906.229      -5632.3032      933.75637      2741.6503     -2805.888       19.183321     -1201.9152     -2236.9788     -3082.1112     -367.56161      64243.928      40.050754      40.050754      40.050754      1.3251839     -1421.4057      196.01245      699.29004    
    156000   156000         309.55969      318.79276     -1633.5989     -1929.059       3794.6089     -5723.6679      944.98206      2673.7338     -2802.3131      19.335877     -1253.3286     -2225.5332     -3080.5447     -371.57609      63549.841      39.905996      39.905996      39.905996      1.3396575     -125.13612     -537.27921      1618.7936    
    156500   156500         310.6494      -492.00886     -2322.4267     -1865.547       3807.9667     -5673.5136      954.30968      2781.1782     -2847.9798      20.255988     -1269.4258     -2229.8462     -3082.0056     -370.85929      63672.671      39.93169       39.93169       39.93169       1.3370732     -745.38936     -270.11899     -460.51823    
    157000   157000         316.15537      1188.1114     -767.06437     -1873.5548      3875.4593     -5749.0141      933.96933      2704.5032     -2844.6303      20.143246     -1253.0551     -2227.175      -3082.7695     -369.78357      63857.898      39.970373      39.970373      39.970373      1.3331948      267.55312      2349.2104      947.5706     
    157500   157500         310.04304      293.66445     -1645.8524     -1918.4862      3800.5338     -5719.02        958.1137       2674.8916     -2819.9761      19.927535     -1234.4259     -2232.9931     -3084.5577     -370.94526      63657.914      39.928605      39.928605      39.928605      1.3373831      749.71968     -735.86853      867.14219    
    158000   158000         312.22256     -889.83047     -2684.7351     -1852.0264      3827.2505     -5679.2769      1013.8284      2674.577      -2805.6836      19.590107     -1283.0475     -2219.4772     -3079.0642     -368.00379      64166.735      40.034706      40.034706      40.034706      1.3267781     -466.43882     -321.07448     -1881.9781    
    158500   158500         312.55742      604.40685     -1381.2824     -1941.1266      3831.3553     -5772.4818      938.39673      2646.2237     -2844.6999      19.254684     -1209.7051     -2236.137      -3085.815      -371.7923       63512.886      39.898259      39.898259      39.898259      1.340437      -97.687925      1144.1019      766.80659    
    159000   159000         305.14833      459.83737     -1458.4895     -1890.2606      3740.534      -5630.7947      926.66734      2792.2516     -2843.6786      20.894401     -1206.4879     -2237.2742     -3083.1672     -366.76577      64383.33       40.079702      40.079702      40.079702      1.3223146      265.79466      669.96508      443.75238    
    159500   159500         309.13609      944.25931     -1027.8702     -1903.3877      3789.4164     -5692.8041      933.83574      2751.2594     -2830.0205      20.324315     -1263.3344     -2225.1146     -3079.754      -371.41938      63576.655      39.911608      39.911608      39.911608      1.3390925      582.64237      170.22945      2079.9061    
    160000   160000         313.91002     -651.61048     -2511.327      -1902.7293      3847.9356     -5750.6649      975.19451      2648.2009     -2807.4213      19.273067     -1284.2104     -2224.0953     -3077.6064     -368.71933      64042.213      40.008792      40.008792      40.008792      1.3293579     -481.4311      -597.06357     -876.33677    
    160500   160500         309.59922      203.81492     -1749.3352     -1939.2734      3795.0934     -5734.3668      972.12591      2624.2471     -2797.741       19.335409     -1230.9544     -2236.6456     -3084.7343     -369.54034      63899.929      39.979141      39.979141      39.979141      1.3323179     -555.48352      119.45618      1047.4721    
    161000   161000         305.80332      599.17276     -1392.7383     -1951.3425      3748.5629     -5699.9054      918.56511      2669.4322     -2797.9823      18.478785     -1183.1819     -2242.8693     -3082.3481     -369.39074      63925.808      39.984537      39.984537      39.984537      1.3317785      890.71339      551.6201       355.1848     
    161500   161500         303.17144     -139.20268     -2104.1572     -1974.3049      3716.3012     -5690.6061      1015.2042      2665.5131     -2813.688       19.739572     -1262.963      -2232.3824     -3082.0295     -369.17828      63962.598      39.992206      39.992206      39.992206      1.3310125     -578.98757      225.91694     -64.537407    
    162000   162000         308.76559      534.81797     -1524.0877     -2018.9129      3784.8747     -5803.7877      962.8164       2575.0144     -2813.0273      18.502389     -1231.1346     -2231.3108     -3084.6482     -372.21365      63440.989      39.883199      39.883199      39.883199      1.3419561      1185.6217      1043.6143     -624.78206    
    162500   162500         315.35863     -40.742815     -1895.8375     -1857.869       3865.6927     -5723.5617      945.77365      2694.046      -2837.1656      20.195333     -1248.2313     -2221.8238     -3076.3559     -369.54311      63899.451      39.979041      39.979041      39.979041      1.3323279     -77.195865     -358.63222      313.59964    
    163000   163000         313.05467      954.6744      -981.58242     -1867.2605      3837.4505     -5704.7111      923.8862       2712.0483     -2815.5802      19.973583     -1226.5324     -2233.707      -3084.7996     -371.20814      63612.834      39.919177      39.919177      39.919177      1.3383309     -188.71097      2032.9205      1019.8136    
    163500   163500         305.79947      430.09941     -1547.274      -1947.7414      3748.5157     -5696.2571      959.49642      2672.375      -2799.3151      19.828273     -1225.515      -2235.3228     -3087.8039     -369.86211      63844.338      39.967544      39.967544      39.967544      1.333478       184.13768      215.11127      891.04927    
    164000   164000         307.86053     -6.6586276     -2076.6563     -2070.415       3773.7804     -5844.1954      954.73202      2559.1406     -2829.0746      18.443483     -1237.8509     -2229.111      -3080.475      -367.40643      64271.063      40.056392      40.056392      40.056392      1.3246244      261.87192     -387.09717      105.24936    
    164500   164500         318.33347      192.29735     -1690.6097     -1868.39        3902.1586     -5770.5487      953.58931      2663.7799     -2831.2562      20.034388     -1270.27       -2225.2735     -3081.1526     -372.50117      63392.02       39.872934      39.872934      39.872934      1.3429927      555.52582     -250.39473      271.76095    
    165000   165000         314.10077     -232.59173     -2235.0415     -2019.7691      3850.2738     -5870.0429      987.43543      2563.6875     -2814.3734      19.067483     -1319.4694     -2225.8205     -3080.5701     -372.08663      63462.644      39.887736      39.887736      39.887736      1.3414981      966.11613     -752.10912     -911.78219    
    165500   165500         306.2024      -47.25559      -2029.5952     -1985.4973      3753.4549     -5738.9522      1002.3447      2669.9555     -2849.4474      19.801201     -1280.6703     -2221.8199     -3079.1162     -369.04003      63986.559      39.9972        39.9972        39.9972        1.3305141     -555.49725      357.88716      55.843317    
    166000   166000         315.31507     -45.652912     -1940.4448     -1898.0788      3865.1588     -5763.2376      974.58369      2670.5273     -2833.0828      19.755834     -1283.2129     -2228.4463     -3083.3624     -371.09799      63631.715      39.923126      39.923126      39.923126      1.3379338      700.57705     -910.91475      73.378971    
    166500   166500         308.15107      1387.7736     -591.8992      -1875.8367      3777.3419     -5653.1786      958.77001      2725.3296     -2817.3063      18.592458     -1236.0742     -2223.0064     -3079.4838     -372.23127      63437.985      39.882569      39.882569      39.882569      1.3420196      1460.8259      1064.388       1638.1068    
    167000   167000         313.01177      413.11986     -1625.7983     -2008.1807      3836.9248     -5845.1055      932.36618      2605.7488     -2790.5411      18.976411     -1293.4462     -2237.272      -3080.9376     -372.06283      63466.704      39.888587      39.888587      39.888587      1.3414123      437.35645      485.28218      316.72095    
    167500   167500         311.17454      501.69568     -1517.1967     -1985.4957      3814.4038     -5799.8995      944.96545      2644.6721     -2825.3105      20.328494     -1271.6885     -2234.379      -3078.4876     -368.9396       64003.978      40.000829      40.000829      40.000829      1.330152       330.01791      1161.7186      13.350498    
    168000   168000         309.17347     -1268.0075     -3114.7009     -1930.8512      3789.8746     -5720.7257      1008.5521      2651.8929     -2817.1913      18.783134     -1267.3586     -2233.5449     -3081.8591     -368.86154      64017.522      40.00365       40.00365       40.00365       1.3298706     -1503.7263     -1282.0543     -1018.2419    
    168500   168500         313.75883     -429.92683     -2268.7806     -1872.6102      3846.0822     -5718.6924      950.32789      2663.5699     -2806.6604      19.314851     -1245.6074     -2224.3617     -3075.2757     -373.72368      63184.654      39.82941       39.82941       39.82941       1.3474003     -454.18755     -67.429149     -768.16379    
    169000   169000         312.73165      1050.6271     -785.72148     -1760.7584      3833.491      -5594.2493      967.41459      2722.2659     -2794.0597      19.416337     -1191.6932     -2232.9069     -3084.6864     -371.07838      63635.077      39.92383       39.92383       39.92383       1.3378631      1019.9511      674.19358      1457.7365    
    169500   169500         312.47484     -524.9766      -2290.9588     -1803.5707      3830.343      -5633.9137      980.99881      2730.6175     -2799.3625      19.667979     -1269.6474     -2215.6516     -3080.5366     -370.93956      63658.893      39.928809      39.928809      39.928809      1.3373625     -571.08196     -1331.7734      327.9255     
    170000   170000         316.41324      401.22391     -1495.775      -1867.7728      3878.6203     -5746.393       947.37263      2647.5499     -2803.7516      18.865581     -1237.4006     -2232.6574     -3086.3716     -371.43648      63573.728      39.910995      39.910995      39.910995      1.3391541      392.27187      314.35104      497.04881    
    170500   170500         310.57756     -180.43236     -2093.1845     -1925.5682      3807.086      -5732.6542      952.11473      2667.239      -2812.1582      19.601827     -1253.719      -2223.4809     -3082.2517     -370.71176      63698.011      39.936986      39.936986      39.936986      1.3365413      652.92043     -430.17961     -764.03791    
    171000   171000         300.02543      468.87111     -1642.7187     -2076.3383      3677.7371     -5754.0755      964.30695      2653.3802     -2826.3341      18.904098     -1252.0292     -2230.0477     -3082.2557     -372.37684      63413.185      39.877371      39.877371      39.877371      1.3425445     -697.98773      1437.2211      667.37995    
    171500   171500         310.42918     -288.05152     -2105.999      -1838.1011      3805.2671     -5643.3682      987.93504      2744.7473     -2810.8376      20.292814     -1299.1712     -2210.6184     -3075.7161     -370.28741      63771.009      39.952236      39.952236      39.952236      1.3350113      969.48288     -971.14011     -862.49734    
    172000   172000         310.29102      58.446821     -1833.7519     -1887.971       3803.5736     -5691.5446      987.42707      2669.9534     -2809.9716      19.919809     -1253.5266     -2225.8938     -3079.4528     -371.23328      63608.525      39.918276      39.918276      39.918276      1.3384215     -94.8018        110.12891      160.01335    
    172500   172500         309.75248     -33.304852     -1940.2136     -1909.0492      3796.9721     -5706.0213      963.83079      2681.814      -2799.3948      19.905141     -1265.1287     -2227.2215     -3079.8262     -368.03297      64161.648      40.033648      40.033648      40.033648      1.3268833      1161.2297     -1109.4137     -151.73059    
    173000   173000         312.24272      560.75647     -1492.7068     -2009.6947      3827.4976     -5837.1923      928.15225      2658.96       -2824.969       19.87548      -1307.9688     -2228.9987     -3082.2436     -373.53566      63216.458      39.836091      39.836091      39.836091      1.3467224      671.12305     -375.61418      1386.7605    
    173500   173500         311.94017     -736.32906     -2637.5696     -1950.6346      3823.7889     -5774.4235      995.23055      2674.5356     -2859.9302      20.135929     -1293.8801     -2226.124      -3084.3914     -369.14279      63968.747      39.993488      39.993488      39.993488      1.3308846     -434.1578      -1213.022      -561.80733    
    174000   174000         310.42734      619.93044     -1331.5717     -1904.1492      3805.2446     -5709.3937      955.63034      2688.822      -2811.2701      19.692494     -1256.3097     -2221.8774     -3084.0814     -372.8609       63330.861      39.860107      39.860107      39.860107      1.3442896      1287.9488      708.60793     -136.76542    
    174500   174500         308.01344     -948.77037     -2907.5639     -2030.2774      3775.6548     -5805.9322      976.14806      2663.52       -2812.0348      20.10397      -1344.5329     -2220.7779     -3088.3586     -372.44129      63402.213      39.875071      39.875071      39.875071      1.3427768     -823.15314     -1452.9105     -570.24749    
    175000   175000         309.36566     -172.26485     -2113.0081     -1954.2332      3792.2304     -5746.4636      1002.1662      2641.1405     -2812.8236      19.705816     -1290.7429     -2222.0693     -3083.8402     -373.63958      63198.876      39.832398      39.832398      39.832398      1.3470971      205.33732     -1077.5416      355.40971    
    175500   175500         311.05565      625.64991     -1373.5962     -1951.1644      3812.9465     -5764.1109      933.06639      2654.9812     -2828.0902      18.998134     -1226.6071     -2233.408      -3083.0514     -373.04928      63298.881      39.853397      39.853397      39.853397      1.3449688     -106.59343      764.88626      1218.6569    
    176000   176000         312.24795      398.55384     -1582.0887     -1950.3892      3827.5618     -5777.951       926.24813      2676.7654     -2831.5498      20.369586     -1265.3519     -2226.283      -3078.1494     -372.66863      63363.534      39.866961      39.866961      39.866961      1.3435964      2360.4851     -253.41555     -911.40799    
    176500   176500         316.60517      112.34251     -1630.1875     -1734.664       3880.9729     -5615.6369      972.2459       2760.0343     -2844.1378      20.091642     -1217.8044     -2228.9547     -3077.1117     -370.30851      63767.376      39.951478      39.951478      39.951478      1.3350874     -120.64343      225.76302      231.90793    
    177000   177000         308.1447       715.36392     -1261.995      -1924.7904      3777.2638     -5702.0541      946.56461      2661.4676     -2827.3012      19.698526     -1199.9856     -2223.2204     -3079.2777     -371.69412      63529.662      39.901772      39.901772      39.901772      1.340083       687.32303      179.95961      1278.8091    
    177500   177500         314.03826      198.15821     -1794.1695     -1977.4532      3849.5075     -5826.9607      924.55272      2632.2402     -2811.0793      19.298953     -1281.5603     -2227.1586     -3083.2544     -372.32857      63421.406      39.879095      39.879095      39.879095      1.3423704      1531.1495     -209.84309     -726.83183    
    178000   178000         308.59064     -771.4431      -2532.2374     -1812.563       3782.7302     -5595.2932      970.9415       2776.5245     -2788.1065      21.209008     -1280.7738     -2215.3292     -3079.7588     -369.15263      63967.041      39.993132      39.993132      39.993132      1.3309201     -265.57        -251.7247      -1797.0346    
    178500   178500         316.15663     -954.91808     -2731.1347     -1844.8239      3875.4747     -5720.2987      999.65355      2689.0261     -2812.3123      19.302014     -1307.7129     -2224.7667     -3083.4883     -371.03787      63642.026      39.925283      39.925283      39.925283      1.337717      -1551.1195     -888.20434     -425.43043    
    179000   179000         314.94548      106.49062     -1784.275      -1882.7314      3860.6284     -5743.3598      976.37667      2696.8884     -2848.3482      20.489833     -1289.3228     -2219.6561     -3079.7876     -372.4822       63395.249      39.873611      39.873611      39.873611      1.3429243      1219.1347     -349.4674      -550.19548    
    179500   179500         308.72977      276.8399      -1626.5463     -1882.3555      3784.4356     -5666.791       990.86844      2671.8321     -2821.5952      20.18164      -1218.2994     -2229.0716     -3080.707      -372.69252      63359.473      39.866109      39.866109      39.866109      1.3436826      640.31389     -413.76926      603.97507    
    180000   180000         306.41344     -185.87164     -2154.7537     -1983.3815      3756.0419     -5739.4233      932.8272       2698.9545     -2813.4429      19.570992     -1261.0361     -2230.6876     -3085.6093     -373.51743      63219.544      39.83674       39.83674       39.83674       1.3466567     -441.96841      190.64275     -306.28926    
    180500   180500         305.35283     -974.19681     -2956.3915     -2052.7397      3743.0408     -5795.7805      970.0746       2637.4022     -2822.3505      19.244026     -1315.5004     -2208.543      -3076.1075     -371.26476      63603.132      39.917148      39.917148      39.917148      1.338535      -1549.5429     -817.77549     -555.27204    
    181000   181000         310.13707     -260.35185     -2142.2679     -1901.7021      3801.6864     -5703.3885      971.4163       2695.7225     -2805.1489      19.868491     -1287.9171     -2215.2826     -3082.0472     -372.70465      63357.411      39.865677      39.865677      39.865677      1.3437263     -196.03279     -201.73577     -383.287      
    181500   181500         308.33724     -464.15746     -2374.728      -1942.2534      3779.6239     -5721.8773      988.30404      2684.9752     -2839.3834      20.531875     -1278.1179     -2219.6842     -3078.5029     -369.60923      63888.019      39.976657      39.976657      39.976657      1.3325663     -675.39785     -508.9565      -208.11804    
    182000   182000         320.43135      715.63203     -1221.7635     -1881.5386      3927.8745     -5809.4131      889.59111      2677.7347     -2823.0722      20.978774     -1266.373      -2227.9656     -3080.3069     -373.53558      63216.473      39.836095      39.836095      39.836095      1.3467221      1200.567      -58.128557      1004.4577    
    182500   182500         308.83686      320.51161     -1665.8601     -1963.2666      3785.7484     -5749.015       947.78439      2671.3764     -2830.381       20.585275     -1259.354      -2224.0366     -3074.9894     -371.13456      63625.445      39.921815      39.921815      39.921815      1.3380656      487.14957     -631.6432       1106.0285    
    183000   183000         308.98424      610.26279     -1427.0047     -1991.4587      3787.555      -5779.0137      938.71516      2694.556      -2832.168       19.483509     -1284.8373     -2231.7633     -3082.9999     -372.32867      63421.39       39.879091      39.879091      39.879091      1.3423708      1267.2658     -534.52376      1098.0464    
    183500   183500         310.22868      967.76239     -1079.6619     -1973.5713      3802.8094     -5776.3807      956.84967      2639.6507     -2824.018       20.364154     -1261.737      -2227.745      -3079.7452     -372.83214      63335.747      39.861132      39.861132      39.861132      1.3441859      1287.341       106.00024      1509.9459    
    184000   184000         311.73378      263.29288     -1617.8556     -1862.5592      3821.259      -5683.8182      920.47467      2733.5998     -2818.9282      20.307265     -1235.1539     -2223.4756     -3080.6423     -370.5416       63727.262      39.943099      39.943099      39.943099      1.3359278     -417.90078      951.63363      256.14581    
    184500   184500         316.45059      693.72736     -1202.0779     -1845.7466      3879.0781     -5724.8247      925.15279      2663.849      -2801.3018      19.33697      -1220.3848     -2229.2532     -3082.2237     -371.16292      63620.584      39.920798      39.920798      39.920798      1.3381678      516.23393      741.93811      823.01005    
    185000   185000         315.24603      827.10336     -1098.9449     -1867.0103      3864.3125     -5731.3228      941.27924      2664.5564     -2834.7896      18.882423     -1205.6249     -2234.9275     -3080.6989     -370.85119      63674.062      39.931981      39.931981      39.931981      1.337044       761.79977      606.68677      1112.8236    
    185500   185500         308.62144     -831.34281     -2846.8865     -2072.9906      3783.1077     -5856.0983      919.94964      2599.5082     -2800.7117      19.322069     -1273.0877     -2233.9543     -3087.1246     -369.94375      63830.249      39.964604      39.964604      39.964604      1.3337723     -1309.5319     -938.91595     -245.58056    
    186000   186000         313.79663     -851.74653     -2589.092      -1795.7561      3846.5457     -5642.3018      981.08952      2734.5954     -2820.6408      20.020154     -1249.9135     -2227.1441     -3080.3085     -369.7357       63866.167      39.972099      39.972099      39.972099      1.3330222     -644.51419     -1223.3305     -687.39486    
    186500   186500         308.43936     -161.09097     -2142.3286     -1993.2089      3780.8757     -5774.0846      960.69057      2695.3577     -2829.2315      20.020855     -1310.0678     -2228.448      -3082.4064     -372.02681      63472.849      39.889874      39.889874      39.889874      1.3412825     -495.03553      1268.0728     -1256.3102    
    187000   187000         310.43116      54.042365     -1900.794      -1951.0179      3805.2914     -5756.3094      974.68551      2666.8244     -2838.9614      19.411887     -1261.7428     -2234.4619     -3082.0652     -370.56287      63723.604      39.942334      39.942334      39.942334      1.3360045     -467.19278     -140.70903      770.02891    
    187500   187500         315.26063     -752.55242     -2471.01       -1768.0509      3864.4915     -5632.5424      1010.6031      2733.3599     -2817.3234      19.649323     -1270.2551     -2227.1767     -3081.3995     -368.67594      64049.75       40.010362      40.010362      40.010362      1.3292014     -724.99352     -1022.5119     -510.1518     
    188000   188000         310.04616      604.69674     -1300.5605     -1860.2864      3800.572      -5660.8584      917.76722      2732.9051     -2808.3017      18.854965     -1210.4648     -2231.5132     -3080.106      -372.04918      63469.032      39.889074      39.889074      39.889074      1.3413631      1074.9236      772.77653     -33.609904    
    188500   188500         307.49402      1439.2687     -635.86872     -1962.3544      3769.2877     -5731.642       924.03143      2664.8627     -2791.5697      18.161615     -1227.3036     -2237.7825     -3082.042      -373.66073      63195.299      39.831646      39.831646      39.831646      1.3471733      1490.2445      913.3121       1914.2496    
    189000   189000         307.08821      933.23077     -1082.8718     -1948.3297      3764.3132     -5712.6429      943.97566      2662.2832     -2808.155       19.128586     -1218.4753     -2230.9857     -3080.4144     -371.3481       63588.858      39.914161      39.914161      39.914161      1.3388355     -166.04053      1871.5283      1094.2045    
    189500   189500         310.49357      79.779532     -1901.5291     -1975.6388      3806.0564     -5781.6953      933.56307      2671.1818     -2819.4977      18.50874      -1263.698      -2236.5937     -3085.1595     -370.72712      63695.372      39.936435      39.936435      39.936435      1.3365966     -77.086568     -263.6087       580.03387    
    190000   190000         310.84721     -124.77105     -2008.3999     -1892.1991      3810.3914     -5702.5905      969.45797      2712.046      -2824.0543      20.545606     -1278.0732     -2220.0342     -3082.4784     -369.77924      63858.646      39.970529      39.970529      39.970529      1.3331792      291.92213     -1087.0121      420.77686    
    190500   190500         316.12926     -857.07726     -2695.5321     -1901.1423      3875.1392     -5776.2814      969.47068      2660.9447     -2839.1649      20.207416     -1274.7331     -2229.2014     -3083.8049     -371.5561       63553.26       39.906712      39.906712      39.906712      1.3395854     -419.69765     -1644.974      -506.56008    
    191000   191000         305.76092     -479.26306     -2422.9818     -1978.9318      3748.0432     -5726.975       987.6282       2702.729      -2822.8369      20.977764     -1311.522      -2220.2322     -3083.7189     -371.68945      63530.46       39.901939      39.901939      39.901939      1.3400662     -381.34023     -406.09063     -650.35832    
    191500   191500         303.79249     -680.85439     -2718.1129     -2089.4327      3723.914      -5813.3468      969.96479      2648.9161     -2818.4577      19.17462      -1320.6679     -2226.5664     -3085.7103     -372.9603       63313.981      39.856566      39.856566      39.856566      1.344648      -106.18306     -1395.0333     -541.34678    
    192000   192000         309.2433      -376.34557     -2280.1478     -1933.2596      3790.7306     -5723.9901      956.41662      2739.0405     -2839.7135      20.293593     -1294.0553     -2220.5776     -3085.3944     -373.62455      63201.418      39.832932      39.832932      39.832932      1.3470429      449.98222     -480.13838     -1098.8806    
    192500   192500         306.58116      217.85708     -1687.9136     -1890.7678      3758.0978     -5648.8656      973.92719      2781.6724     -2851.3858      20.791258     -1271.51       -2218.1952     -3084.1655     -369.85018      63846.398      39.967974      39.967974      39.967974      1.333435      -887.38065      296.26496      1244.6869    
    193000   193000         310.96038      603.34703     -1282.3276     -1838.3532      3811.7786     -5650.1319      1016.1337      2699.0129     -2827.1898      20.86727      -1246.6303     -2227.7762     -3084.5496     -373.68911      63190.499      39.830638      39.830638      39.830638      1.3472756     -660.57938      486.10384      1984.5166    
    193500   193500         312.77763      305.15727     -1690.6118     -1973.0128      3834.0546     -5807.0674      924.92296      2633.5329     -2820.6834      19.132723     -1242.2322     -2237.8065     -3083.934      -372.13091      63455.093      39.886154      39.886154      39.886154      1.3416578      633.12746     -324.97509      607.31943    
    194000   194000         310.95932      236.29608     -1770.5079     -1988.9872      3811.7657     -5800.7529      969.47892      2646.0041     -2843.251       18.846003     -1295.9824     -2219.1094     -3076.7391     -372.46393      63398.358      39.874263      39.874263      39.874263      1.3428584      1279.8671     -740.19235      169.21352    
    194500   194500         310.44292     -578.05003     -2558.6098     -2020.7061      3805.4355     -5826.1416      944.50839      2669.7674     -2803.4551      19.842838     -1343.4669     -2227.6216     -3085.7165     -370.08289      63806.251      39.959595      39.959595      39.959595      1.334274      -899.76659     -280.04846     -554.33505    
    195000   195000         311.14865      759.03549     -1205.4879     -1906.2423      3814.0864     -5720.3287      958.31171      2701.3034     -2825.1266      19.604678     -1278.2589     -2218.8772     -3077.2859     -373.02193      63303.522      39.854371      39.854371      39.854371      1.3448702      1636.3134      519.12165      121.6714     
    195500   195500         311.47449      52.126632     -1825.0491     -1873.5566      3818.0807     -5691.6373      934.82202      2744.7081     -2823.3877      20.486779     -1265.9268     -2225.2074     -3077.1323     -370.07393      63807.796      39.959917      39.959917      39.959917      1.3342417      109.43966      922.9088      -875.96856    
    196000   196000         310.10774      594.51822     -1417.0701     -1965.1017      3801.3269     -5766.4286      958.23996      2656.5037     -2826.6511      19.331808     -1254.8129     -2235.9989     -3083.0411     -373.59208      63206.912      39.834086      39.834086      39.834086      1.3469258      668.92898     -342.21656      1456.8422    
    196500   196500         303.16453     -268.66403     -2180.3173     -1930.7283      3716.2164     -5646.9448      1003.1487      2743.1792     -2824.9248      21.678029     -1284.9139     -2226.594      -3078.518      -370.69969      63700.085      39.93742       39.93742       39.93742       1.3364977     -649.47627     -203.79339      47.277576    
    197000   197000         308.9619      -579.34272     -2440.0852     -1907.0004      3787.2811     -5694.2816      951.78082      2759.7648     -2812.3265      19.698071     -1311.525      -2223.8032     -3077.8706     -374.26346      63093.527      39.810253      39.810253      39.810253      1.3493463     -291.10909     -433.85775     -1013.0613    
    197500   197500         311.33559     -355.35492     -2183.6996     -1853.7419      3816.378      -5670.12        1005.4454      2706.2918     -2830.9793      20.001775     -1260.3033     -2229.0503     -3081.526      -370.88752      63667.824      39.930677      39.930677      39.930677      1.3371749      475.72376     -1653.6559      111.86743    
    198000   198000         315.68359      364.68544     -1623.2931     -1960.0354      3869.6762     -5829.7116      921.89941      2653.0442     -2823.923       18.443118     -1298.0752     -2218.825      -3082.2751     -372.95711      63314.523      39.856679      39.856679      39.856679      1.3446365     -210.22321     -35.907959      1340.1875    
    198500   198500         308.02863      347.05411     -1685.8498     -2008.8262      3775.841      -5784.6672      1003.7321      2637.7543     -2841.6683      20.702775     -1294.5108     -2231.8947     -3078.7826     -370.0535       63811.318      39.960652      39.960652      39.960652      1.334168      -376.92912      1494.1189     -76.027481    
    199000   199000         310.33295     -149.53581     -2066.593      -1927.9261      3804.0875     -5732.0136      993.21726      2659.7506     -2811.5397      18.773781     -1296.2278     -2218.8676     -3077.1202     -371.37323      63584.555      39.913261      39.913261      39.913261      1.3389261     -284.95971      789.40505     -953.05277    
    199500   199500         314.76001      515.91903     -1449.0924     -1924.062       3858.3548     -5782.4168      983.82297      2602.9548     -2832.0089      18.868195     -1249.5412     -2229.3877     -3077.125      -374.07084      63126.016      39.817085      39.817085      39.817085      1.3486519      175.28547      507.9013       864.57031    
    200000   200000         313.28579      401.55574     -1453.5952     -1828.0106      3840.2837     -5668.2943      973.74287      2698.0921     -2828.2566      19.662385     -1222.5881     -2229.2263     -3079.7206     -369.34332      63934.016      39.986249      39.986249      39.986249      1.3316076      1089.1839     -1039.9226      1155.4059    
Loop time of 594.711 on 1 procs for 200000 steps with 4940 atoms

Performance: 29.056 ns/day, 0.826 hours/ns, 336.298 timesteps/s, 1.661 Matom-step/s
100.0% CPU use with 1 MPI tasks x 1 OpenMP threads

MPI task timing breakdown:
Section |  min time  |  avg time  |  max time  |%varavg| %total
---------------------------------------------------------------
Pair    | 221.42     | 221.42     | 221.42     |   0.0 | 37.23
Bond    | 72.042     | 72.042     | 72.042     |   0.0 | 12.11
Kspace  | 155.32     | 155.32     | 155.32     |   0.0 | 26.12
Neigh   | 29.523     | 29.523     | 29.523     |   0.0 |  4.96
Comm    | 4.1607     | 4.1607     | 4.1607     |   0.0 |  0.70
Output  | 0.043016   | 0.043016   | 0.043016   |   0.0 |  0.01
Modify  | 95.466     | 95.466     | 95.466     |   0.0 | 16.05
Other   |            | 16.74      |            |       |  2.81

Nlocal:           4940 ave        4940 max        4940 min
Histogram: 1 0 0 0 0 0 0 0 0 0
Nghost:          14417 ave       14417 max       14417 min
Histogram: 1 0 0 0 0 0 0 0 0 0
Neighs:              0 ave           0 max           0 min
Histogram: 1 0 0 0 0 0 0 0 0 0
FullNghs:  2.41926e+06 ave 2.41926e+06 max 2.41926e+06 min
Histogram: 1 0 0 0 0 0 0 0 0 0

Total # of neighbors = 2419258
Ave neighs/atom = 489.72834
Ave special neighs/atom = 5.9797571
Neighbor list builds = 4904
Dangerous builds = 0
WARNING: No fixes with time integration, atoms won't move
For more information see https://docs.lammps.org/err0028 (src/verlet.cpp:60)
PPPM Kokkos initialization ...
  using 12-bit tables for long-range coulomb
  G vector (1/distance) = 0.29606284
  grid = 27 27 27
  stencil order = 5
  estimated absolute RMS force accuracy = 0.00035966396
  estimated relative force accuracy = 1.0831173e-06
  using double precision cuFFT
  3d grid and FFT values/proc = 39304 19683
Generated 6 of 6 mixed pair_coeff terms from sixthpower/sixthpower mixing rule
Setting up Verlet run ...
  Unit style    : real
  Current step  : 200000
  Time step     : 1
Per MPI rank memory allocation (min/avg/max) = 29.29 | 29.29 | 29.29 Mbytes
   Step          Time           Temp          Press         Enthalpy        TotEng         KinEng         PotEng         E_bond        E_angle        E_dihed        E_impro         E_vdwl         E_coul         E_long         E_tail         Volume           Lx             Ly             Lz          Density          Pxx            Pyy            Pzz      
    200000   200000         260.84948      3237.1928      1190.3867     -1828.0108      3840.2837     -5668.2945      973.74287      2698.0921     -2828.2566      19.662385     -1222.5881     -2228.3584     -3080.5887     -369.34332      63934.016      39.986249      39.986249      39.986249      1.3316076      4026.4639      1729.4993      3955.615     
Loop time of 4.7746e-05 on 1 procs for 0 steps with 4940 atoms

100.5% CPU use with 1 MPI tasks x 1 OpenMP threads

MPI task timing breakdown:
Section |  min time  |  avg time  |  max time  |%varavg| %total
---------------------------------------------------------------
Pair    | 0          | 0          | 0          |   0.0 |  0.00
Bond    | 0          | 0          | 0          |   0.0 |  0.00
Kspace  | 0          | 0          | 0          |   0.0 |  0.00
Neigh   | 0          | 0          | 0          |   0.0 |  0.00
Comm    | 0          | 0          | 0          |   0.0 |  0.00
Output  | 0          | 0          | 0          |   0.0 |  0.00
Modify  | 0          | 0          | 0          |   0.0 |  0.00
Other   |            | 4.775e-05  |            |       |100.00

Nlocal:           4940 ave        4940 max        4940 min
Histogram: 1 0 0 0 0 0 0 0 0 0
Nghost:          14423 ave       14423 max       14423 min
Histogram: 1 0 0 0 0 0 0 0 0 0
Neighs:              0 ave           0 max           0 min
Histogram: 1 0 0 0 0 0 0 0 0 0
FullNghs:  2.41916e+06 ave 2.41916e+06 max 2.41916e+06 min
Histogram: 1 0 0 0 0 0 0 0 0 0

Total # of neighbors = 2419164
Ave neighs/atom = 489.70931
Ave special neighs/atom = 5.9797571
Neighbor list builds = 0
Dangerous builds = 0
System init for write_data ...
PPPM Kokkos initialization ...
  using 12-bit tables for long-range coulomb
  G vector (1/distance) = 0.29606284
  grid = 27 27 27
  stencil order = 5
  estimated absolute RMS force accuracy = 0.00035966396
  estimated relative force accuracy = 1.0831173e-06
  using double precision cuFFT
  3d grid and FFT values/proc = 39304 19683
Generated 6 of 6 mixed pair_coeff terms from sixthpower/sixthpower mixing rule
STAGE COMPLETE: Tg step T=311.0K P=1.0atm steps=200000
