LAMMPS (22 Jul 2025 - Update 3)
KOKKOS mode with Kokkos version 4.6.2 is enabled
  will use up to 1 GPU(s) per node
  using 1 OpenMP thread(s) per MPI task
Reading data file ...
  orthogonal box = (3.660828 3.660828 3.660828) to (47.861229 47.861229 47.861229)
  1 by 1 by 1 MPI processor grid
  reading atoms ...
  8000 atoms
  reading velocities ...
  8000 velocities
  scanning bonds ...
  4 = max bonds/atom
  scanning angles ...
  10 = max angles/atom
  scanning dihedrals ...
  16 = max dihedrals/atom
  scanning impropers ...
  7 = max impropers/atom
  orthogonal box = (3.660828 3.660828 3.660828) to (47.861229 47.861229 47.861229)
  1 by 1 by 1 MPI processor grid
  reading bonds ...
  7990 bonds
  reading angles ...
  14820 angles
  reading dihedrals ...
  17070 dihedrals
  reading impropers ...
  9120 impropers
Finding 1-2 1-3 1-4 neighbors ...
  special bond factors lj:    0        0        1       
  special bond factors coul:  0        0        1       
     4 = max # of 1-2 neighbors
     6 = max # of 1-3 neighbors
     8 = max # of special neighbors
  special bonds CPU = 0.004 seconds
  read_data CPU = 0.230 seconds
PPPM Kokkos initialization ...
  using 12-bit tables for long-range coulomb
  G vector (1/distance) = 0.31179048
  grid = 36 36 36
  stencil order = 5
  estimated absolute RMS force accuracy = 0.00025145831
  estimated relative force accuracy = 7.5725923e-07
  using double precision cuFFT
  3d grid and FFT values/proc = 79507 46656
Generated 15 of 15 mixed pair_coeff terms from sixthpower/sixthpower mixing rule
Neighbor list info ...
  update: every = 1 steps, delay = 0 steps, check = yes
  max neighbors/atom: 4000, page size: 100000
  master list distance cutoff = 11.5
  ghost atom cutoff = 11.5
  binsize = 11.5, bins = 4 4 4
  1 neighbor lists, perpetual/occasional/extra = 1 0 0
  (1) pair lj/class2/coul/long/kk, perpetual
      attributes: full, newton off, kokkos_device
      pair build: full/bin/kk/device
      stencil: full/bin/3d
      bin: kk/device
Setting up Verlet run ...
  Unit style    : real
  Current step  : 0
  Time step     : 1
Per MPI rank memory allocation (min/avg/max) = 36.91 | 36.91 | 36.91 Mbytes
   Step          Time           Temp          Press         Enthalpy        TotEng         KinEng         PotEng         E_bond        E_angle        E_dihed        E_impro         E_vdwl         E_coul         E_long         E_tail         Volume           Lx             Ly             Lz          Density          Pxx            Pyy            Pzz      
         0   0              500.38558     -671.52509      19868.623      20714.324      11930.943      8783.3806      4278.3783      8253.4238     -6178.7471     -95.549824     -2544.7909      12964.739     -7894.0731     -338.90059      86353.239      44.200401      44.200401      44.200401      0.96611935    -862.51329     -600.36461     -551.69738    
      1000   1000           501.82682      1001.6532      22234.962      20964.702      11965.308      8999.3942      4443.1219      8349.5618     -6274.1375     -93.570399     -2481.5009      12961.643     -7905.7239     -336.55143      86955.992      44.303004      44.303004      44.303004      0.9594225     -169.40982      846.17337      2328.196     
      2000   2000           500.50425     -219.6745       20795.367      21074.103      11933.773      9140.3304      4495.922       8390.0678     -6248.129      -88.642812     -2502.1115      12984.879     -7891.6553     -336.36648      87003.805      44.311122      44.311122      44.311122      0.95889526     497.90272      110.70008     -1267.6263    
      3000   3000           499.41385     -157.81607      20780.611      20981.195      11907.774      9073.421       4414.0131      8506.4211     -6364.4797     -97.242859     -2496.1382      13002.03      -7891.1828     -335.80151      87150.186      44.335959      44.335959      44.335959      0.95728466    -508.98342      567.20717     -531.67195    
      4000   4000           507.23481     -615.05485      20142.36       20917.17       12094.253      8822.9167      4335.5581      8419.2266     -6347.6052     -89.413765     -2565.983       12967.853     -7896.7194     -338.80158      86378.475      44.204706      44.204706      44.204706      0.9658371     -1662.5054      485.69257     -668.35172    
      5000   5000           484.72482     -512.84889      19665.95       20309.977      11557.536      8752.4411      4396.8567      8268.234      -6376.1983     -96.552448     -2478.6404      12950.633     -7911.8917     -339.86914      86107.152      44.158374      44.158374      44.158374      0.96888044    -157.54624     -1541.4409      160.44051    
      6000   6000           505.01687     -1175.2794      19596.613      21070.111      12041.37       9028.7412      4480.5985      8402.9724     -6222.3335     -93.225607     -2567.2792      12940.27      -7912.2613     -340.4228       85967.107      44.134421      44.134421      44.134421      0.9704588     -1204.9371     -1180.3364     -1140.5648    
      7000   7000           500.1013       2253.3424      23635.797      20815.374      11924.165      8891.2091      4366.0571      8409.6548     -6208.3694     -95.3334       -2616.7773      12946.967     -7910.9892     -340.98857      85824.472      44.109999      44.109999      44.109999      0.97207164     2403.6142      559.2804       3797.1326    
      8000   8000           488.32289      38.627694      20748.036      20699.272      11643.327      9055.9453      4521.1439      8353.2698     -6245.2754     -99.06568      -2522.3251      12959.495     -7911.2972     -338.08346      86561.951      44.235983      44.235983      44.235983      0.96378992    -836.66964      1121.5964     -169.04366    
      9000   9000           501.21673     -534.94977      20352.318      21019.943      11950.761      9069.1818      4448.4289      8366.8304     -6209.0154     -93.282776     -2494.6169      12949.148     -7898.3105     -341.98553      85574.275      44.067094      44.067094      44.067094      0.97491373    -1784.3464     -709.50778      889.00489    
     10000   10000          507.48925      771.75027      22242.335      21268.303      12100.32       9167.9835      4446.5456      8630.434      -6335.9835     -95.807039     -2523.5302      12954.366     -7908.0413     -338.1663       86540.744      44.23237       44.23237       44.23237       0.96402609     749.72144      175.65285      1389.8765    
     11000   11000          497.86334      802.43796      21930.502      20919.896      11870.804      9049.0917      4359.2883      8464.9587     -6255.4543     -92.266559     -2501.6764      12974.506     -7900.2638     -338.88829      86356.374      44.200936      44.200936      44.200936      0.96608428    -1092.0807      2537.1498      962.24479    
     12000   12000          501.02179      21.682029      21086.023      21058.396      11946.113      9112.2829      4364.6564      8493.2336     -6267.9659     -98.311615     -2459.4331      12972.631     -7892.5274     -334.9614       87368.763      44.372994      44.372994      44.372994      0.95488974    -739.82603     -706.68199      1511.5541    
     13000   13000          495.9606      -495.21546      20151.519      20783.876      11825.436      8958.4398      4396.8663      8377.6049     -6327.2867     -91.593382     -2492.8836      12985.49      -7889.7579     -334.24028      87557.262      44.404882      44.404882      44.404882      0.952834      -929.10003     -411.21197     -145.33437    
     14000   14000          491.50897     -897.00816      19469.146      20609.691      11719.294      8890.3973      4434.5461      8419.1346     -6347.4797     -90.786701     -2566.346       12945.403     -7904.0737     -335.66874      87184.655      44.341803      44.341803      44.341803      0.95690618    -187.14629     -862.8146      -1641.0636    
     15000   15000          500.46892     -933.78819      19877.732      21073.141      11932.931      9140.2102      4519.4892      8384.3314     -6193.0139     -96.902992     -2529.8303      12961.269     -7905.1319     -333.39486      87779.288      44.442384      44.442384      44.442384      0.95042392    -191.46307     -1398.724      -1211.1775    
     16000   16000          495.14998      562.9895       21548.096      20838.013      11806.108      9031.9043      4413.1633      8443.3888     -6224.8751     -92.904517     -2486.5766      12916.109     -7936.401      -338.39018      86483.49       44.222613      44.222613      44.222613      0.9646643      707.87501      87.391409      893.70209    
     17000   17000          501.30249     -283.29334      20492.222      20854.024      11952.806      8901.2185      4515.4817      8206.8238     -6228.9267     -95.752302     -2551.8838      12959.838     -7904.3627     -334.18905      87570.683      44.407151      44.407151      44.407151      0.95268796    -950.38703     -566.77042      667.27743    
     18000   18000          500.01215     -719.58149      20109.719      21020.207      11922.039      9098.1675      4484.5447      8499.6997     -6303.9231     -92.061912     -2530.1959      12939.611     -7899.5069     -337.31271      86759.742      44.26965       44.26965       44.26965       0.96159271    -2073.4694     -538.60784      453.3328     
     19000   19000          506.87919     -277.63339      20823.451      21176.941      12085.774      9091.1676      4507.3922      8271.0913     -6162.2711     -92.605047     -2501.6271      12966.495     -7897.3078     -335.21304      87303.179      44.361888      44.361888      44.361888      0.95560708     444.36439     -375.75368     -901.51086    
     20000   20000          495.99248     -422.17268      20334.1        20873.545      11826.197      9047.3482      4482.4645      8434.3681     -6378.0003     -94.174012     -2498.4712      12991.445     -7890.2836     -334.01804      87615.519      44.414729      44.414729      44.414729      0.95220044    -1654.0963      1201.6515     -814.07323    
     21000   21000          495.21382      1187.764       22268.592      20769.511      11807.63       8961.8805      4367.4707      8479.497      -6341.6778     -99.827081     -2483.3341      12952.401     -7912.6497     -338.16747      86540.445      44.232319      44.232319      44.232319      0.96402943     2461.4198     -505.69138      1607.5635    
     22000   22000          494.68037      1413.9525      22526.401      20711.379      11794.911      8916.468       4164.9402      8494.8329     -6355.0948     -98.592001     -2402.8531      13009.724     -7896.4891     -332.49102      88017.906      44.482618      44.482618      44.482618      0.94784731     1580.5127      300.6283       2360.7164    
     23000   23000          501.6925       82.988959      21037.857      20933.478      11962.105      8971.3731      4426.4199      8396.4107     -6327.9237     -95.952138     -2504.0035      12980.437     -7904.0148     -339.34083      86241.21       44.181279      44.181279      44.181279      0.96737436     572.21919      1671.2241     -1994.4764    
     24000   24000          498.99155      298.6943       21176.255      20796.77       11897.705      8899.0651      4379.2328      8386.8921     -6353.9737     -95.691424     -2538.1027      13010.003     -7889.2953     -335.93777      87114.834      44.329963      44.329963      44.329963      0.95767312    -289.73808      575.24616      610.57482    
     25000   25000          502.19874     -93.658071      20985.759      21104.325      11974.175      9130.1496      4522.5229      8343.713      -6267.1561     -97.389653     -2475.7046      12999.494     -7895.3297     -337.14172      86803.744      44.277132      44.277132      44.277132      0.96110526    -283.04945     -1141.6894      1143.7647    
     26000   26000          499.70164      311.74969      21250.361      20854.148      11914.636      8939.5126      4422.213       8266.272      -6293.218      -89.074587     -2446.8591      12972.613     -7892.4336     -335.81846      87145.785      44.335213      44.335213      44.335213      0.95733299    -97.935911      640.01923      393.16574    
     27000   27000          500.95442      292.49983      21265.516      20894.469      11944.506      8949.9623      4446.8593      8293.8046     -6266.5644     -102.73023     -2495.0258      12969.769     -7896.1507     -336.45165      86981.78       44.307383      44.307383      44.307383      0.95913805     300.10586     -91.868014      669.26163    
     28000   28000          502.10493     -318.63383      20643.094      21051.541      11971.939      9079.6018      4548.3746      8303.4265     -6245.1835     -98.448289     -2460.1694      12948.516     -7916.9141     -332.9538       87895.57       44.462         44.462         44.462         0.94916656    -2506.2059      1251.785       298.51942    
     29000   29000          501.35926     -22.210203      20737.876      20766.023      11954.159      8811.8634      4388.1878      8263.7886     -6341.289      -88.70624      -2504.0084      12979.683     -7885.7923     -336.78645      86895.312      44.292696      44.292696      44.292696      0.96009248     1561.8692     -722.86113     -905.63867    
     30000   30000          495.60365      1104.6001      22085.371      20683.299      11816.925      8866.3733      4407.976       8324.6362     -6322.9903     -95.161349     -2494.5462      12951.033     -7904.5737     -336.24952      87034.069      44.316259      44.316259      44.316259      0.95856182     568.39404      915.71543      1829.6909    
     31000   31000          501.02787     -541.31276      20356.755      21045.492      11946.258      9099.2341      4428.8143      8435.0534     -6310.8051     -95.143968     -2469.8603      12994.003     -7882.8271     -335.44533      87242.722      44.351645      44.351645      44.351645      0.95626929    -904.01916     -1384.8683      664.94913    
     32000   32000          501.31904     -967.08656      19699.494      20933.477      11953.2        8980.2768      4314.7199      8427.9333     -6242.1715     -92.429347     -2483.0148      12951.317     -7896.0779     -334.48994      87491.91       44.393832      44.393832      44.393832      0.95354571    -584.33502     -956.30882     -1360.6158    
     33000   33000          498.91457      1222.6088      22446.121      20906.273      11895.869      9010.4036      4422.4978      8294.708      -6230.0547     -92.194787     -2456.9171      12964.329     -7891.9645     -338.87258      86360.376      44.201619      44.201619      44.201619      0.96603951     658.06892      1468.6431      1541.1145    
     34000   34000          504.41311      1235.4902      22609.022      21048.154      12026.974      9021.1802      4510.3403      8457.0958     -6411.6209     -98.011637     -2527.5725      12984.82      -7893.8712     -337.83128      86626.565      44.246987      44.246987      44.246987      0.96307103     1429.7187      1244.4905      1032.2613    
     35000   35000          489.37147     -684.88402      19861.414      20739.485      11668.329      9071.1563      4536.1073      8185.8765     -6238.0858     -91.826975     -2385.4643      12963.313     -7898.763      -332.90037      87909.677      44.464379      44.464379      44.464379      0.94901424    -1290.075      -2022.9825      1258.4054    
     36000   36000          504.1221      -528.34795      20333.653      20999.525      12020.035      8979.4902      4478.7573      8321.6577     -6244.9615     -97.150652     -2542.3905      12968.075     -7904.4975     -338.65376      86416.179      44.211137      44.211137      44.211137      0.9654157     -1832.1913      1005.7784     -758.63095    
     37000   37000          494.88641      611.95957      21570.882      20790.921      11799.824      8991.0974      4386.0334      8253.6393     -6150.3405     -91.361857     -2497.9509      12986.011     -7894.9328     -334.8707       87392.428      44.377         44.377         44.377         0.95463117     474.09557      1532.9839     -171.20081    
     38000   38000          498.94264     -754.68087      19984.869      20952.51       11896.539      9055.9717      4493.6553      8329.0315     -6392.7263     -95.466571     -2376.7031      12979.272     -7881.0911     -332.87069      87917.514      44.4657        44.4657        44.4657        0.94892965    -19.040773     -1685.2876     -559.71426    
     39000   39000          495.47831      68.017962      20765.586      20678.959      11813.937      8865.0217      4358.0595      8193.5429     -6228.7137     -86.103274     -2389.9007      12922.671     -7904.5341     -335.11551      87328.585      44.366191      44.366191      44.366191      0.95532906    -430.02441     -884.12728      1518.2056    
     40000   40000          498.77853     -802.79868      19725.875      20742.547      11892.626      8849.9212      4315.027       8387.1616     -6267.611      -98.001719     -2547.1706      12962.32      -7901.8043     -337.01761      86835.711      44.282567      44.282567      44.282567      0.96075145    -1105.1124     -1786.6517      483.36807    
     41000   41000          497.42344     -771.12867      19690.258      20668.842      11860.316      8808.5267      4477.6713      8218.3165     -6233.5559     -89.009276     -2576.7482      12928.986     -7917.1342     -336.32223      87015.252      44.313065      44.313065      44.313065      0.95876911    -450.997       -1585.5564     -276.83261    
     42000   42000          496.49422      1058.9719      22123.69       20779.981      11838.16       8941.8215      4433.3127      8409.5416     -6315.7084     -89.748856     -2505.2237      12913.827     -7904.1789     -336.36131      87005.141      44.311349      44.311349      44.311349      0.95888052     1880.0799     -61.905382      1358.7413    
     43000   43000          499.55575     -1427.6882      19084.64       20898.953      11911.157      8987.796       4468.8378      8419.2112     -6344.6641     -93.028744     -2504.6822      12937.654     -7895.5322     -335.85207      87137.065      44.333734      44.333734      44.333734      0.95742879    -955.88281     -1473.5817     -1853.6002    
     44000   44000          499.32772     -411.91983      20138.654      20656.864      11905.72       8751.1435      4352.8761      8310.5435     -6300.1132     -100.67837     -2565.1881      12944.508     -7890.8043     -339.26094      86261.519      44.184746      44.184746      44.184746      0.96714661     413.43829     -1612.7265     -36.471233    
     45000   45000          497.21126      1070.3819      22114.193      20764.394      11855.257      8909.1378      4429.6919      8289.4897     -6212.9709     -92.621102     -2559.5988      12953.951     -7898.804      -338.45161      86467.792      44.219937      44.219937      44.219937      0.96483943     1992.8045     -240.83029      1459.1714    
     46000   46000          486.60266      496.0523       21249.389      20616.011      11602.31       9013.7003      4611.1132      8176.0778     -6273.6918     -95.01023      -2463.1274      12949.853     -7891.5141     -334.26498      87550.793      44.403789      44.403789      44.403789      0.9529044      336.62495      1133.941       17.590915    
     47000   47000          494.26423     -373.0168       20181.028      20644.418      11784.989      8859.4291      4407.3324      8251.4865     -6273.7987     -92.778279     -2491.5011      12962.501     -7903.8122     -343.56498      85180.869      43.999461      43.999461      43.999461      0.97941635    -502.29521     -923.67264      306.91747    
     48000   48000          496.98076     -114.27781      20741.047      20885.461      11849.761      9035.7002      4449.1727      8402.8874     -6262.0787     -99.438609     -2572.0746      13012.857     -7895.6251     -337.73755      86650.606      44.251079      44.251079      44.251079      0.96280383     156.44973     -182.92603     -316.35713    
     49000   49000          490.21991     -1222.4135      19097.215      20655.598      11688.558      8967.0397      4411.5755      8475.6153     -6420.31       -94.017865     -2554.8335      13032.847     -7883.8368     -334.78872      87413.828      44.380622      44.380622      44.380622      0.95439746    -1605.4704     -750.07573     -1311.6943    
     50000   50000          492.33964     -351.43622      19817.441      20256.839      11739.1        8517.7391      4317.4381      8158.4141     -6357.2785     -93.674138     -2590.6531      12984.415     -7900.9223     -341.36206      85730.569      44.093906      44.093906      44.093906      0.97313638    -851.7266       437.8831      -640.46516    
     51000   51000          500.53747      586.54143      21256.822      20526.87       11934.565      8592.3048      4402.0932      7999.7685     -6295.8117     -86.758622     -2544.83        13022.592     -7904.7482     -342.95009      85333.594      44.025742      44.025742      44.025742      0.97766344     2432.399      -1067.8369      395.06218    
     52000   52000          487.96243     -234.65844      20311.855      20604.564      11634.732      8969.8324      4504.1374      8374.7407     -6244.941      -94.542185     -2617.0076      12937.057     -7889.6123     -342.1573       85531.314      44.059718      44.059718      44.059718      0.97540341    -233.53392      728.36278     -1198.8042    
     53000   53000          493.20046     -164.53442      20320.437      20526.264      11759.625      8766.6395      4369.4218      8272.7444     -6228.2337     -100.76743     -2619.6793      12967.445     -7894.2908     -341.178        85776.82       44.101834      44.101834      44.101834      0.97261166     682.23546      321.91247     -1497.7512    
     54000   54000          483.36065      1011.525       21586.967      20307.924      11525.01       8782.9148      4354.9091      8321.8164     -6319.4529     -94.414744     -2520.8189      12939.801     -7898.9247     -337.53469      86702.684      44.259943      44.259943      44.259943      0.96222552     282.44099      1690.9968      1061.1374    
     55000   55000          497.01138     -5.5016397      20717.062      20723.915      11850.491      8873.4238      4478.3086      8453.1587     -6366.1238     -92.068584     -2645.9981      12946.256     -7900.1087     -342.6811       85400.576      44.037258      44.037258      44.037258      0.97689664     1371.9261     -1061.6801     -326.75086    
     56000   56000          489.32163      245.58173      20833.069      20522.789      11667.14       8855.6487      4527.507       8243.1988     -6351.9185     -97.550917     -2529.0053      12949.504     -7886.086      -337.80728      86632.721      44.248035      44.248035      44.248035      0.9630026      898.76979      55.644942     -217.66954    
     57000   57000          499.14684      137.99054      20903.453      20730.292      11901.408      8828.8848      4415.0443      8205.8296     -6216.4302     -91.739971     -2551.1726      12964.495     -7897.1411     -340.11705      86044.389      44.147643      44.147643      44.147643      0.96958717    -529.80964     -1229.7841      2173.5654    
     58000   58000          502.30024     -383.86183      20571.042      21059.961      11976.595      9083.3659      4520.7275      8471.1857     -6319.9923     -96.3143       -2556.8167      12965.991     -7901.4153     -335.09264      87334.546      44.3672        44.3672        44.3672        0.95526386    -1839.5879      974.4106      -286.40815    
     59000   59000          494.50894     -313.09731      20409.043      20804.696      11790.824      9013.8722      4394.4035      8291.6501     -6208.3563     -94.569491     -2443.9435      12974.901     -7900.2133     -337.74701      86648.18       44.250666      44.250666      44.250666      0.96283079    -771.55974     -412.85323      245.12103    
     60000   60000          489.32551      309.49622      20830.247      20446.234      11667.232      8779.0013      4370.9727      8272.8402     -6320.2016     -92.234807     -2524.4633      12971.601     -7899.5129     -343.98243      85077.496      43.981655      43.981655      43.981655      0.98060638     261.11269      786.10449     -118.72851    
     61000   61000          490.38031     -1319.3502      18898.807      20571.351      11692.383      8878.9683      4452.5628      8416.1344     -6385.1644     -100.44237     -2619.534       13002.72      -7887.308      -336.67376      86924.396      44.297637      44.297637      44.297637      0.95977124    -1487.7244     -1183.7345     -1286.5917    
     62000   62000          490.74993     -854.57948      19388.566      20466.527      11701.196      8765.3314      4392.8388      8241.6265     -6196.3009     -91.98949      -2579.9938      12914.09      -7914.9394     -338.35795      86491.727      44.224017      44.224017      44.224017      0.96457243     689.46639     -1182.4304     -2070.7745    
     63000   63000          488.56976     -605.05149      19966.742      20731.742      11649.213      9082.5291      4448.2917      8432.7665     -6265.9822     -92.34302      -2485.0122      12939.215     -7894.4065     -337.56545      86694.784      44.258598      44.258598      44.258598      0.96231321    -2454.6332      861.94351     -222.46481    
     64000   64000          484.71248     -85.144731      20289.046      20395.669      11557.242      8838.4273      4392.6733      8325.2087     -6293.5339     -90.509506     -2570.8901      12964.737     -7889.2581     -340.82632      85865.328      44.116997      44.116997      44.116997      0.97160911    -411.7911      -602.69275      759.04965    
     65000   65000          491.34522     -594.07323      19833.125      20580.454      11715.39       8865.0642      4441.1175      8274.5488     -6314.5689     -97.343182     -2547.399       12994.772     -7886.0627     -339.27779      86257.234      44.184015      44.184015      44.184015      0.96719466    -1183.7771     -999.95614      401.51356    
     66000   66000          485.80598      1128.156       21811.439      20380.068      11583.315      8796.753       4287.565       8270.7721     -6226.241      -94.369078     -2504.4434      12960.347     -7896.8772     -336.39044      86997.608      44.31007       44.31007       44.31007       0.95896356     1514.5858      943.98345      925.89869    
     67000   67000          497.4225      -208.70307      20261.464      20524.285      11860.293      8663.9923      4350.4324      8392.1412     -6479.4433     -98.574619     -2578.0073      12975.131     -7897.6866     -338.91766      86348.89       44.199659      44.199659      44.199659      0.96616801    -1128.3642     -90.616176      592.87117    
     68000   68000          498.23091     -295.7019       20358.203      20731.527      11879.569      8851.9587      4367.0621      8350.9964     -6340.8639     -97.277761     -2522.7818      12988.384     -7893.5602     -338.06089      86567.729      44.236967      44.236967      44.236967      0.96372558    -713.65771      145.021       -318.469      
     69000   69000          500.78117     -840.59185      19771.68       20835.64       11940.376      8895.2644      4432.1603      8397.5987     -6377.6862     -101.52255     -2576.183       13006.678     -7885.7811     -337.19923      86788.94       44.274615      44.274615      44.274615      0.96126921     61.230739     -1486.5049     -1096.5013    
     70000   70000          490.38517      788.01479      21481.055      20498.72       11692.499      8806.2214      4325.406       8367.3014     -6286.1354     -94.020594     -2573.344       12966.783     -7899.769      -342.37454      85477.044      44.050397      44.050397      44.050397      0.9760227      982.29163      1209.8026      171.95015    
     71000   71000          496.11283      544.75584      21537.233      20845.748      11829.066      9016.682       4423.0372      8406.5485     -6297.855      -96.904725     -2516.7231      12982.728     -7884.1488     -336.23739      87037.209      44.316792      44.316792      44.316792      0.95852724    -589.80375      2316.1341     -92.062832    
     72000   72000          489.44416     -1870.0586      18132.22       20473.715      11670.062      8803.6534      4495.8915      8235.7872     -6248.041      -92.284325     -2628.9462      12941.147     -7899.9008     -340.8701       85854.299      44.115108      44.115108      44.115108      0.97173393    -1751.6156     -2402.7059     -1455.8543    
     73000   73000          489.15046     -177.39228      20423.834      20649.004      11663.059      8985.9453      4370.3493      8402.7306     -6258.2221     -92.412789     -2478.1264      12942.873     -7901.2468     -336.24179      87036.069      44.316599      44.316599      44.316599      0.95853979    -845.87986      305.74531      7.9576979    
     74000   74000          497.32097      147.00922      20727.523      20539.348      11857.872      8681.4754      4275.1234      8195.0647     -6248.7243     -100.67475     -2478.9976      12948.714     -7909.0299     -333.43338      87769.147      44.440673      44.440673      44.440673      0.95053374    -386.1748       695.18145      132.02102    
     75000   75000          492.7221      -406.69589      20060.989      20572.878      11748.219      8824.6588      4357.5835      8323.9478     -6258.6816     -88.866079     -2592.4377      12987.683     -7904.5703     -339.09443      86303.876      44.191977      44.191977      44.191977      0.96667194     551.1541      -2420.7274      649.48561    
     76000   76000          491.75061     -1010.7102      19358.858      20625.379      11725.055      8900.3235      4423.3399      8365.0831     -6271.0271     -92.860679     -2565.5629      12942.646     -7901.2947     -340.59723      85923.081      44.126886      44.126886      44.126886      0.97095605    -855.11984     -430.69287     -1746.318     
     77000   77000          488.80077     -619.25639      19618.931      20404.04       11654.721      8749.319       4322.2357      8293.9803     -6261.0359     -94.27208      -2584.3056      12978.168     -7905.4519     -336.64125      86932.79       44.299063      44.299063      44.299063      0.95967857     834.76957     -1507.0538     -1185.4849    
     78000   78000          497.52544      120.03464      20674.119      20523.895      11862.748      8661.1471      4274.2608      8291.4538     -6301.6227     -92.775892     -2581.1026      12974.39      -7903.4562     -341.03067      85813.875      44.108183      44.108183      44.108183      0.97219168    -1323.3476      909.10209      774.34947    
     79000   79000          497.47071     -389.72183      20079.461      20567.361      11861.443      8705.9182      4295.3706      8246.701      -6252.9852     -90.599133     -2561.4063      12955.187     -7886.3497     -340.91874      85842.051      44.11301       44.11301       44.11301       0.97187258    -24.53733       1052.7042     -2197.3324    
     80000   80000          486.51496     -496.37182      19759.542      20380.167      11600.219      8779.9478      4318.6976      8224.3587     -6233.6059     -98.277949     -2517.6866      12975.651     -7889.1893     -341.35368      85732.673      44.094266      44.094266      44.094266      0.9731125     -1178.7481     -497.18873      186.82133    
     81000   81000          495.8383       726.57652      21515.578      20594.989      11822.52       8772.4689      4297.3035      8394.1413     -6348.1584     -92.22587      -2549.5569      12965.687     -7894.7218     -336.85473      86877.698      44.289703      44.289703      44.289703      0.96028713    -835.55162      3174.0632     -158.78206    
     82000   82000          495.5592      -343.1428       20142.137      20571.689      11815.866      8755.8229      4462.4736      8168.6865     -6240.9223     -85.124553     -2563.7848      12929.187     -7914.6924     -340.94651      85835.058      44.111812      44.111812      44.111812      0.97195176    -307.53558     -896.02324      174.13042    
     83000   83000          487.86442      254.62404      20816.119      20493.129      11632.395      8860.7343      4320.1554      8254.1946     -6304.7433     -91.277412     -2431.015       13006.871     -7893.4507     -336.4633       86978.768      44.306871      44.306871      44.306871      0.95917127    -75.846112      1304.3585     -464.64022    
     84000   84000          490.72188     -406.1292       19941.78       20452.714      11700.527      8752.1873      4347.181       8213.3683     -6260.717      -90.031938     -2543.9311      12989.507     -7903.1892     -339.25456      86263.139      44.185023      44.185023      44.185023      0.96712845    -335.52834     -435.98059     -446.87867    
     85000   85000          491.98719      644.19575      21432.116      20628.226      11730.696      8897.5299      4403.7284      8341.5787     -6208.2942     -91.875585     -2595.5151      12952.128     -7904.2203     -342.01718      85566.354      44.065734      44.065734      44.065734      0.97500397     1224.4852     -261.22707      969.32909    
     86000   86000          483.92639     -400.23728      19766.99       20265.401      11538.499      8726.9024      4237.8106      8384.2703     -6210.8145     -95.543197     -2603.8809      12917.463     -7902.4024     -342.73387      85387.428      44.034998      44.034998      44.034998      0.97704705     1123.1876     -1895.5334     -428.36598    
     87000   87000          492.10011     -612.49189      19714.428      20484.903      11733.389      8751.5145      4366.5878      8190.1036     -6177.4453     -94.668265     -2557.7229      12936.95      -7912.2909     -339.28815      86254.6        44.183565      44.183565      44.183565      0.96722419    -498.3142      -1037.8619     -301.29958    
     88000   88000          495.47005      1191.4416      22260.249      20766.686      11813.74       8952.9461      4338.5215      8406.0054     -6276.2639     -93.954885     -2493.5021      12964.364     -7892.2242     -340.46776      85955.755      44.132479      44.132479      44.132479      0.97058696    -114.29576      2552.9726      1135.648     
     89000   89000          485.74861      1304.9518      22083.695      20442.12       11581.947      8860.1734      4377.1927      8246.3016     -6213.5254     -91.221125     -2510.212       12955.807     -7904.1689     -339.28179      86256.217      44.183841      44.183841      44.183841      0.96720606     2464.8302      880.68928      569.33602    
     90000   90000          493.0763       915.63118      21577.798      20425.125      11756.664      8668.4603      4311.7931      8153.1899     -6208.4486     -92.638526     -2570.4121      12967.405     -7892.428      -339.03235      86319.68       44.194675      44.194675      44.194675      0.96649496    -265.82805      2089.6421      923.07951    
     91000   91000          490.61713     -634.37035      19596.45       20391.53       11698.029      8693.5006      4277.5972      8301.2661     -6226.2966     -95.965818     -2618.3506      12948.368     -7893.1177     -340.53266      85939.373      44.129675      44.129675      44.129675      0.97077198    -111.15155     -810.05151     -981.90799    
     92000   92000          500.72491     -742.92873      20036.224      20970.823      11939.034      9031.7888      4454.6157      8545.8237     -6340.2875     -95.612302     -2560.9998      12934.149     -7905.9003     -339.27238      86258.609      44.18425       44.18425       44.18425       0.96717924    -311.55254      87.77459      -2005.0083    
     93000   93000          490.00526      313.64194      20782.091      20389.973      11683.44       8706.5325      4449.2551      8336.4709     -6349.0131     -96.764481     -2633.6354      12917.613     -7917.3939     -341.38448      85724.938      44.09294       44.09294       44.09294       0.9732003     -1746.8622      205.33787      2482.4502    
     94000   94000          482.78505      1723.7732      22537.564      20402.695      11511.285      8891.4099      4383.459       8443.1384     -6317.7691     -97.395658     -2582.6035      12952.832     -7890.2511     -344.61619      84921.036      43.954677      43.954677      43.954677      0.98241307     3410.295       279.64553      1481.3791    
     95000   95000          499.78066      308.20251      21103.531      20716.679      11916.52       8800.1593      4320.5969      8447.3082     -6347.3997     -96.318974     -2598.1794      12975.778     -7901.6254     -340.03086      86066.2        44.151373      44.151373      44.151373      0.96934146     1238.7012     -459.57141      145.47777    
     96000   96000          487.66446     -599.49172      19613.768      20368.042      11627.627      8740.4142      4288.2777      8321.746      -6278.7112     -97.223992     -2560.3964      12965.426     -7898.7042     -339.21963      86272.022      44.18654       44.18654       44.18654       0.96702887    -510.6647      -1087.0693     -200.74113    
     97000   97000          494.22405     -375.83086      20192.405      20672.567      11784.031      8888.5363      4416.7232      8380.8682     -6336.1737     -96.57833      -2557.7772      12968.081     -7886.6071     -334.06507      87603.185      44.412644      44.412644      44.412644      0.9523345     -760.39768      425.82579     -792.92067    
     98000   98000          484.65647      227.17269      20485.222      20200.541      11555.906      8644.6349      4371.5298      8122.6746     -6319.4471     -91.985423     -2510.1239      12965.825     -7893.8385     -340.58394      85926.435      44.12746       44.12746       44.12746       0.97091815    -640.37076      441.28226      880.60656    
     99000   99000          487.81564      739.14609      21582.54       20642.836      11631.232      9011.6041      4406.3476      8366.957      -6242.8311     -96.948055     -2506.1035      12979.258     -7895.076      -335.7113       87173.603      44.339929      44.339929      44.339929      0.95702751     964.6715       1118.0022      134.76457    
    100000   100000         487.24292     -1130.5749      18861.682      20272.854      11617.576      8655.278       4337.7655      8329.1303     -6353.2323     -89.956473     -2636.8741      12961.331     -7892.8857     -341.9371       85586.396      44.069174      44.069174      44.069174      0.97477566    -719.47068     -1290.8789     -1381.375     
    101000   101000         494.46479     -998.05934      19136.038      20388.959      11789.771      8599.1877      4293.4356      8334.5351     -6378.5375     -95.265682     -2636.2596      12970.344     -7889.0646     -339.98501      86077.805      44.153357      44.153357      44.153357      0.96921077    -1328.9466      429.30379     -2094.5352    
    102000   102000         488.101        182.73532      20389.239      20161.267      11638.036      8523.2314      4329.078       8149.5398     -6337.61       -96.321169     -2614.0399      12991.676     -7899.0917     -342.11197      85542.646      44.061664      44.061664      44.061664      0.9752742      502.41939     -54.486988      100.27357    
    103000   103000         493.15335     -73.825335      20360.691      20452.548      11758.502      8694.0464      4323.0283      8252.2627     -6326.2589     -81.749571     -2590.6502      12991.673     -7874.2585     -343.0202       85316.153      44.022742      44.022742      44.022742      0.97786331    -506.07568      561.06986     -276.47018    
    104000   104000         489.78256     -701.53767      19462.916      20339.439      11678.13       8661.3083      4368.3821      8231.1754     -6233.4517     -96.626194     -2668.8729      12963.182     -7902.4804     -341.59766      85671.441      44.083766      44.083766      44.083766      0.97380801    -483.81511     -865.04908     -755.74881    
    105000   105000         493.05815     -327.68162      19978.286      20389.769      11756.232      8633.5376      4318.3276      8314.9456     -6348.0095     -93.685322     -2550.6077      12909.442     -7916.8748     -339.88056      86104.259      44.15788       44.15788       44.15788       0.968913      -236.37919      452.64848     -1199.3141    
    106000   106000         494.13327     -411.13626      19838.792      20344.47       11781.866      8562.6034      4331.8943      8172.2225     -6216.1361     -91.217988     -2662.7857      12932.692     -7904.0658     -347.00713      84335.913      43.853492      43.853492      43.853492      0.98922905    -648.84663     -229.35992     -355.20222    
    107000   107000         483.08458      616.81232      20995.65       20225.349      11518.427      8706.922       4278.808       8356.997      -6349.2767     -94.090858     -2520.0445      12945.939     -7911.4103     -341.75851      85631.12       44.076849      44.076849      44.076849      0.97426655     1241.3345      1185.187      -576.08449    
    108000   108000         494.76487      720.28884      21628.077      20725.39       11796.926      8928.464       4441.4548      8398.9597     -6365.1213     -98.478737     -2543.9182      12993.84      -7898.2726     -340.56224      85931.911      44.128397      44.128397      44.128397      0.97085628     1286.8075     -658.14701      1532.2061    
    109000   109000         492.94647     -86.350778      20424.75       20532.292      11753.569      8778.7236      4279.6276      8465.7763     -6335.8434     -97.454467     -2619.0437      12974.622     -7888.9607     -342.70018      85395.823      44.036441      44.036441      44.036441      0.97695101    -1575.4536      1787.3128     -470.91151    
    110000   110000         491.48074      693.05269      21062.824      20196.037      11718.621      8477.4166      4262.8638      8016.9435     -6232.4551     -88.905793     -2547.303       12975.298     -7909.0244     -341.25647      85757.095      44.098453      44.098453      44.098453      0.97283537     189.47948      1482.4465      407.23204    
    111000   111000         486.78822     -587.41079      19636.785      20376.453      11606.735      8769.7179      4450.1994      8222.6965     -6318.8541     -96.79557      -2581.0068      12983.607     -7890.1288     -338.94716      86341.373      44.198377      44.198377      44.198377      0.96625213    -1105.1002     -327.68878     -329.44337    
    112000   112000         486.35283     -1157.9356      18959.77       20403.724      11596.353      8807.3711      4376.1779      8281.9243     -6194.9401     -98.565371     -2582.5874      12931.867     -7906.5049     -342.26125      85505.337      44.055257      44.055257      44.055257      0.97569975    -2904.0111     -946.91043      377.11463    
    113000   113000         489.07385      177.85612      20678.982      20454.221      11661.232      8792.9886      4331.7877      8256.337      -6290.228      -90.389298     -2493.6151      12978.065     -7898.969      -337.7337       86651.595      44.251248      44.251248      44.251248      0.96279284     451.43094      413.01196     -330.87452    
    114000   114000         492.91288      354.88121      20787.892      20341.722      11752.768      8588.954       4348.5496      8129.5869     -6315.2356     -89.865694     -2576.6036      12988.234     -7895.7121     -339.47598      86206.875      44.175415      44.175415      44.175415      0.96775965     670.28605      52.987458      341.37011    
    115000   115000         488.86005     -782.96605      19248.181      20231.817      11656.134      8575.6831      4229.5803      8220.2159     -6263.4728     -95.164713     -2508.763       12894.792     -7901.5043     -339.73105      86142.151      44.164356      44.164356      44.164356      0.96848679     402.01916     -3504.8579      753.94061    
    116000   116000         485.06736      147.00489      20335.383      20151.611      11565.703      8585.9078      4264.6442      8251.042      -6300.6745     -97.377359     -2551.9175      12928.492     -7908.3015     -341.41275      85717.841      44.091723      44.091723      44.091723      0.97328088     184.97136     -173.7219       429.76522    
    117000   117000         489.66223     -272.64171      20119.208      20459.26       11675.261      8783.9992      4441.3061      8249.5709     -6250.1097     -99.850878     -2593.2961      12947.19      -7910.8115     -342.1943       85522.067      44.05813       44.05813       44.05813       0.97550887     445.0581      -96.366826     -1166.6164    
    118000   118000         488.06613      1293.3305      21926.763      20296.274      11637.205      8659.0697      4305.6466      8125.4571     -6257.2107     -87.992138     -2511.8961      12979.883     -7894.8181     -338.54671      86443.504      44.215797      44.215797      44.215797      0.96511053     1568.211       1042.3431      1269.4375    
    119000   119000         489.80716      713.42933      21244.24       20359.107      11678.717      8680.3898      4310.1446      8252.8884     -6289.3942     -93.75514      -2554.8231      12955.885     -7900.5557     -344.00866      85071.009      43.980537      43.980537      43.980537      0.98068116     198.18547      3271.8451     -1329.7426    
    120000   120000         489.46867     -83.406985      20327.333      20431.151      11670.646      8760.5047      4427.7336      8248.1838     -6297.5788     -94.165956     -2559.8781      12935.404     -7899.1936     -342.89344      85347.691      44.028166      44.028166      44.028166      0.97750196    -1814.4089     -360.14642      1924.3343    
    121000   121000         486.46702      1028.5557      21491.77       20202.802      11599.076      8603.7254      4311.3879      8075.337      -6267.8383     -90.658253     -2507.1639      12982.667     -7900.0057     -340.57474      85928.755      44.127857      44.127857      44.127857      0.97089194     1016.9438      461.50318      1607.2203    
    122000   122000         486.86891      463.39433      21033.337      20450.353      11608.659      8841.6947      4471.4857      8156.3409     -6249.1724     -89.941827     -2496.8794      12948.291     -7898.4291     -339.25124      86263.984      44.185167      44.185167      44.185167      0.96711897    -654.96605      191.48113      1853.6679    
    123000   123000         492.47504      1550.3008      22207.791      20275.908      11742.328      8533.5792      4254.3689      8301.6924     -6362.3638     -88.49882      -2591.3903      12936.765     -7916.9943     -342.50099      85445.486      44.044976      44.044976      44.044976      0.97638318     1823.7336      653.9651       2173.2037    
    124000   124000         483.04334     -39.134109      20205.734      20254.415      11517.444      8736.9716      4336.6825      8346.0043     -6311.9532     -95.811873     -2608.7184      12962.577     -7891.8091     -343.10339      85295.465      44.019183      44.019183      44.019183      0.97810048    -712.97445      445.26398      150.30815    
    125000   125000         489.66439      1319.8599      22093.113      20438.781      11675.313      8763.4681      4313.5098      8272.0159     -6216.6077     -88.940112     -2577.1827      12968.976     -7908.3034     -340.51168      85944.668      44.130581      44.130581      44.130581      0.97071217    -83.623723      718.74805      3324.4554    
    126000   126000         485.92771     -708.17947      19423.142      20311.882      11586.217      8725.6652      4352.6711      8336.2894     -6316.0763     -89.120832     -2594.647       12942.926     -7906.3775     -340.09122      86050.923      44.14876       44.14876       44.14876       0.96951355     174.73644     -1999.6314     -299.6435     
    127000   127000         482.9862      -1904.9363      17722.918      20100.834      11516.081      8584.7523      4280.0183      8109.8796     -6153.3546     -91.094594     -2587.2304      12935.576     -7909.0416     -341.90932      85593.348      44.070367      44.070367      44.070367      0.97469648    -2261.91       -1394.8065     -2058.0923    
    128000   128000         492.88383      63.092106      20576.388      20497.324      11752.075      8745.2486      4393.023       8295.694      -6225.237      -97.543059     -2638.8512      12920.106     -7901.9435     -340.58238      85926.829      44.127528      44.127528      44.127528      0.9709137     -951.10511      1758.2396     -617.85815    
    129000   129000         490.24824     -115.33862      19997.098      20140.017      11689.234      8450.783       4325.6061      8078.0431     -6235.9029     -90.423773     -2709.652       12974.998     -7891.8853     -344.43848      84964.85       43.962235      43.962235      43.962235      0.98190646     989.48782     -215.55026     -1119.9534    
    130000   130000         483.8964      -1016.6851      18805.858      20087.726      11537.784      8549.9424      4267.8586      8349.3896     -6375.6363     -94.905685     -2652.159       12955.909     -7900.5142     -338.50888      86453.163      44.217443      44.217443      44.217443      0.9650027     -935.53822      1.484141      -2116.0013    
    131000   131000         487.87834     -1049.1266      18925.708      20231.209      11632.727      8598.4825      4309.6924      8197.1156     -6245.7989     -91.038778     -2612.8559      12946.436     -7905.0676     -342.98678      85324.466      44.024172      44.024172      44.024172      0.97776804    -743.10772     -1836.7927     -567.4792     
    132000   132000         484.10458     -254.99173      19624.219      19943.071      11542.747      8400.3241      4310.4049      8020.315      -6331.4155     -89.727309     -2612.6134      13004.722     -7901.3618     -341.32105      85740.869      44.095671      44.095671      44.095671      0.97301948     491.96252     -468.61238     -788.32533    
    133000   133000         489.95482     -23.831447      20375.156      20404.764      11682.238      8722.5266      4365.8014      8227.5687     -6295.6779     -93.111585     -2520.6751      12944.924     -7906.3027     -343.52648      85190.416      44.001105      44.001105      44.001105      0.97930659     1122.1639      314.25286     -1507.9111    
    134000   134000         485.89595     -1712.1033      18129.659      20279.286      11585.46       8693.8258      4345.3926      8180.1593     -6265.6135     -92.435297     -2548.927       12978.797     -7903.547      -339.93338      86090.879      44.155592      44.155592      44.155592      0.96906358    -1151.946      -1951.6665     -2032.6975    
    135000   135000         495.88663      1519.8935      22267.388      20362.689      11823.673      8539.0165      4325.2804      8246.6329     -6441.671      -93.21038      -2579.8387      12983.122     -7901.299      -340.57567      85928.521      44.127817      44.127817      44.127817      0.97089459     1081.5675      2405.5674      1072.5456    
    136000   136000         490.91437     -547.906        19647.465      20331.724      11705.117      8626.6074      4307.3615      8286.4767     -6308.2676     -95.930796     -2594.7526      12943.004     -7911.2838     -341.75293      85632.517      44.077089      44.077089      44.077089      0.97425066    -1113.8917     -938.21589      408.3896     
    137000   137000         487.30557     -700.46126      19442.788      20321.019      11619.07       8701.9485      4268.3412      8388.7356     -6330.5184     -90.604953     -2578.76        12946.168     -7901.4131     -340.41017      85970.298      44.134968      44.134968      44.134968      0.97042277    -1114.2598     -380.49687     -606.62707    
    138000   138000         484.91936      300.67828      20625.728      20247.135      11562.174      8684.9606      4286.0838      8322.72       -6273.6346     -89.782327     -2619.5265      12955.683     -7896.5828     -338.96667      86336.405      44.197529      44.197529      44.197529      0.96630773    -93.995575      916.3783       79.652133    
    139000   139000         490.59448     -87.172437      20031.982      20141.671      11697.489      8444.1818      4279.0018      8061.4103     -6280.8277     -95.832043     -2600.0517      12980.475     -7899.9939     -339.18978      86279.614      44.187836      44.187836      44.187836      0.96694378     307.41548      329.0871      -898.0199     
    140000   140000         480.14753      1434.2494      21886.531      20093.795      11448.397      8645.3975      4284.0176      8312.1267     -6386.9325     -91.104649     -2537.1917      12974.184     -7909.7016     -341.4563       85706.908      44.089849      44.089849      44.089849      0.97340503     541.75722      2606.6812      1154.3098    
    141000   141000         484.58348      808.33906      21087.027      20082.637      11554.166      8528.4707      4236.2475      8143.5149     -6327.8076     -91.191717     -2537.721       13002.022     -7896.5931     -343.49303      85198.712      44.002533      44.002533      44.002533      0.97921123     82.009866      964.1477       1378.8596    
    142000   142000         485.41381     -1068.4188      18863.631      20207.261      11573.964      8633.2975      4361.6018      8284.5075     -6361.7684     -93.634586     -2637.0875      12988.454     -7908.7749     -339.38193      86230.766      44.179495      44.179495      44.179495      0.96749152    -616.19148     -1170.7383     -1418.3267    
    143000   143000         488.07783      644.64818      21148.937      20348.772      11637.484      8711.2882      4300.4217      8431.8768     -6398.1018     -91.467248     -2616.3402      12984.785     -7899.8858     -343.85078      85110.068      43.987267      43.987267      43.987267      0.9802311      1085.4973      114.34392      734.10337    
    144000   144000         482.66058     -892.63288      18891.18       20005.857      11508.317      8497.5395      4307.1638      8127.8664     -6353.9876     -89.326197     -2579.3118      12962.609     -7877.4741     -341.78327      85624.916      44.075785      44.075785      44.075785      0.97433713    -65.62252      -643.42279     -1968.8533    
    145000   145000         490.80723     -939.23386      19151.722      20327.776      11702.562      8625.2141      4359.5765      8180.8368     -6283.5355     -94.652539     -2606.681       12973.399     -7903.7293     -340.85777      85857.404      44.11564       44.11564       44.11564       0.97169878    -1352.4177      111.6854      -1576.9693    
    146000   146000         483.9129       1318.9506      21616.597      19981.146      11538.177      8442.9684      4231.2759      8203.7179     -6367.7816     -97.428604     -2622.3327      12984.344     -7888.8263     -344.20554      85022.348      43.97215       43.97215       43.97215       0.98124243     3295.6304     -65.036885      726.25839    
    147000   147000         489.49009     -324.67814      19908.311      20318.148      11671.157      8646.9913      4328.2616      8236.7222     -6298.5777     -88.431426     -2590.1585      12956.674     -7897.4992     -338.11796      86553.118      44.234478      44.234478      44.234478      0.96388828    -543.86474     -756.25186      326.08218    
    148000   148000         480.43683     -234.28861      19726.186      20018.075      11455.295      8562.7801      4300.2039      8189.1039     -6313.7681     -91.59164      -2603.2794      12983.239     -7901.128      -342.57854      85426.145      44.041652      44.041652      44.041652      0.97660424     462.54961      1564.8139     -2730.2294    
    149000   149000         485.31851      441.57215      20810.762      20256.192      11571.692      8684.5         4330.6961      8325.9536     -6406.2364     -94.651926     -2559.3739      12997.047     -7908.9345     -339.83813      86115.009      44.159717      44.159717      44.159717      0.96879204     1028.0342     -202.40482      499.08709    
    150000   150000         484.92627      93.652036      20070.413      19953.074      11562.339      8390.7352      4352.7725      7987.297      -6409.5033     -93.156971     -2554.9976      13004.357     -7896.0331     -340.6464       85910.678      44.124763      44.124763      44.124763      0.97109623     274.02203      676.55475     -669.62067    
    151000   151000         489.11957      382.91448      20849.82       20369.349      11662.322      8707.0264      4301.6309      8311.0542     -6346.6065     -102.90802     -2554.5958      12991.691     -7893.2392     -340.14281      86037.873      44.146528      44.146528      44.146528      0.9696606      200.56683      207.34201      740.83461    
    152000   152000         485.32209      166.6219       20431.78       20221.471      11571.777      8649.6935      4270.1903      8226.1047     -6333.5059     -97.300773     -2569.7362      13035.017     -7881.0761     -338.14286      86546.743      44.233392      44.233392      44.233392      0.96395927     976.83284      357.6984      -834.66555    
    153000   153000         491.61348      244.71624      20640.14       20330.932      11721.786      8609.1461      4181.9694      8309.5709     -6308.1907     -98.14796      -2551.4232      12980.872     -7905.5044     -337.7843       86638.614      44.249038      44.249038      44.249038      0.9629371      956.40918     -570.31515      348.0547     
    154000   154000         475.27887     -89.652333      19781.19       19895.233      11332.312      8562.9211      4142.565       8320.354      -6286.6951     -89.913061     -2585.59        12970.963     -7908.7626     -335.52177      87222.846      44.348277      44.348277      44.348277      0.9564872     -1477.2459      859.13064      349.15828    
    155000   155000         485.76017      268.44282      20601.118      20264.009      11582.222      8681.7865      4338.3937      8192.3009     -6241.0805     -92.381121     -2545.8975      12931.241     -7900.7903     -339.86678      86107.75       44.158476      44.158476      44.158476      0.96887372     1056.8157      717.57058     -969.05782    
    156000   156000         484.89613      498.13199      21089.134      20451.416      11561.621      8889.7956      4317.8351      8268.5094     -6235.5826     -97.936808     -2467.6238      12993.331     -7888.7365     -333.38271      87782.487      44.442924      44.442924      44.442924      0.95038929     276.93962      123.50189      1093.9545    
    157000   157000         479.62938     -1707.9323      17956.129      20097.582      11436.043      8661.5389      4436.2761      8207.3431     -6236.152      -90.996543     -2648.3831      12909.228     -7915.7764     -340.39951      85972.991      44.135428      44.135428      44.135428      0.97039238    -1270.5206     -1759.6898     -2093.5864    
    158000   158000         488.27579      442.6372       20924.557      20370.388      11642.204      8728.1841      4279.1373      8394.2596     -6349.4187     -89.968735     -2595.914       12992.52      -7902.4316     -340.90395      85845.775      44.113648      44.113648      44.113648      0.97183042     1835.242       1228.5559     -1735.8862    
    159000   159000         483.59194      247.05525      20392.44       20081.933      11530.524      8551.409       4300.455       8088.0804     -6339.4625     -90.373578     -2518.8536      13005.777     -7894.2135     -339.5859       86178.972      44.170648      44.170648      44.170648      0.968073       869.73362     -645.23979      516.67192    
    160000   160000         483.21912      2009.7441      22605.743      20099.028      11521.635      8577.393       4273.7988      8164.1203     -6331.2778     -96.008665     -2521.576       12992.773     -7904.4367     -342.18625      85524.077      44.058475      44.058475      44.058475      0.97548595     879.81134      2472.2231      2677.1979    
    161000   161000         484.40061      235.53304      20596.313      20300.779      11549.806      8750.9735      4409.2738      8228.1579     -6281.1755     -94.78798      -2538.6095      12934.943     -7906.8284     -340.15074      86035.867      44.146185      44.146185      44.146185      0.96968321     939.02879      579.93883     -812.36851    
    162000   162000         489.86901     -1543.9553      18341.548      20247.896      11680.192      8567.7039      4419.3653      8087.8585     -6293.512      -87.822448     -2660.8548      12987.457     -7884.7881     -345.66828      84662.565      43.910037      43.910037      43.910037      0.98541233    -1415.5187     -2355.1082     -861.23893    
    163000   163000         475.53459      166.53333      20285.209      20076.8        11338.409      8738.3907      4427.8246      8261.3662     -6298.2327     -95.075349     -2601.2394      12944.366     -7900.6182     -341.0441       85810.496      44.107604      44.107604      44.107604      0.97222996     1332.7343     -1706.064       872.92974    
    164000   164000         479.93966      557.71207      20602.604      19910.54       11443.441      8467.0988      4229.386       8135.8691     -6256.6883     -91.252994     -2593.6484      12946.239     -7902.8057     -343.94628      85086.436      43.983195      43.983195      43.983195      0.98050335     860.8875       667.78513      144.46358    
    165000   165000         478.68006     -1287.3258      18352.48       19945.065      11413.408      8531.6578      4242.2539      8270.2116     -6329.918      -100.11477     -2613.0436      12964.388     -7902.1194     -344.99488      84827.82       43.938589      43.938589      43.938589      0.98349263    -530.52958     -1115.7357     -2215.712     
    166000   166000         482.15503     -932.09813      19055.136      20218.579      11496.263      8722.316       4320.0642      8324.8909     -6285.3885     -88.926621     -2630.1014      12971.694     -7889.9171     -341.93472      85586.991      44.069276      44.069276      44.069276      0.97476888    -571.56045     -1985.2653     -239.46868    
    167000   167000         484.47883      144.41178      20240.501      20057.43       11551.671      8505.7595      4264.9038      8060.3955     -6235.0456     -92.028488     -2547.7114      12958.361     -7903.1156     -336.67423      86924.276      44.297617      44.297617      44.297617      0.95977257     408.25792     -568.67291      593.65033    
    168000   168000         471.93517     -765.13228      18845.779      19791.777      11252.586      8539.1909      4373.0598      8157.9009     -6258.5596     -86.846817     -2647.4652      12920.959     -7919.857      -345.20203      84776.915      43.929798      43.929798      43.929798      0.98408317     541.44778      441.78151     -3278.6261    
    169000   169000         482.24874     -1620.582       18021.07       20040.306      11498.498      8541.8079      4395.6059      8223.7734     -6350.7714     -90.071        -2681.3924      12950.632     -7905.9691     -342.53957      85435.862      44.043322      44.043322      44.043322      0.97649317    -2655.7358     -1622.3816     -583.62843    
    170000   170000         489.24935     -744.45835      19181.76       20094.803      11665.417      8429.3859      4399.2492      8007.0909     -6293.5844     -90.320587     -2645.1526      12963.039     -7910.9361     -347.99756      84095.888      43.811849      43.811849      43.811849      0.99205249    -1299.8648     -931.10349     -2.4067389    
    171000   171000         483.07668      547.56527      20563.953      19886.406      11518.239      8368.167       4222.0327      8180.2842     -6372.1928     -93.511084     -2608.2694      12950.607     -7910.7831     -344.92349      84845.378      43.94162       43.94162       43.94162       0.9832891     -314.47493      1770.9287      186.24204    
    172000   172000         493.27733     -288.34765      19857.867      20219.913      11761.458      8458.4553      4266.2779      8121.9858     -6251.1957     -88.359336     -2637.0964      12953.053     -7906.2097     -339.9217       86093.836      44.156098      44.156098      44.156098      0.96903029    -780.716        1119.9977     -1204.3246    
    173000   173000         479.29823      591.29203      20687.609      19951.961      11428.147      8523.8143      4315.2956      8222.8271     -6328.1998     -88.63848      -2630.9339      12948.99      -7915.5261     -343.05112      85308.462      44.021419      44.021419      44.021419      0.97795146    -120.29039     -1255.0517      3149.2182    
    174000   174000         486.28226      1100.9049      21514.329      20150.427      11594.671      8555.756       4305.3844      8182.8188     -6289.5115     -88.851211     -2643.5748      12988.697     -7899.2063     -344.50336      84948.847      43.959475      43.959475      43.959475      0.98209144     447.46001      196.84452      2658.4103    
    175000   175000         477.68812      121.39376      20011.562      19860.593      11389.756      8470.8364      4276.8508      8080.3583     -6233.3421     -87.613494     -2598.0074      12935.044     -7902.4537     -343.18994      85273.956      44.015483      44.015483      44.015483      0.9783472      22.922021      264.12364      77.135621    
    176000   176000         486.52842      10.180705      20294.358      20281.869      11600.54       8681.3287      4298.2166      8425.7769     -6270.4729     -90.608192     -2686.4848      12925.872     -7920.9713     -347.91123      84116.756      43.815473      43.815473      43.815473      0.99180639     299.12174     -525.37263      256.79301    
    177000   177000         480.8208       351.37674      20207.49       19772.575      11464.451      8308.1243      4242.5488      8094.6859     -6234.0322     -91.547938     -2662.5136      12881.942     -7922.9587     -344.82198      84870.353      43.945931      43.945931      43.945931      0.98299974    -144.93276      817.5269       381.53609    
    178000   178000         483.07677     -677.37872      19214.624      20065.92       11518.241      8547.6791      4291.427       8146.8904     -6298.3784     -90.324827     -2565.7677      12959.549     -7895.7168     -339.60804      86173.354      44.169688      44.169688      44.169688      0.96813611    -1097.7107     -707.55875     -226.86673    
    179000   179000         481.43296      181.38457      20176.208      19949.317      11479.047      8470.2704      4266.781       8136.2252     -6318.5032     -97.582053     -2551.0846      12941.164     -7906.73       -341.20042      85771.182      44.100867      44.100867      44.100867      0.9726756     -1771.5849      2057.5551      258.18344    
    180000   180000         476.29063      125.11519      19988.944      19829.993      11356.435      8473.5576      4343.5731      7927.9331     -6271.2825     -83.819436     -2530.4096      12987.639     -7900.0761     -335.94946      87111.804      44.329449      44.329449      44.329449      0.95770644     511.58033     -579.12442      442.88967    
    181000   181000         474.15703      1050.0456      21213.965      19895.568      11305.563      8590.0053      4279.2897      8253.7787     -6331.4217     -98.676112     -2525.3993      12924.101     -7911.6675     -339.92958      86091.843      44.155757      44.155757      44.155757      0.96905273     991.27108      1791.9128      366.95291    
    182000   182000         481.84274      1372.4951      21724.655      20009.224      11488.817      8520.4066      4254.2506      8104.3299     -6246.5783     -91.584121     -2566.9965      12968.296     -7901.3107     -341.4793       85701.136      44.088859      44.088859      44.088859      0.97347059     1589.92        1804.8821      722.68314    
    183000   183000         484.98518     -1460.9755      18289.176      20129.373      11563.744      8565.6287      4271.4768      8240.5827     -6318.739      -97.778861     -2612.9647      12973.941     -7890.8892     -338.84852      86366.509      44.202665      44.202665      44.202665      0.96597091    -1817.9135      646.54631     -3211.5594    
    184000   184000         477.56011     -237.62733      19749.141      20043.982      11386.704      8657.2779      4289.6322      8342.4304     -6292.6613     -91.473632     -2579.9761      12908.307     -7918.981      -343.98175      85077.663      43.981684      43.981684      43.981684      0.98060445    -1309.0271      797.00749     -200.86232    
    185000   185000         483.83883     -377.96563      19739.587      20219.096      11536.411      8682.6846      4309.0333      8190.3614     -6202.7593     -94.345284     -2577.0322      12953.093     -7895.6664     -336.42103      86989.697      44.308727      44.308727      44.308727      0.95905077    -227.8119      -1258.8709      352.78585    
    186000   186000         481.13274      196.82005      20113.931      19870.606      11471.888      8398.7175      4204.1321      8311.2087     -6367.4271     -93.900586     -2638.9079      12905.252     -7921.6393     -345.23032      84769.969      43.928598      43.928598      43.928598      0.98416381     1981.7056     -639.75215     -751.49334    
    187000   187000         485.97755      73.750542      20158.771      20067.057      11587.406      8479.6519      4265.4901      8068.0879     -6232.1101     -90.644966     -2569.3398      12938.349     -7900.1798     -343.2093       85269.144      44.014655      44.014655      44.014655      0.9784024      1701.9143      30.313642     -1510.9763    
    188000   188000         480.48409      1052.3016      21080.366      19761.284      11456.422      8304.8618      4183.1207      8114.955      -6439.4625     -89.96913      -2563.2763      12991.755     -7892.2615     -340.48279      85951.96       44.131829      44.131829      44.131829      0.97062981     793.25834      709.27518      1654.3713    
    189000   189000         483.87495      966.88623      21146.032      19937.704      11537.272      8400.4313      4269.7503      8016.9999     -6300.8761     -85.188574     -2591.2345      12982.031     -7891.0508     -341.52073      85690.738      44.087076      44.087076      44.087076      0.97358871     265.03085      2159.2352      476.39266    
    190000   190000         477.08705      373.78809      20491.129      20028.206      11375.425      8652.7809      4386.8716      8280.7315     -6328.1915     -95.893574     -2656.9385      12976.431     -7910.2293     -344.62198      84919.609      43.954431      43.954431      43.954431      0.98242958     1289.4457      107.73581     -275.81722    
    191000   191000         474.18512      1125.1406      21144.224      19753.291      11306.233      8447.0583      4294.5453      8228.1852     -6301.7949     -91.965987     -2716.5431      12952.339     -7917.7077     -345.24499      84766.366      43.927976      43.927976      43.927976      0.98420564     839.89305      909.33287      1626.1958    
    192000   192000         480.93391      723.2447       20811.899      19916.952      11467.148      8449.8042      4219.1611      8182.4921     -6238.7314     -90.967593     -2633.3334      12938.411     -7927.2275     -344.91703      84846.966      43.941894      43.941894      43.941894      0.98327069     1745.8428      757.48465     -333.59336    
    193000   193000         477.45004      721.436        20542.684      19663.057      11384.08       8278.9775      4337.305       8089.819      -6409.9715     -94.786602     -2708.7332      12982.045     -7916.6999     -350.04697      83603.533      43.726181      43.726181      43.726181      0.99789485     1986.9955     -509.78427      687.09677    
    194000   194000         484.64825     -569.49951      19036.062      19739.071      11555.71       8183.3602      4167.6448      8014.2433     -6285.7346     -85.697868     -2660.6872      12944.808     -7911.216      -345.74774      84643.108      43.906673      43.906673      43.906673      0.98563884    -994.4746       121.47983     -835.50377    
    195000   195000         480.51336     -546.66156      19473.701      20159.92       11457.12       8702.7995      4450.3091      8084.7447     -6366.3756     -92.599799     -2524.84        13036.706     -7885.1445     -340.00313      86073.217      44.152572      44.152572      44.152572      0.96926243    -1065.1328     -859.92689      285.07505    
    196000   196000         484.86985      360.95343      20431.275      19981.216      11560.994      8420.2224      4304.4496      7979.8656     -6271.6634     -95.775684     -2590.5758      13001.735     -7907.8134     -342.30139      85495.31       44.053535      44.053535      44.053535      0.97581417     622.77645      815.87599     -355.79215    
    197000   197000         488.30101      247.74749      20466.318      20155.549      11642.805      8512.7443      4354.7598      8035.1279     -6238.5766     -93.859159     -2571.0603      12945.273     -7918.9203     -340.25008      86010.746      44.141888      44.141888      44.141888      0.96996642    -403.93784      1328.7481     -181.56776    
    198000   198000         480.89799      923.55285      21081.997      19931.555      11466.291      8465.2635      4297.4651      8133.1058     -6307.4777     -93.168446     -2578.8375      12932.803     -7918.6267     -342.62857      85413.67       44.039508      44.039508      44.039508      0.97674687     2154.0579      311.08652      305.51413    
    199000   199000         479.22671     -320.92387      19308.872      19711.91       11426.442      8285.4679      4265.2116      8031.7829     -6278.3705     -90.227462     -2606.6503      12885.623     -7921.9008     -339.84676      86112.823      44.159344      44.159344      44.159344      0.96881663    -2556.0305      1174.3483      418.91056    
    200000   200000         480.11836      80.117042      20035.584      19935.13       11447.702      8487.4283      4303.7531      8145.4785     -6338.9263     -85.895923     -2578.4306      12949.909     -7908.459      -340.39667      85973.707      44.135551      44.135551      44.135551      0.9703843      551.8583       83.352309     -394.85949    
    201000   201000         474.27559      228.73551      19967.267      19680.347      11308.39       8371.9573      4213.0204      8104.8645     -6324.6007     -97.936273     -2549.7057      12929.982     -7903.6672     -340.25193      86010.28       44.141808      44.141808      44.141808      0.96997167     567.58788      1130.3078     -1011.6891    
    202000   202000         476.66765      965.62489      21269.055      20070.556      11365.425      8705.1308      4360.8357      8341.7872     -6346.3264     -93.760158     -2626.485       12976.185     -7907.1053     -343.87261      85104.666      43.986336      43.986336      43.986336      0.98029332     977.46208      225.13055      1694.2821    
    203000   203000         485.26801     -249.16896      19794.219      20106.698      11570.488      8536.2104      4318.5045      8055.2487     -6219.3608     -89.273536     -2589.0961      12958.228     -7898.0399     -340.33021      85990.496      44.138424      44.138424      44.138424      0.97019484    -1157.4965      57.149522      352.84006    
    204000   204000         477.08914      372.07464      20123.755      19660.947      11375.475      8285.472       4183.1107      8106.4042     -6342.0435     -92.676104     -2626.9458      12963.494     -7905.8715     -343.12742      85289.492      44.018156      44.018156      44.018156      0.97816898     114.6576       1232.0501     -230.48381    
    205000   205000         485.43449      971.93601      21322.801      20118.336      11574.457      8543.8787      4315.9198      8189.536      -6349.944      -90.061319     -2594.2888      12977.044     -7904.3271     -344.4055       84972.986      43.963638      43.963638      43.963638      0.98181244     1709.8207      42.520958      1163.4663    
    206000   206000         484.58076     -290.61965      19606.129      19971.095      11554.101      8416.9939      4188.3217      8180.2949     -6322.5691     -91.83032      -2588.1974      12961.618     -7910.644      -339.85965      86109.557      44.158785      44.158785      44.158785      0.96885338     610.53949     -1159.1421     -323.25634    
    207000   207000         473.29166     -1143.5358      18278.997      19704.935      11284.93       8420.0053      4365.1192      8124.5098     -6332.8453     -94.279571     -2691.0379      12961.703     -7913.1638     -342.27574      85501.716      44.054635      44.054635      44.054635      0.97574106    -795.70286     -577.29022     -2057.6143    
    208000   208000         478.10909     -866.3146       18914.085      20007.68       11399.794      8607.8866      4368.5103      8226.2198     -6331.8864     -90.37277      -2594.4611      12931.52      -7901.6434     -338.10057      86557.57       44.235236      44.235236      44.235236      0.96383869    -2480.2129      409.6061      -528.33702    
    209000   209000         480.83322     -215.95109      19526.856      19798.062      11464.747      8333.3158      4175.2139      7981.2904     -6280.7531     -90.281951     -2545.124       12997.127     -7904.1564     -339.84673      86112.83       44.159345      44.159345      44.159345      0.96881656     1190.3489      1237.6112     -3075.8134    
    210000   210000         482.62154      1348.5797      21612.066      19920.165      11507.386      8412.7789      4300.2092      8018.2544     -6320.1886     -90.967134     -2572.4466      12982.527     -7904.6089     -340.19548      86024.553      44.14425       44.14425       44.14425       0.96981074     3039.2387     -985.64676      1992.1473    
    211000   211000         476.06828     -726.90355      18678.24       19588.138      11351.134      8237.0041      4145.0314      8041.7873     -6281.4323     -91.351427     -2632.584       12960.857     -7905.3039     -340.96585      85830.188      44.110978      44.110978      44.110978      0.9720069     -1012.9441     -260.83319     -906.93339    
    212000   212000         479.57213      947.2246       20701.366      19514.044      11434.678      8079.3664      4081.1752      7992.4395     -6349.7372     -92.675862     -2625.1324      12972.945     -7899.6478     -340.49566      85948.712      44.131273      44.131273      44.131273      0.9706665      1655.2689      300.29747      886.10739    
    213000   213000         475.26615      871.67543      20948.12       19864.619      11332.008      8532.6106      4246.3368      8061.1464     -6206.9903     -94.686786     -2560.5797      12981.631     -7894.2468     -343.36211      85231.196      44.008125      44.008125      44.008125      0.97883802     1219.567       1495.4071     -99.947784    
    214000   214000         483.98989      36.168827      20113.517      20067.979      11540.013      8527.966       4284.3751      8202.9401     -6453.9376     -88.274108     -2546.0123      13008.694     -7879.8193     -338.98634      86331.395      44.196674      44.196674      44.196674      0.9663638      69.351849      22.285928      16.868705    
    215000   215000         473.57006      187.02953      20145.533      19909.819      11291.567      8618.252       4305.7813      8088.1923     -6275.2931     -92.643635     -2523.2         13012.809     -7897.3935     -338.65081      86416.93       44.211265      44.211265      44.211265      0.96540731     766.18881     -958.58201      753.48177    
    216000   216000         473.20147     -1227.9274      18297.134      19850.843      11282.779      8568.064       4378.7912      8130.0527     -6338.593      -90.768539     -2578.9832      12967.327     -7899.7619     -337.31039      86760.339      44.269751      44.269751      44.269751      0.96158609    -616.86223     -1980.0599     -1086.8601    
    217000   217000         475.37926     -824.99441      18756.5        19797.915      11334.705      8463.2099      4205.2563      8287.2416     -6385.4796     -94.931584     -2609.393       12959.435     -7898.9186     -338.1067       86556          44.234969      44.234969      44.234969      0.96385618    -1289.4759      342.72717     -1528.2345    
    218000   218000         480.72036      137.60893      19984.253      19812.65       11462.056      8350.5943      4231.0161      8090.0578     -6343.8711     -88.194194     -2556.6314      12936.477     -7918.2599     -342.25379      85507.2        44.055577      44.055577      44.055577      0.97567849    -667.53289     -360.45839      1440.8181    
    219000   219000         467.87319      466.69881      20205.604      19621.402      11155.734      8465.6679      4439.9879      8058.6429     -6371.695      -89.708796     -2645.8652      12976.71      -7902.4043     -340.95753      85832.285      44.111337      44.111337      44.111337      0.97198316     57.336025      1230.5694      112.19105    
    220000   220000         475.67354      1032.4669      21171.346      19873.331      11341.722      8531.6092      4278.0445      8312.7779     -6453.1151     -94.330653     -2568.7136      12961.653     -7904.7063     -339.48708      86204.057      44.174933      44.174933      44.174933      0.96779129     1615.7969      1612.7801     -131.17627    
    221000   221000         483.5785       519.64851      20666.896      20020.99       11530.204      8490.7858      4252.4938      8154.0402     -6237.689      -95.538002     -2606.1838      12939.732     -7916.0693     -343.37359      85228.348      44.007634      44.007634      44.007634      0.97887074     1647.4695      612.11591     -700.63988    
    222000   222000         475.73973      1042.1671      20952.686      19651.747      11343.3        8308.4466      4191.6204      8135.2044     -6411.0827     -87.158496     -2637.7322      13004.229     -7886.634      -341.90628      85594.108      44.070498      44.070498      44.070498      0.97468783     1759.9857      322.82117      1043.6945    
    223000   223000         482.22504     -210.92431      19782.812      20046.305      11497.933      8548.3723      4314.922       8320.6637     -6443.6329     -90.863626     -2587.6482      12942.266     -7907.3347     -341.65216      85657.774      44.081422      44.081422      44.081422      0.97396339    -344.58529     -252.42805     -35.759596    
    224000   224000         475.56889      521.21016      20479.549      19821.495      11339.227      8482.2681      4378.2442      7938.2521     -6252.578      -90.451811     -2582.733       12974.818     -7883.2831     -338.04786      86571.066      44.237535      44.237535      44.237535      0.96368844     297.2229       1693.225      -426.81743    
    225000   225000         478.22556      29.331704      19756.016      19719.623      11402.571      8317.0519      4288.0756      8081.3968     -6370.1452     -93.50766      -2624.1243      12937.337     -7901.9801     -343.98691      85076.387      43.981464      43.981464      43.981464      0.98061917    -649.37294      864.7307      -127.36265    
    226000   226000         480.43545     -365.06391      19505.103      19956.668      11455.262      8501.4057      4346.767       8172.2747     -6285.8779     -88.989271     -2687.6994      12957.379     -7912.4489     -345.04452      84815.617      43.936482      43.936482      43.936482      0.98363412     842.76974     -1822.1327     -115.82881    
    227000   227000         474.98442     -622.50562      18982.479      19750.206      11325.291      8424.9156      4218.5544      8213.0982     -6329.817      -93.121819     -2629.4183      12957.948     -7912.3281     -346.06936      84564.446      43.893068      43.893068      43.893068      0.98655569    -344.98529     -281.6801      -1240.8514    
    228000   228000         475.38162      280.80489      19815.433      19471.682      11334.761      8136.9201      4253.9932      8005.4687     -6332.3812     -92.825125     -2710.4514      12917.97      -7904.8542     -348.648        83938.999      43.784587      43.784587      43.784587      0.99390673     767.50626     -114.71648      189.62487    
    229000   229000         476.54301      1240.4603      21097.204      19577.229      11362.453      8214.776       4226.7756      8115.6929     -6360.83       -91.945131     -2678.5522      12928.98      -7925.3453     -348.31587      84019.035      43.798499      43.798499      43.798499      0.99295993     1526.0292      1085.3963      1109.9552    
    230000   230000         477.55256     -109.40505      19572.265      19709.115      11386.524      8322.5905      4305.3521      8019.9922     -6416.4177     -91.388866     -2570.9944      12976.245     -7900.1976     -341.20786      85769.313      44.100547      44.100547      44.100547      0.97269679    -13.242852     -910.09334      595.12104    
    231000   231000         478.79744      428.40028      20104.3        19577.18       11416.207      8160.973       4106.3096      8109.45       -6313.9376     -86.00643      -2707.7         12967.2       -7914.3425     -346.8699       84369.279      43.859275      43.859275      43.859275      0.98883783     1128.1718     -262.26115      419.29016    
    232000   232000         472.13122     -306.97321      19149.265      19530.96       11257.261      8273.6991      4229.0137      8016.5233     -6251.521      -91.010194     -2667.0401      12949.692     -7911.9582     -343.25015      85258.998      44.012909      44.012909      44.012909      0.97851884    -572.3157      -1449.6259      1101.022     
    233000   233000         471.39014     -218.60134      19305.808      19575.444      11239.591      8335.8532      4266.3604      8100.4223     -6397.9664     -90.461473     -2620.1076      12975.468     -7897.8619     -346.02032      84576.431      43.895141      43.895141      43.895141      0.98641589    -1469.8475     -282.40979      1096.4533    
    234000   234000         481.06158     -1557.2077      17826.511      19751.355      11470.191      8281.1636      4284.7573      7869.5262     -6226.8785     -90.742738     -2567.4286      12921.492     -7909.5616     -345.285        84756.545      43.926279      43.926279      43.926279      0.98431968    -2213.7894     -678.96        -1778.8736    
    235000   235000         478.2034      -323.01295      19373.965      19774.469      11402.042      8372.4267      4242.3363      8218.6505     -6381.026      -98.372522     -2630.773       12937.168     -7915.5567     -344.2226       85018.135      43.971423      43.971423      43.971423      0.98129105    -1502.1411     -151.63169      684.73392    
    236000   236000         480.10985     -485.3363       19104.747      19707.957      11447.499      8260.4583      4186.6575      8099.0823     -6331.9217     -92.415829     -2660.6501      12952.895     -7893.1887     -343.40029      85221.72       44.006494      44.006494      44.006494      0.97894686    -122.31986      362.33003     -1696.0191    
    237000   237000         477.04483      146.92285      20065.558      19882.335      11374.418      8507.9168      4257.6921      8098.4409     -6268.0795     -87.196485     -2578.676       12984.244     -7898.5083     -342.24347      85509.78       44.05602       44.05602       44.05602       0.97564905    -308.84794      750.99573     -1.3792427    
    238000   238000         480.18383     -420.34409      19266.877      19799.168      11449.263      8349.9052      4234.1272      8052.6692     -6346.6182     -90.046567     -2575.3722      12960.02      -7884.874      -337.04053      86829.805      44.281563      44.281563      44.281563      0.9608168     -674.92786     -467.04015     -119.06428    
    239000   239000         475.07579      566.9177       20279.357      19583.122      11327.469      8255.6531      4247.7184      8060.4294     -6283.3806     -97.98674      -2700.691       12932.653     -7903.0891     -347.529        84209.272      43.831531      43.831531      43.831531      0.99071675     718.37156     -390.08643      1372.468     
    240000   240000         479.89782      987.3961       21279.705      20050.689      11442.443      8608.2459      4366.4094      8175.408      -6299.1564     -93.618035     -2609.3886      12962.895     -7894.3033     -342.89471      85347.374      44.028111      44.028111      44.028111      0.97750559     1558.9881      1094.0316      309.16862    
    241000   241000         470.4344      -133.53186      19483.043      19648.948      11216.802      8432.1451      4207.4554      8166.2699     -6341.9801     -93.071766     -2594.9097      12982.286     -7893.9041     -343.52147      85191.657      44.001318      44.001318      44.001318      0.97929232     819.51902     -77.01218      -1143.1024    
    242000   242000         478.41379      1970.0518      22529.497      20042.173      11407.059      8635.1139      4247.3565      8229.6036     -6332.8218     -92.758547     -2524.5612      13006.944     -7898.6483     -338.04317      86572.267      44.23774       44.23774       44.23774       0.96367507     1400.8387      3170.0613      1339.2554    
    243000   243000         476.1903       145.92287      19815.698      19633.045      11354.043      8279.002       4202.3607      8131.2362     -6386.3543     -91.643327     -2607.4454      12937.878     -7907.0296     -340.97605      85827.622      44.110539      44.110539      44.110539      0.97203596    -402.52729     -124.98886      965.28475    
    244000   244000         480.41222      403.07534      20479.372      19974.514      11454.709      8519.805       4319.6112      8134.4544     -6300.1391     -89.844729     -2576.9678      12947.596     -7914.905      -340.75585      85883.084      44.120038      44.120038      44.120038      0.97140824    -290.53337      830.86911      668.8903     
    245000   245000         472.3619      -556.68208      19108.051      19808.812      11262.761      8546.0516      4223.9787      8325.189      -6385.501      -90.048337     -2605.6663      12982.093     -7903.9937     -339.05016      86315.144      44.1939        44.1939        44.1939        0.96654575    -795.75005      126.19723     -1000.4934    
    246000   246000         469.61365      74.010993      19807.808      19714.81       11197.233      8517.577       4306.6156      7977.9189     -6251.7313     -90.932461     -2534.4359      12999.979     -7889.8372     -339.66427      86159.087      44.16725       44.16725       44.16725       0.96829642     603.05873     -751.11458      370.08883    
    247000   247000         471.57659     -771.58345      18518.535      19488.873      11244.036      8244.8363      4222.6809      8122.1603     -6463.3189     -87.744591     -2638.8537      12986.279     -7896.3664     -339.38048      86231.133      44.179558      44.179558      44.179558      0.96748741    -3117.4092      300.2147       502.44418    
    248000   248000         473.75438      511.84054      20380.693      19738.046      11295.962      8442.0841      4247.3255      8206.5742     -6407.3193     -93.9635       -2562.8707      12965.657     -7913.3195     -339.93         86091.736      44.155739      44.155739      44.155739      0.96905394     963.72331      1011.8856     -440.08728    
    249000   249000         478.03183      231.40571      20101.578      19809.939      11397.952      8411.9871      4358.2611      7993.1983     -6373.7565     -87.377895     -2521.2372      12956.552     -7913.6531     -338.65273      86416.441      44.211182      44.211182      44.211182      0.96541277    -966.76803      486.35983      1174.6253    
    250000   250000         474.90694      946.99015      20792.227      19612.777      11323.443      8289.3341      4208.1493      8185.2062     -6425.4908     -86.064264     -2676.087       12984.317     -7900.6965     -342.68314      85400.068      44.03717       44.03717       44.03717       0.97690245     1093.2339      1319.4933      428.24323    
Loop time of 528.382 on 1 procs for 250000 steps with 8000 atoms

Performance: 40.879 ns/day, 0.587 hours/ns, 473.142 timesteps/s, 3.785 Matom-step/s
100.0% CPU use with 1 MPI tasks x 1 OpenMP threads

MPI task timing breakdown:
Section |  min time  |  avg time  |  max time  |%varavg| %total
---------------------------------------------------------------
Pair    | 63.973     | 63.973     | 63.973     |   0.0 | 12.11
Bond    | 56.342     | 56.342     | 56.342     |   0.0 | 10.66
Kspace  | 248.63     | 248.63     | 248.63     |   0.0 | 47.06
Neigh   | 56.042     | 56.042     | 56.042     |   0.0 | 10.61
Comm    | 9.0571     | 9.0571     | 9.0571     |   0.0 |  1.71
Output  | 2.7538     | 2.7538     | 2.7538     |   0.0 |  0.52
Modify  | 80.957     | 80.957     | 80.957     |   0.0 | 15.32
Other   |            | 10.63      |            |       |  2.01

Nlocal:           8000 ave        8000 max        8000 min
Histogram: 1 0 0 0 0 0 0 0 0 0
Nghost:          20319 ave       20319 max       20319 min
Histogram: 1 0 0 0 0 0 0 0 0 0
Neighs:              0 ave           0 max           0 min
Histogram: 1 0 0 0 0 0 0 0 0 0
FullNghs:  4.77281e+06 ave 4.77281e+06 max 4.77281e+06 min
Histogram: 1 0 0 0 0 0 0 0 0 0

Total # of neighbors = 4772810
Ave neighs/atom = 596.60125
Ave special neighs/atom = 5.7025
Neighbor list builds = 10896
Dangerous builds = 0
System init for write_data ...
PPPM Kokkos initialization ...
  using 12-bit tables for long-range coulomb
  G vector (1/distance) = 0.31208069
  grid = 36 36 36
  stencil order = 5
  estimated absolute RMS force accuracy = 0.00024870308
  estimated relative force accuracy = 7.4896194e-07
  using double precision cuFFT
  3d grid and FFT values/proc = 79507 46656
Generated 15 of 15 mixed pair_coeff terms from sixthpower/sixthpower mixing rule
System init for write_restart ...
PPPM Kokkos initialization ...
  using 12-bit tables for long-range coulomb
  G vector (1/distance) = 0.31208069
  grid = 36 36 36
  stencil order = 5
  estimated absolute RMS force accuracy = 0.00024870308
  estimated relative force accuracy = 7.4896194e-07
  using double precision cuFFT
  3d grid and FFT values/proc = 79507 46656
Generated 15 of 15 mixed pair_coeff terms from sixthpower/sixthpower mixing rule
STAGE COMPLETE: NPT T=500.0->475.0K P=1.0->1.0atm steps=250000
