Authorization required, but no authorization protocol specified

Authorization required, but no authorization protocol specified

Authorization required, but no authorization protocol specified

Authorization required, but no authorization protocol specified

LAMMPS (22 Jul 2025 - Update 3)
KOKKOS mode with Kokkos version 4.6.2 is enabled
  will use up to 1 GPU(s) per node
  using 1 OpenMP thread(s) per MPI task
Reading data file ...
  orthogonal box = (4.6006228 4.6006228 4.6006228) to (46.445929 46.445929 46.445929)
  1 by 1 by 1 MPI processor grid
  reading atoms ...
  6320 atoms
  reading velocities ...
  6320 velocities
  scanning bonds ...
  4 = max bonds/atom
  scanning angles ...
  12 = max angles/atom
  scanning dihedrals ...
  21 = max dihedrals/atom
  scanning impropers ...
  8 = max impropers/atom
  orthogonal box = (4.6006228 4.6006228 4.6006228) to (46.445929 46.445929 46.445929)
  1 by 1 by 1 MPI processor grid
  reading bonds ...
  6310 bonds
  reading angles ...
  11200 angles
  reading dihedrals ...
  13970 dihedrals
  reading impropers ...
  6300 impropers
Finding 1-2 1-3 1-4 neighbors ...
  special bond factors lj:    0        0        1       
  special bond factors coul:  0        0        1       
     4 = max # of 1-2 neighbors
     6 = max # of 1-3 neighbors
    10 = max # of special neighbors
  special bonds CPU = 0.003 seconds
  read_data CPU = 0.253 seconds
PPPM Kokkos initialization ...
  using 12-bit tables for long-range coulomb
  G vector (1/distance) = 0.3380356
  grid = 48 48 48
  stencil order = 5
  estimated absolute RMS force accuracy = 0.00033003703
  estimated relative force accuracy = 9.9389672e-07
  using double precision cuFFT
  3d grid and FFT values/proc = 166375 110592
Generated 21 of 21 mixed pair_coeff terms from sixthpower/sixthpower mixing rule
Neighbor list info ...
  update: every = 1 steps, delay = 0 steps, check = yes
  max neighbors/atom: 4000, page size: 100000
  master list distance cutoff = 11.5
  ghost atom cutoff = 11.5
  binsize = 11.5, bins = 4 4 4
  1 neighbor lists, perpetual/occasional/extra = 1 0 0
  (1) pair lj/class2/coul/long/kk, perpetual
      attributes: full, newton off, kokkos_device
      pair build: full/bin/kk/device
      stencil: full/bin/3d
      bin: kk/device
Setting up Verlet run ...
  Unit style    : real
  Current step  : 0
  Time step     : 1
Per MPI rank memory allocation (min/avg/max) = 44.5 | 44.5 | 44.5 Mbytes
   Step          Time           Temp          Press         Enthalpy        TotEng         KinEng         PotEng         E_bond        E_angle        E_dihed        E_impro         E_vdwl         E_coul         E_long         E_tail         Volume           Lx             Ly             Lz          Density          Pxx            Pyy            Pzz      
         0   0              549.9739      -245.93742      32817.439      33080.248      10359.165      22721.084      4976.0189      7198.198      -5362.6537      345.64126     -2747.39        62326.428     -44015.159     -505.67212      73272.372      41.845306      41.845306      41.845306      1.1436668      329.76961     -1730.3902      662.80832    
      1000   1000           546.96552     -273.65133      32591.186      32885.716      10302.5        22583.217      4804.8067      7087.5388     -5327.0686      376.04226     -2721.657       62370.929     -44007.375     -502.05623      73800.091      41.945525      41.945525      41.945525      1.1354889      251.54438      2426.9192     -3499.4175    
      2000   2000           555.33002      1811.3692      35087.316      33173.492      10460.051      22713.441      4732.9127      7337.6831     -5295.3508      374.4435      -2813.1831      62414.089     -44037.153     -511.4347       72446.777      41.687549      41.687549      41.687549      1.1566999      2686.2578      735.47859      2012.3712    
      3000   3000           542.90175     -1417.0499      31490.382      33023.803      10225.955      22797.848      4736.0977      7289.7066     -5221.3939      359.21818     -2697.3276      62355.319     -44023.773     -499.35424      74199.421      42.021044      42.021044      42.021044      1.1293778     -1949.2928     -823.39095     -1478.4659    
      4000   4000           552.35924     -1049.0749      32248.477      33379.236      10404.094      22975.142      4945.4214      7277.7422     -5260.5008      380.80569     -2684.1641      62338.179     -44022.341     -501.32759      73907.354      41.965837      41.965837      41.965837      1.1338409      107.45251     -1053.4196     -2201.2575    
      5000   5000           538.90802     -718.68041      32159.043      32922.671      10150.731      22771.941      4804.2161      7329.1021     -5284.8609      389.68831     -2831.6422      62383.011     -44017.574     -508.55628      72856.824      41.766051      41.766051      41.766051      1.1501899     -276.67509     -2132.0118      252.64562    
      6000   6000           540.79863     -172.27475      32675.624      32858.105      10186.342      22671.763      4668.6309      7222.4152     -5240.3109      401.11123     -2718.1045      62358.638     -44020.617     -510.14045      72630.578      41.722773      41.722773      41.722773      1.1537727      65.211335     -202.70906     -379.32652    
      7000   7000           547.7385      -137.41722      33016.958      33163.877      10317.059      22846.818      4841.5033      7214.7222     -5263.5536      383.17378     -2662.957       62369.614     -44035.685     -505.41683      73309.382      41.85235       41.85235       41.85235       1.1430894      1792.8192     -306.28276     -1898.7881    
      8000   8000           555.15606     -452.98107      32765.771      33250.852      10456.774      22794.078      4902.3447      7286.3601     -5355.1298      382.74913     -2750.0231      62349.196     -44021.42      -504.6045       73427.399      41.874797      41.874797      41.874797      1.1412522     -81.493664     -727.08214     -550.3674     
      9000   9000           545.34804      494.94502      33563.808      33036.235      10272.033      22764.202      4796.6765      7292.9247     -5324.0268      364.89104     -2739.3537      62388.812     -44015.722     -506.94393      73088.548      41.810283      41.810283      41.810283      1.1465432      190.50708      230.71723      1063.6107    
     10000   10000          550.66584      861.10973      34066.728      33161.89       10372.198      22789.692      4827.5339      7393.1375     -5307.4749      359.89624     -2824.5077      62368.994     -44027.887     -514.24805      72050.435      41.611388      41.611388      41.611388      1.1630628     -799.16002      483.82129      2898.6679    
     11000   11000          544.21698     -404.87178      32537.85       32972.861      10250.729      22722.132      4836.7307      7319.2277     -5415.5574      333.48263     -2767.6507      62431.835     -44015.936     -502.92412      73672.735      41.921383      41.921383      41.921383      1.1374517      125.92356      254.04873     -1594.5876    
     12000   12000          546.76221      416.20357      33359.62       32916.698      10298.67       22618.027      4729.097       7256.2805     -5367.0087      357.20881     -2745.8494      62404.222     -44015.923     -507.76515      72970.34       41.787731      41.787731      41.787731      1.1484006     -185.6513       496.09962      938.16239    
     13000   13000          545.51946      2771.7496      35819.006      32882.239      10275.262      22606.977      4815.9636      7106.3352     -5282.8113      365.28924     -2739.7345      62363.105     -44021.17      -509.99939      72650.666      41.726619      41.726619      41.726619      1.1534537      1714.985       5096.8702      1503.3937    
     14000   14000          546.43543      119.95785      33379.849      33252.014      10292.515      22959.499      4714.7756      7364.6624     -5300.0038      415.68276     -2657.3428      62437.552     -44015.827     -507.06545      73071.032      41.806943      41.806943      41.806943      1.1468181      1356.9657      158.54838     -1155.6405    
     15000   15000          547.28842      182.88941      33310.998      33116.63       10308.582      22808.048      4917.1457      7194.6193     -5315.6407      386.78723     -2774.0067      62424.572     -44025.429     -508.45228      72871.728      41.768898      41.768898      41.768898      1.1499546     -970.0717      -95.24535       1613.9853    
     16000   16000          542.88546     -916.3565       31950.423      32924.321      10225.649      22698.672      4886.9076      7164.7007     -5323.8368      330.7144      -2728.812       62394.636     -44025.638     -508.43586      72874.08       41.769348      41.769348      41.769348      1.1499175     -1931.6799     -1022.4206      205.03097    
     17000   17000          537.91423     -1620.8201      31038.957      32773.803      10132.012      22641.791      4802.1533      7200.8966     -5328.4222      388.32743     -2791.8691      62391.872     -44021.168     -504.84619      73392.246      41.868114      41.868114      41.868114      1.1417988     -417.37498     -2844.0979     -1600.9875    
     18000   18000          538.58563      1805.4814      34815.8        32883.302      10144.658      22738.644      4707.6895      7250.834      -5179.4363      372.49215     -2727.8451      62353.412     -44038.502     -504.84634      73392.225      41.868109      41.868109      41.868109      1.1417992      2489.432       1415.8872      1511.125     
     19000   19000          535.92287      131.31413      33037.88       32898.367      10094.503      22803.864      4777.5414      7286.9703     -5215.3997      371.05802     -2714.7556      62324.458     -44026.008     -508.60666      72849.608      41.764672      41.764672      41.764672      1.1503038      482.87995      83.595799     -172.53336    
     20000   20000          537.84665      612.35125      33566.304      32906.516      10130.739      22775.777      4862.9786      7238.2222     -5391.7898      378.5607      -2708.2771      62411.917     -44015.834     -501.51244      73880.114      41.96068       41.96068       41.96068       1.134259       1087.5244      114.62195      634.90739    
     21000   21000          551.34979     -2872.4344      30066.947      33124.444      10385.081      22739.363      4851.9104      7460.0339     -5359.9269      361.95852     -2882.1305      62337.588     -44030.071     -507.65577      72986.063      41.790732      41.790732      41.790732      1.1481532     -2811.1147     -2320.8912     -3485.2974    
     22000   22000          552.49745     -347.16664      32951.1        33323.287      10406.698      22916.589      4812.0318      7272.2503     -5364.3238      397.26026     -2581.2506      62399.987     -44019.365     -504.03596      73510.222      41.890535      41.890535      41.890535      1.1399664      1386.2113     -171.97082     -2255.7404    
     23000   23000          535.37715      714.38293      33678.167      32914.945      10084.224      22830.721      4894.1231      7337.4329     -5265.8114      377.88545     -2816.1951      62322.319     -44019.033     -505.78408      73256.152      41.842218      41.842218      41.842218      1.14392        880.45797     -403.06844      1665.7593    
     24000   24000          536.40926     -1262.6565      31634.905      32984.761      10103.665      22881.097      4919.3624      7290.7019     -5354.7261      349.63457     -2735.0504      62431.157     -44019.983     -505.45546      73303.78       41.851284      41.851284      41.851284      1.1431768     -1698.1049     -2591.425       501.5605     
     25000   25000          540.82446      728.25015      33524.693      32747.197      10186.828      22560.369      4842.6953      7070.3928     -5301.8972      385.19579     -2797.0349      62368.218     -44007.201     -506.13657      73205.134      41.832503      41.832503      41.832503      1.1447173     -444.53245      866.92146      1762.3615    
     26000   26000          550.86737      130.17242      33169.333      33030.463      10375.994      22654.469      4704.4433      7283.7238     -5282.7323      366.27037     -2709.9662      62328.092     -44035.362     -506.51796      73150.015      41.822001      41.822001      41.822001      1.1455798      70.407534     -1592.0797      1912.1895    
     27000   27000          537.84746     -307.67385      32534.753      32863.789      10130.754      22733.035      4867.9073      7074.6649     -5216.8449      370.49607     -2813.1694      62469.502     -44019.521     -505.28089      73329.105      41.856103      41.856103      41.856103      1.142782       498.12856      345.48387     -1766.634     
     28000   28000          543.06361      912.41959      34056.208      33076.376      10229.004      22847.372      4704.1659      7244.9564     -5239.9798      416.40124     -2690.0662      62420.577     -44008.682     -503.18585      73634.415      41.914113      41.914113      41.914113      1.1380437      1891.7257      373.20809      472.325      
     29000   29000          534.79493     -1351.5643      31291.304      32722.958      10073.258      22649.7        4658.2039      7203.4393     -5165.6564      373.25799     -2787.308       62395.346     -44027.583     -510.13353      72631.564      41.722962      41.722962      41.722962      1.1537571     -238.15371     -528.34429     -3288.1948    
     30000   30000          544.45487     -192.75843      32743.117      32950.703      10255.21       22695.493      4902.5762      7122.0013     -5313.021       360.57962     -2696.4563      62342.536     -44022.722     -501.76467      73842.974      41.953648      41.953648      41.953648      1.1348294      265.07506     -1393.2492      549.89885    
     31000   31000          537.83662     -527.7297       32297.244      32857.55       10130.55       22727          4882.3233      7175.0041     -5291.9422      372.77909     -2799.5772      62419.087     -44030.674     -508.94534      72801.13       41.755406      41.755406      41.755406      1.1510698     -1271.2534      1471.8939     -1783.8296    
     32000   32000          541.85068      2026.303       34999.174      32844.118      10206.158      22637.96       4623.4417      7187.9701     -5273.9102      373.00108     -2678.9097      62421.491     -44015.124     -508.07871      72925.307      41.779133      41.779133      41.779133      1.1491098      1470.4337      3623.129       985.34638    
     33000   33000          544.81301     -1480.4884      31571.45       33162.297      10261.955      22900.342      4947.9849      7373.3434     -5348.1755      359.88948     -2784.7658      62365.622     -44013.557     -502.8769       73679.654      41.922695      41.922695      41.922695      1.1373449     -1548.6453     -316.05804     -2576.762     
     34000   34000          547.55231     -1054.4282      31908.446      33048.184      10313.552      22734.632      4882.1646      7224.1705     -5343.5248      353.4634      -2696.8478      62320.916     -44005.709     -499.91591      74116.056      42.005301      42.005301      42.005301      1.1306481      724.8972       301.75528     -4189.937     
     35000   35000          541.58528      4.6944782      32893.719      32888.698      10201.159      22687.539      4756.5768      7286.792      -5324.7178      354.54536     -2823.8227      62445.359     -44007.194     -505.19371      73341.759      41.858511      41.858511      41.858511      1.1425848      2068.1403     -1978.2697     -75.787162    
     36000   36000          540.27028      189.25451      33103.302      32900.481      10176.39       22724.091      4897.8852      7131.8217     -5332.3765      384.41265     -2686.9176      62346.819     -44017.554     -504.21863      73483.592      41.885476      41.885476      41.885476      1.1403795     -528.3288       896.8939       199.19843    
     37000   37000          555.14286      242.84757      33563.382      33304.877      10456.526      22848.351      4905.6102      7247.8454     -5426.8245      388.40685     -2627.5686      62388.605     -44027.723     -507.63154      72989.546      41.791397      41.791397      41.791397      1.1480984     -1635.1202      1514.5539      849.10894    
     38000   38000          538.423       -1235.9519      31336.157      32661.783      10141.595      22520.189      4858.4109      7067.415      -5370.5729      398.73497     -2798.6613      62390.051     -44025.19      -503.80871      73543.381      41.896833      41.896833      41.896833      1.1394524     -2432.1005      136.88058     -1412.6359    
     39000   39000          539.09783     -1211.8039      31614.28       32899.105      10154.306      22744.799      4927.8189      7251.9251     -5288.1889      367.62811     -2836.3375      62340.03      -44018.077     -509.65182      72700.213      41.736103      41.736103      41.736103      1.1526676     -2889.169      -543.39576     -202.84692    
     40000   40000          533.35282     -88.904645      32542.86       32637.877      10046.094      22591.783      4824.6805      7166.6209     -5349.8089      347.63946     -2756.6845      62367.072     -44007.736     -505.60007      73282.813      41.847294      41.847294      41.847294      1.1435039      1028.1281     -2078.8161      783.97402    
     41000   41000          552.713        1766.9324      34846.301      32959.167      10410.758      22548.409      4708.8463      7073.7518     -5317.8684      385.89078     -2642.0171      62355.318     -44015.512     -505.94386      73233.017      41.837813      41.837813      41.837813      1.1442814      3646.0501      1541.2266      113.52054    
     42000   42000          541.29635      1097.6658      34052.27       32872.884      10195.717      22677.167      4776.7681      7164.4043     -5320.1516      358.29534     -2654.4732      62381.138     -44028.814     -502.92037      73673.286      41.921487      41.921487      41.921487      1.1374432      172.66515     -947.43935      4067.7715    
     43000   43000          535.69104      544.5204       33382.431      32802.146      10090.136      22712.009      4827.2404      7190.8425     -5339.3035      374.35596     -2691.6167      62383.824     -44033.333     -507.05777      73072.138      41.807154      41.807154      41.807154      1.1468007      1464.102       1182.6819     -1013.2227    
     44000   44000          540.08898      150.75065      33017.633      32854.993      10172.975      22682.018      4647.6333      7262.7954     -5286.7596      365.58142     -2753.3947      62474.449     -44028.287     -500.86119      73976.176      41.978859      41.978859      41.978859      1.1327861      401.22536      947.15762     -896.13104    
     45000   45000          542.97456     -1018.9041      31855.373      32944.906      10227.327      22717.579      4870.2369      7279.9805     -5324.7612      374.91634     -2796.2001      62326.089     -44012.682     -505.33359      73321.458      41.854648      41.854648      41.854648      1.1429012     -774.39149     -1161.5102     -1120.8106    
     46000   46000          534.66959     -1339.0848      31335.961      32762.424      10070.897      22691.527      4738.488       7298.7136     -5325.5283      384.28024     -2743.4847      62355.795     -44016.737     -507.2624       73042.661      41.801532      41.801532      41.801532      1.1472635      96.000319     -1808.9926     -2304.262     
     47000   47000          540.11644      747.05671      33704.397      32906.212      10173.492      22732.72       4824.3951      7318.6156     -5383.8208      368.03756     -2722.5555      62344.115     -44016.067     -505.74917      73261.209      41.843181      41.843181      41.843181      1.1438411      621.62611      356.26219      1263.2818    
     48000   48000          538.36498     -60.824013      32848.885      32914.827      10140.502      22774.325      4920.3072      7180.8247     -5322.8049      344.75581     -2680.6364      62356.707     -44024.828     -498.4201       74338.487      42.04728       42.04728       42.04728       1.1272651     -830.26438      107.20627      540.58607    
     49000   49000          543.88931     -640.00895      32354.171      33039.406      10244.557      22794.849      4772.342       7268.4552     -5280.191       413.2246      -2737.7424      62382.663     -44023.902     -504.69837      73413.741      41.872201      41.872201      41.872201      1.1414645     -1563.0583      38.265801     -395.2343     
     50000   50000          549.19745      718.65519      33675.225      32901.437      10344.54       22556.897      4700.7678      7190.9977     -5316.0259      333.84156     -2696.6977      62356.729     -44012.715     -501.861        73828.801      41.950963      41.950963      41.950963      1.1350473      1140.4522      332.83734      682.67599    
     51000   51000          535.05235     -1023.4219      31768.672      32868.437      10078.106      22790.33       5007.2737      7179.21       -5368.6991      350.60086     -2749.1997      62376.136     -44004.991     -502.85185      73683.324      41.923391      41.923391      41.923391      1.1372883     -65.547588      127.96683     -3132.6848    
     52000   52000          541.42336     -2123.467       30620.725      32912.533      10198.109      22714.423      4889.7508      7219.4285     -5265.5636      339.90696     -2849.2107      62400.373     -44020.262     -500.67113      74004.258      41.98417       41.98417       41.98417       1.1323562     -1202.1017     -3471.5888     -1696.7104    
     53000   53000          542.92218     -582.72175      32238.13       32859.661      10226.34       22633.32       4722.2934      7118.9494     -5204.5503      411.11359     -2746.33        62358.726     -44026.882     -506.62208      73134.98       41.819135      41.819135      41.819135      1.1458153      1288.9681     -506.55714     -2530.5762    
     54000   54000          542.80256      1433.9605      34527.558      32994.381      10224.087      22770.293      4795.9062      7218.5946     -5294.1353      373.01148     -2684.8002      62365.04      -44003.323     -505.3938       73312.723      41.852986      41.852986      41.852986      1.1430374      1542.8508      1767.8696      991.16105    
     55000   55000          537.64902      998.52806      33660.711      32600.066      10127.016      22473.05       4705.4685      7023.7532     -5291.2436      408.91964     -2694.3231      62353.1       -44032.625     -508.71582      72833.976      41.761684      41.761684      41.761684      1.1505507     -717.92589      989.05149      2724.4586    
     56000   56000          556.30481     -277.51865      32723.006      33021.123      10478.412      22542.711      4699.4261      7206.6966     -5323.2583      384.89456     -2743.0302      62333.467     -44015.485     -503.02653      73657.736      41.918538      41.918538      41.918538      1.1376834     -1894.5784      2035.7006     -973.67813    
     57000   57000          530.61087      170.12625      32844.669      32660.986      9994.4478      22666.539      4672.7103      7221.0232     -5267.9212      361.24111     -2717.2148      62409.684     -44012.984     -500.48286      74032.098      41.989434      41.989434      41.989434      1.1319304      2780.8002     -1510.4273     -759.9942     
     58000   58000          532.00977      1011.4778      33849.406      32771.511      10020.797      22750.714      4740.1312      7264.62       -5230.5032      395.76723     -2828.4267      62425.195     -44016.07      -507.06664      73070.86       41.80691       41.80691       41.80691       1.1468208      935.50355      1564.4645      534.46523    
     59000   59000          543.96851      662.20328      33509.321      32797.207      10246.049      22551.159      4783.5241      6983.9063     -5333.5997      373.06287     -2636.6735      62400.136     -44019.198     -502.48955      73736.451      41.933464      41.933464      41.933464      1.1364689      340.81886      5.3319055      1640.4591    
     60000   60000          541.21924     -562.54145      32228.053      32824.594      10194.264      22630.33       4634.5537      7211.4406     -5248.6432      365.3706      -2742.3394      62429.149     -44019.202     -509.56445      72712.677      41.738488      41.738488      41.738488      1.15247       -563.85711     -943.34211     -180.42514    
     61000   61000          534.42527     -315.43075      32191.676      32530.894      10066.295      22464.599      4721.5961      7224.5635     -5365.4423      340.50526     -2792.5657      62357.856     -44021.914     -502.46946      73739.398      41.934023      41.934023      41.934023      1.1364234     -122.95741     -1257.3238      433.98896    
     62000   62000          542.18421     -1191.3777      31497.191      32777.618      10212.44       22565.178      4749.1099      7120.1203     -5300.557       359.67895     -2718.2125      62371.916     -44016.878     -502.7821       73693.546      41.92533       41.92533       41.92533       1.1371305     -882.32409     -42.42979      -2649.3792    
     63000   63000          529.44652     -1199.6131      31323.476      32629.44       9972.5164      22656.924      4742.0612      7219.4978     -5335.3436      381.40778     -2723.4276      62395.262     -44022.534     -496.35815      74647.3        42.105423      42.105423      42.105423      1.1226016     -2730.9809     -479.76521     -388.09321    
     64000   64000          541.08722     -1110.4574      31841.268      33032.112      10191.777      22840.334      4802.0837      7351.5825     -5314.0034      379.28938     -2715.9251      62367.295     -44029.988     -503.88598      73532.104      41.894692      41.894692      41.894692      1.1396271     -1257.7953     -589.88463     -1483.6923    
     65000   65000          539.04472      366.39562      33149.241      32757.643      10153.305      22604.338      4843.7388      7129.3039     -5371.2722      358.20134     -2662.3505      62340.015     -44033.299     -505.58555      73284.919      41.847694      41.847694      41.847694      1.143471       1621.9366     -347.24012     -175.50964    
     66000   66000          538.87952      562.16579      33125.954      32527.063      10150.194      22376.869      4574.929       7138.1119     -5303.4531      352.05046     -2744.8296      62396.916     -44036.856     -507.22614      73047.883      41.802528      41.802528      41.802528      1.1471815      828.32497      754.98628      103.18611    
     67000   67000          540.33216      277.84351      33213.603      32916.949      10177.555      22739.394      4791.8781      7268.6581     -5250.9727      359.50046     -2786.5254      62388.677     -44031.822     -506.09869      73210.614      41.833546      41.833546      41.833546      1.1446316      665.53745      2632.6399     -2464.6468    
     68000   68000          535.29506     -1322.1076      31161.312      32576.837      10082.678      22494.159      4794.8173      7132.9615     -5360.2635      353.82771     -2742.2011      62347.746     -44032.729     -504.70146      73413.292      41.872115      41.872115      41.872115      1.1414715      383.08387     -2744.8034     -1604.6033    
     69000   69000          535.61832      291.26314      32986.154      32677.245      10088.767      22588.479      4894.1054      7139.9945     -5376.252       356.543       -2742.5934      62341.6       -44024.919     -509.49515      72722.569      41.74038       41.74038       41.74038       1.1523133      118.38855     -435.81806      1191.2189    
     70000   70000          534.81194      345.32288      32930.407      32564.29       10073.578      22490.712      4643.8933      7202.834      -5314.5064      367.83375     -2828.4937      62443.902     -44024.751     -509.67243      72697.272      41.73554       41.73554       41.73554       1.1527142      868.2127       176.86484     -9.1088964    
     71000   71000          538.65788     -600.44361      32172.389      32813.191      10146.019      22667.172      4851.8049      7204.6772     -5344.0018      377.20217     -2735.1121      62347.288     -44034.686     -506.32923      73177.28       41.827196      41.827196      41.827196      1.145153      -1082.3067      397.81849     -1116.8426    
     72000   72000          541.49973     -99.654373      32919.68       33027.357      10199.547      22827.81       4916.7317      7121.2696     -5304.7299      383.72405     -2618.6605      62346.46      -44016.985     -500.10057      74088.69       42.00013       42.00013       42.00013       1.1310658     -989.75552     -489.59408      1180.3865    
     73000   73000          538.3244       282.1225       32952.601      32649.679      10139.738      22509.941      4732.2094      7171.1083     -5386.8595      359.19199     -2725.384       62377.421     -44017.745     -503.26016      73623.543      41.91205       41.91205       41.91205       1.1382117      178.95789      647.53078      19.878835    
     74000   74000          531.29329      846.74988      33582.366      32676.439      10007.302      22669.137      4687.347       7254.767      -5298.4222      342.57098     -2681.4733      62407.267     -44042.919     -505.06496      73360.456      41.862068      41.862068      41.862068      1.1422936      393.15924      1552.7497      594.3407     
     75000   75000          540.26423     -509.30097      32227.948      32770.094      10176.276      22593.818      4953.5595      7027.5276     -5403.7396      372.95796     -2660.4901      62329.555     -44025.552     -507.62565      72990.393      41.791558      41.791558      41.791558      1.1480851      259.81565     -589.81832     -1197.9003    
     76000   76000          539.7437      -240.95905      32420.997      32678.871      10166.471      22512.4        4770.3899      7166.9844     -5342.9086      337.7888      -2739.2236      62349.579     -44030.21      -504.9173       73381.91       41.866148      41.866148      41.866148      1.1419597     -1024.1199     -473.31383      774.55659    
     77000   77000          526.78992     -1451.035       30878.76       32434.391      9922.4772      22511.914      4653.6486      7225.4424     -5270.872       361.21317     -2738.7149      62325.624     -44044.427     -504.02979      73511.123      41.890707      41.890707      41.890707      1.1399524      142.03106     -2870.7212     -1624.4148    
     78000   78000          533.1233       448.90025      33149.437      32668.213      10041.771      22626.442      4850.3095      7203.674      -5349.6372      357.18508     -2754.3233      62355.103     -44035.869     -504.06655      73505.762      41.889688      41.889688      41.889688      1.1400355      1033.6524      11.195219      301.85315    
     79000   79000          534.93883      2026.7302      34700.441      32531.62       10075.968      22455.652      4485.1302      7263.135      -5311.9384      360.43325     -2721.3628      62408.971     -44028.717     -504.9606       73375.618      41.864951      41.864951      41.864951      1.1420576      3194.2164      1154.8572      1731.1171    
     80000   80000          533.56384      968.54914      33846.144      32806.826      10050.069      22756.757      4860.7903      7189.7365     -5292.8772      339.79717     -2667.7727      62359.269     -44032.186     -503.56845      73578.47       41.903495      41.903495      41.903495      1.138909       1070.9757      2218.1313     -383.45965    
     81000   81000          537.26524      191.16128      33026.884      32822.538      10119.788      22702.75       4784.6189      7198.9246     -5258.1265      365.59231     -2822.0694      62466.479     -44032.669     -505.49617      73297.876      41.850161      41.850161      41.850161      1.1432689      2011.4866      1292.5969     -2730.5997    
     82000   82000          532.10014      1559.9843      34193.763      32524.857      10022.499      22502.357      4817.6112      7025.2531     -5457.1905      379.49243     -2598.3936      62366.55      -44030.965     -505.09539      73356.036      41.861227      41.861227      41.861227      1.1423624      1485.1793      1392.6742      1802.0995    
     83000   83000          536.71449      518.65024      33225.569      32665.663      10109.414      22556.249      4814.1627      7044.7972     -5332.3945      389.27905     -2674.649       62346.347     -44031.293     -500.54662      74022.666      41.987651      41.987651      41.987651      1.1320746      1789.5236     -112.45404     -121.11889    
     84000   84000          539.40631      817.38789      33475.803      32606.194      10160.116      22446.078      4818.0201      7024.5531     -5337.1235      386.50985     -2810.7862      62394.476     -44029.572     -507.91285      72949.121      41.78368       41.78368       41.78368       1.1487346      393.16459      1166.5176      892.48142    
     85000   85000          533.46372      239.56408      33059.274      32802.069      10048.183      22753.885      4740.5027      7329.7375     -5349.7154      388.28618     -2691.1803      62371.962     -44035.707     -503.30087      73617.588      41.91092       41.91092       41.91092       1.1383038      315.98738      919.26043     -516.55557    
     86000   86000          534.16518      662.64882      33290.528      32578.218      10061.396      22516.822      4704.0177      7174.4833     -5402.1837      398.53081     -2689.1108      62362.017     -44030.932     -502.68919      73707.166      41.927912      41.927912      41.927912      1.1369204      287.14913      1326.4016      374.39574    
     87000   87000          523.65303     -2022.4437      30290.008      32451.218      9863.3917      22587.826      4877.471       7161.7084     -5339.2418      383.14776     -2817.4377      62358.133     -44035.955     -505.66696      73273.119      41.845448      41.845448      41.845448      1.1436552     -3356.1441     -334.18591     -2377.0011    
     88000   88000          537.80287     -125.73078      32577.497      32711.917      10129.914      22582.003      4711.5754      7168.3125     -5344.9543      378.49485     -2710.3929      62411.984     -44033.016     -505.43124      73307.292      41.851953      41.851953      41.851953      1.143122       588.90247     -511.73293     -454.36188    
     89000   89000          528.67233      1870.8802      34461.971      32464.34       9957.9338      22506.407      4753.5382      7038.992      -5379.8467      409.06783     -2646.4705      62357.205     -44026.079     -506.0762       73213.867      41.834166      41.834166      41.834166      1.1445807      2219.2413      1177.3154      2216.0838    
     90000   90000          535.80968      1299.1166      34087.501      32710.959      10092.371      22618.588      4875.642       7073.0969     -5310.8861      366.82183     -2753.5732      62410.025     -44042.539     -509.96899      72654.998      41.727449      41.727449      41.727449      1.1533849      1403.1612      2222.5765      271.61203    
     91000   91000          538.88768     -804.4406       31878.905      32739.852      10150.347      22589.504      4712.8302      7153.0499     -5352.8278      366.86835     -2681.0454      62410.022     -44019.393     -504.89735      73384.809      41.866699      41.866699      41.866699      1.1419145     -2823.1337      740.15177     -330.33991    
     92000   92000          533.23418      438.34516      33002.238      32534.967      10043.86       22491.107      4676.7766      7224.094      -5363.2412      364.05505     -2711.7303      62330.418     -44029.265     -506.91148      73093.227      41.811176      41.811176      41.811176      1.1464698      952.36672      726.28912     -363.62035    
     93000   93000          529.19339      251.34064      32790.188      32524.351      9967.7484      22556.603      4742.4648      7246.0156     -5354.9667      358.34013     -2710.0414      62323.207     -44048.416     -510.89596      72523.172      41.702197      41.702197      41.702197      1.1554815      1729.6547     -1661.3698      685.73708    
     94000   94000          537.72051     -311.08715      32553.089      32884.306      10128.363      22755.943      4826.4091      7226.6898     -5251.6192      353.24374     -2810.7908      62444.204     -44032.193     -507.52202      73005.297      41.794403      41.794403      41.794403      1.1478507     -936.0937      -595.21283      598.04507    
     95000   95000          533.34909      2229.245       34964.034      32555.665      10046.024      22509.641      4777.5463      7106.9567     -5410.3994      371.93794     -2717.2708      62415.317     -44034.447     -500.17262      74078.017      41.998113      41.998113      41.998113      1.1312287      2776.4628      3023.2663      888.00598    
     96000   96000          541.10367      684.74528      33661.828      32927.646      10192.087      22735.558      4941.0912      7129.1244     -5370.4996      365.32838     -2659.6414      62356.296     -44026.141     -503.97638      73518.913      41.892186      41.892186      41.892186      1.1398316      41.874394      744.22999      1268.1315    
     97000   97000          538.90635      535.13413      33291.745      32724.228      10150.699      22573.529      4799.1988      7050.0981     -5353.8474      371.13209     -2679.387       62410.426     -44024.092     -509.52916      72717.714      41.739452      41.739452      41.739452      1.1523902     -214.27638      949.45435      870.22441    
     98000   98000          532.27764      1416.5919      34021.521      32502.275      10025.842      22476.433      4656.1269      7118.5963     -5348.3286      369.13785     -2707.6933      62423.245     -44034.652     -503.85079      73537.238      41.895667      41.895667      41.895667      1.1395476      703.32951      2069.3645      1477.0818    
     99000   99000          542.46893     -229.44154      32375.167      32619.345      10217.803      22401.542      4668.2122      7096.2766     -5397.8576      394.75395     -2740.6098      62409.217     -44028.45      -507.7513       72972.331      41.788111      41.788111      41.788111      1.1483692     -174.61167      2.2007884     -515.91373    
    100000   100000         533.3659      -2431.8963      30110.561      32722.574      10046.341      22676.233      4703.9153      7254.4862     -5232.1828      349.63124     -2777.1933      62411.274     -44033.698     -503.10066      73646.884      41.916479      41.916479      41.916479      1.137851      -2766.9319     -3026.7379     -1502.0191    
    101000   101000         536.79876      1341.1667      34219.195      32782.183      10111.001      22671.182      4654.0302      7240.2889     -5340.8312      375.93932     -2668.7677      62442.22      -44031.697     -504.32154      73468.596      41.882627      41.882627      41.882627      1.1406123      1899.2109      2183.6217     -59.332541    
    102000   102000         535.98749      3019.3688      35878.674      32636.723      10095.72       22541.003      4693.7435      6983.6611     -5290.2446      374.54423     -2618.4873      62427.994     -44030.208     -503.26288      73623.144      41.911974      41.911974      41.911974      1.1382179      2105.2224      4050.8118      2902.072     
    103000   103000         535.88646     -279.26815      32384.407      32686.994      10093.817      22593.177      4727.8988      7106.5017     -5304.7903      377.99243     -2643.3451      62359.928     -44031.008     -498.71951      74293.857      42.038864      42.038864      42.038864      1.1279423     -1639.4327      1416.5623     -614.9341     
    104000   104000         529.18755      1220.2763      34063.252      32753.921      9967.6385      22786.282      4649.3464      7242.4423     -5255.356       408.43227     -2675.5051      62444.046     -44027.124     -503.60923      73572.512      41.902364      41.902364      41.902364      1.1390012      2408.6447      513.39601      738.7881     
    105000   105000         532.45449      1255.738       33871.616      32530.561      10029.174      22501.388      4599.0989      7088.3703     -5292.2977      353.21223     -2716.1341      62483.225     -44014.087     -505.985        73227.064      41.836679      41.836679      41.836679      1.1443744      1431.093       765.20787      1570.9133    
    106000   106000         541.76643     -1413.8586      31228.296      32738.518      10204.571      22533.947      4842.563       7124.0927     -5314.3858      367.75964     -2821.5931      62353.124     -44017.613     -505.88305      73241.821      41.83949       41.83949       41.83949       1.1441439     -2215.1946      953.78727     -2980.1683    
    107000   107000         540.64085     -499.36877      32166.292      32703.599      10183.37       22520.229      4845.1914      7059.3148     -5327.016       360.923       -2761.3662      62349.579     -44006.397     -502.20862      73777.698      41.941282      41.941282      41.941282      1.1358335     -560.02838     -2.5391494     -935.53877    
    108000   108000         526.74134     -1502.9247      30870.647      32473.833      9921.5622      22552.271      4709.7704      7249.7975     -5350.9265      318.56465     -2766.3493      62410.414     -44019         -506.56865      73142.694      41.820606      41.820606      41.820606      1.1456945     -1566.5261     -2582.0809     -360.16726    
    109000   109000         527.79898     -15.389672      32518.535      32534.975      9941.4837      22593.491      4726.0171      7158.7195     -5296.9391      354.3629      -2694.4156      62362.763     -44017.016     -505.84784      73246.919      41.84046       41.84046       41.84046       1.1440642     -1358.3986      2483.4579     -1171.2283    
    110000   110000         547.00661      396.54949      33320.323      32897.081      10303.274      22593.808      4669.0141      7185.6367     -5272.4629      378.89841     -2732.3005      62386.294     -44021.272     -506.28425      73183.782      41.828435      41.828435      41.828435      1.1450512      278.47713      457.86063      453.31071    
    111000   111000         544.33159     -14.110503      32798.254      32813.292      10252.888      22560.404      4605.4223      7146.4438     -5278.9761      372.34402     -2712.9686      62439.172     -44011.034     -507.05183      73072.995      41.807318      41.807318      41.807318      1.1467873      616.36504     -21.396593     -637.29996    
    112000   112000         537.74024     -326.70344      32267.695      32616.207      10128.735      22487.472      4750.5236      7028.1433     -5332.3163      384.01591     -2816.7799      62499.889     -44026.004     -506.5492       73145.502      41.821141      41.821141      41.821141      1.1456505     -170.64816      416.92371     -1226.3859    
    113000   113000         538.46873      626.59801      33280.875      32612.818      10142.456      22470.362      4684.5678      7072.2142     -5253.515       377.79092     -2752.908       62364.875     -44022.663     -506.82822      73105.234      41.813465      41.813465      41.813465      1.1462816      457.67438      2386.7179     -964.59824    
    114000   114000         531.86301      1022.9174      33664.495      32575.348      10018.033      22557.315      4752.4892      7176.5439     -5309.7772      387.96747     -2789.4734      62367.309     -44027.744     -507.50383      73007.913      41.794902      41.794902      41.794902      1.1478096      2438.8633      493.18258      136.7063     
    115000   115000         528.34114     -797.28487      31558.868      32407.285      9951.6957      22455.589      4718.7481      7126.5788     -5288.4297      371.99736     -2819.001       62370.014     -44024.318     -507.79651      72965.834      41.786871      41.786871      41.786871      1.1484715     -792.59498     -438.7618      -1160.4978    
    116000   116000         535.34114      853.42179      33397.833      32489.509      10083.546      22405.963      4784.5053      7139.4979     -5328.2164      357.37839     -2876.9783      62358.488     -44028.712     -507.70116      72979.537      41.789487      41.789487      41.789487      1.1482559      1433.5166      624.59604      502.15276    
    117000   117000         531.00685     -106.09807      32363.772      32476.519      10001.906      22474.613      4672.0365      7131.3841     -5281.9729      407.37171     -2769.4436      62351.254     -44036.018     -508.49585      72865.483      41.767705      41.767705      41.767705      1.1500532     -1045.6079      590.23017      137.08349    
    118000   118000         519.38365     -500.46221      31870.271      32404.647      9782.9747      22621.672      4732.8327      7173.0818     -5254.953       384.34505     -2756.1452      62381.109     -44038.598     -506.06843      73214.992      41.83438       41.83438       41.83438       1.1445631     -1279.9554     -683.37691      461.94569    
    119000   119000         527.80613     -5.5351879      32474.953      32480.88       9941.6183      22539.262      4923.9593      7148.0632     -5445.255       363.67247     -2815.8136      62388.673     -44024.038     -504.66244      73418.969      41.873194      41.873194      41.873194      1.1413832      160.20709      187.0903      -363.90296    
    120000   120000         521.20415      852.69432      33202.98       32295.667      9817.2651      22478.402      4773.4753      6942.4044     -5256.3505      376.63194     -2738.2306      62422.826     -44042.354     -507.83389      72960.463      41.785845      41.785845      41.785845      1.1485561      1693.2052      1212.7997     -347.92199    
    121000   121000         536.90225      1113.5257      33716.475      32546.834      10112.95       22433.883      4723.3972      7181.2477     -5323.6316      351.11656     -2856.2659      62392.109     -44034.09      -514.43757      72023.892      41.606277      41.606277      41.606277      1.1634914      2235.8553      324.66363      780.05812    
    122000   122000         531.45199      53.815033      32573.445      32515.995      10010.291      22505.705      4733.8165      7110.0578     -5249.424       337.0572      -2826.9181      62429.461     -44028.346     -506.17888      73199.015      41.831337      41.831337      41.831337      1.144813      -357.58228     -85.218676      604.24605    
    123000   123000         532.04259     -375.5912       32267.769      32668.749      10021.415      22647.334      4780.3001      7242.6358     -5359.1682      347.61809     -2743.4257      62411.249     -44031.875     -506.14797      73203.486      41.832189      41.832189      41.832189      1.144743      -602.62992      21.829006     -545.97269    
    124000   124000         534.01463     -1107.621       31282.858      32474.033      10058.56       22415.473      4691.7695      7070.2887     -5233.8659      364.54018     -2791.7397      62351.455     -44036.976     -502.4591       73740.918      41.934311      41.934311      41.934311      1.1364        -843.11497     -1697.2948     -782.45306    
    125000   125000         532.14923     -342.06408      32079.892      32448.661      10023.424      22425.237      4682.859       7072.8582     -5238.3163      359.18251     -2792.6791      62370.466     -44029.133     -501.23065      73921.648      41.968542      41.968542      41.968542      1.1336217      101.60291     -2980.0832      1852.2881    
    126000   126000         531.39673     -729.17499      31673.781      32450.675      10009.25       22441.425      4594.0095      7186.7419     -5283.8167      365.27527     -2819.6491      62417.767     -44018.903     -507.17169      73055.726      41.804024      41.804024      41.804024      1.1470584     -631.74749     -1806.2072      250.42977    
    127000   127000         536.54508      663.69343      33525.011      32808.929      10106.223      22702.707      4837.304       7120.7204     -5324.4427      411.4695      -2674.0931      62365.934     -44034.186     -500.82967      73980.832      41.979739      41.979739      41.979739      1.1327148      1200.2115      264.2424       526.62642    
    128000   128000         532.62406      1571.9696      34117.25       32440.378      10032.368      22408.01       4647.8757      6967.9598     -5235.9838      343.61643     -2709.8984      62412.025     -44017.584     -506.5581       73144.218      41.820896      41.820896      41.820896      1.1456706      293.63038      3668.1019      754.17638    
    129000   129000         525.92366      861.44992      33393.979      32463.017      9906.1606      22556.857      4738.7859      7133.7848     -5324.6716      361.76094     -2749.0389      62425.012     -44028.776     -500.01534      74101.319      42.002517      42.002517      42.002517      1.130873       1005.7965      750.1376       828.41569    
    130000   130000         537.00605      177.82805      32908.186      32718.98       10114.906      22604.074      4687.1116      7134.759      -5246.1824      382.26256     -2694.1639      62382.601     -44042.313     -507.86609      72955.837      41.784962      41.784962      41.784962      1.1486289     -1370.4494      957.93343      946.00015    
    131000   131000         526.60433     -638.59637      31792.25       32471.703      9918.9815      22552.722      4727.1967      7233.6749     -5337.0086      406.86719     -2852.2065      62402.859     -44028.661     -507.86911      72955.403      41.78488       41.78488       41.78488       1.1486357      1380.8122     -1103.3245     -2193.2768    
    132000   132000         534.00011     -1846.0139      30735.994      32721.141      10058.287      22662.854      4827.9317      7137.0887     -5238.911       378.61386     -2733.7044      62327.321     -44035.486     -502.4902       73736.355      41.933446      41.933446      41.933446      1.1364703     -2729.5512     -1590.4211     -1218.0695    
    133000   133000         528.21473     -2041.4716      30199.017      32388.057      9949.3145      22438.742      4673.3508      7116.4387     -5268.2204      321.20142     -2765.9582      62397.759     -44035.829     -503.93541      73524.891      41.893322      41.893322      41.893322      1.1397389     -2075.6532     -1535.3947     -2513.3669    
    134000   134000         530.26332      264.23434      32873.671      32591.53       9987.9013      22603.629      4730.0901      7163.5143     -5234.3173      353.86681     -2695.5677      62320.564     -44034.522     -506.06645      73215.277      41.834435      41.834435      41.834435      1.1445587      1113.1495      56.217936     -376.66441    
    135000   135000         535.05484      485.52712      33174.523      32655.969      10078.153      22577.816      4830.7638      7009.1086     -5246.0449      394.25663     -2788.9598      62404.7       -44026.009     -505.94662      73232.619      41.837737      41.837737      41.837737      1.1442876      967.52709     -394.56593      883.6202     
    136000   136000         532.49648      937.60503      33576.984      32561.163      10029.965      22531.198      4761.3255      7097.3428     -5334.7459      351.56703     -2711.8036      62396.5       -44028.988     -498.75551      74288.494      42.037852      42.037852      42.037852      1.1280237      2732.2452     -273.92923      354.49909    
    137000   137000         537.49455      601.25014      33409.158      32771.236      10124.107      22647.129      4722.1351      7238.1775     -5304.3509      381.85871     -2755.7527      62404.745     -44039.683     -509.29883      72750.6        41.745743      41.745743      41.745743      1.1518693     -1771.2027      614.83472      2960.1184    
    138000   138000         528.1385       1125.8041      33703.184      32503.687      9947.8788      22555.809      4666.066       7109.0962     -5345.7928      378.1414      -2705.3233      62477.575     -44023.954     -507.16481      73056.717      41.804213      41.804213      41.804213      1.1470428      2094.4158      1522.7338     -239.73743    
    139000   139000         527.82483      959.2362       33381.64       32361.679      9941.9706      22419.709      4575.9697      7212.239      -5271.5445      376.76359     -2835.95        62387.043     -44024.812     -508.19121      72909.163      41.77605       41.77605       41.77605       1.1493642      2047.71        75.150869      754.84775    
    140000   140000         541.70805     -292.81385      32425.199      32736.962      10203.471      22533.491      4849.6376      7015.8084     -5286.2589      339.79051     -2804.7568      62435.651     -44016.381     -507.51828      73005.835      41.794506      41.794506      41.794506      1.1478422      2751.4559     -829.55088     -2800.3466    
    141000   141000         530.04972     -153.39277      32346.459      32511.001      9983.878       22527.123      4698.5712      6982.1075     -5212.0923      373.83787     -2798.1269      62499.201     -44016.375     -503.74671      73552.433      41.898552      41.898552      41.898552      1.1393122     -738.994       -349.83072      628.64641    
    142000   142000         542.20778      1359.5373      34021.298      32572.617      10212.884      22359.733      4563.7084      7015.1407     -5213.1318      340.57211     -2732.8356      62421.969     -44035.69      -507.11154      73064.391      41.805677      41.805677      41.805677      1.1469223      2701.9512      1620.7195     -244.05888    
    143000   143000         526.09802     -957.29049      31228.939      32250.147      9909.4449      22340.703      4651.626       7109.4255     -5305.7071      361.75025     -2807.7924      62368.743     -44037.343     -506.5409       73146.7        41.821369      41.821369      41.821369      1.1456317     -1029.4681     -1844.3915      1.9881733    
    144000   144000         535.09632     -73.106162      32590.534      32668.508      10078.934      22589.573      4695.0628      7088.4097     -5201.8839      383.85892     -2763.4493      62423.617     -44036.041     -506.62737      73134.216      41.81899       41.81899       41.81899       1.1458273      1046.5322     -2029.0788      763.22812    
    145000   145000         526.98342      1498.3301      34027.358      32421.004      9926.1221      22494.882      4520.5149      7149.8258     -5186.5218      398.37697     -2810.8804      62447.911     -44024.344     -504.02409      73511.954      41.890864      41.890864      41.890864      1.1399395      1973.5422      2876.0336     -354.58559    
    146000   146000         531.18539     -774.1583       31640.834      32460.468      10005.269      22455.199      4754.9973      7101.456      -5296.7167      353.74712     -2808.2567      62370.111     -44020.139     -510.38109      72596.334      41.716215      41.716215      41.716215      1.154317      -592.41966     -1990.4822      260.42694    
    147000   147000         532.54602     -312.55868      32179.55       32511.478      10030.898      22480.58       4745.4465      7115.1109     -5300.978       323.75701     -2752.4233      62374.092     -44024.425     -508.82938      72817.721      41.758577      41.758577      41.758577      1.1508075     -1625.7417      180.52985      507.53582    
    148000   148000         531.66334      60.588687      32602.44       32537.421      10014.272      22523.149      4612.7468      7075.8473     -5220.1587      379.31963     -2681.0135      62384.657     -44028.249     -503.53539      73583.3        41.904412      41.904412      41.904412      1.1388342      1478.4766     -1721.9449      425.23437    
    149000   149000         531.1211      -300.44629      32132.239      32453.441      10004.058      22449.383      4656.4497      7104.0304     -5274.083       366.69461     -2755.9798      62381.793     -44029.522     -505.4446       73305.354      41.851584      41.851584      41.851584      1.1431523     -1242.4453      291.76368      49.342791    
    150000   150000         535.19049     -979.70931      31439.25       32481.356      10080.708      22400.648      4685.8123      7037.6954     -5247.8061      370.50692     -2784.6967      62374.339     -44035.203     -508.00758      72935.518      41.781083      41.781083      41.781083      1.1489489     -534.77834     -1733.6374     -670.71218    
    151000   151000         531.51382      271.45833      32933.183      32643.899      10011.455      22632.443      4687.226       7144.8463     -5234.9601      376.942       -2761.3849      62449.571     -44029.797     -507.06479      73071.128      41.806961      41.806961      41.806961      1.1468166      1264.6206     -83.325978     -366.91962    
    152000   152000         529.11868      490.19671      32806.965      32286.298      9966.3411      22319.957      4665.5182      6986.9748     -5267.0391      359.73393     -2788.6722      62389.971     -44026.53      -508.73922      72830.625      41.761044      41.761044      41.761044      1.1506036     -532.16151      1347.9207      654.83091    
    153000   153000         539.50036      1656.1669      34514.377      32750.313      10161.888      22588.425      4608.0566      7191.3653     -5252.8042      376.49069     -2702.9057      62395.957     -44027.734     -507.31177      73035.553      41.800176      41.800176      41.800176      1.1473752      3282.2939     -457.85747      2144.0642    
    154000   154000         536.48445      171.83935      32774.014      32588.929      10105.081      22483.848      4760.064       7020.3061     -5385.7728      370.64492     -2660.9291      62398.894     -44019.36      -501.69182      73853.697      41.955678      41.955678      41.955678      1.1346647      667.07567      608.1577      -759.71532    
    155000   155000         529.49021     -1394.0481      31118.244      32624.132      9973.3393      22650.793      4646.6101      7249.2167     -5218.0164      371.57581     -2773.4542      62387.835     -44012.974     -500.23077      74069.406      41.996486      41.996486      41.996486      1.1313602     -2099.2185     -1390.4738     -692.45195    
    156000   156000         528.5215       1014.5041      33880.303      32792.898      9955.0928      22837.805      4914.7941      7189.1758     -5296.9469      361.88673     -2752.7383      62433.127     -44011.493     -504.13584      73495.659      41.887769      41.887769      41.887769      1.1401923      996.30956      1904.0992      143.10359    
    157000   157000         526.38413     -50.394518      32396.19       32450.341      9914.8338      22535.507      4791.385       7158.833      -5285.5216      336.68649     -2846.7438      62409.112     -44028.244     -502.87845      73679.426      41.922652      41.922652      41.922652      1.1373485      1100.7081     -879.81459     -372.0771     
    158000   158000         530.42708     -310.72001      32271.802      32606.243      9990.9859      22615.257      4780.865       7153.2681     -5243.4442      354.80812     -2751.566       62342.756     -44021.43      -502.03565      73803.116      41.946098      41.946098      41.946098      1.1354423      547.4863      -1480.8146      1.1682812    
    159000   159000         526.40299      2729.1375      35362.123      32443.846      9915.1892      22528.657      4654.571       7092.2755     -5301.5698      330.6582      -2674.5313      62454.246     -44026.992     -505.3405       73320.455      41.854458      41.854458      41.854458      1.1429168      1117.2025      4884.7779      2185.4322    
    160000   160000         527.91285      1301.2142      33817.456      32426.946      9943.6286      22483.317      4651.9744      7018.0367     -5246.7298      387.58308     -2691.4674      62388.241     -44024.321     -505.66146      73273.917      41.8456        41.8456        41.8456        1.1436427      1565.0717      1309.6425      1028.9283    
    161000   161000         522.14631      147.3448       32400.627      32242.293      9835.0115      22407.281      4720.9765      7088.3077     -5303.8206      351.54524     -2741.8494      62335.726     -44043.605     -502.85659      73682.63       41.923259      41.923259      41.923259      1.137299      -787.33553      106.42325      1122.9467    
    162000   162000         525.61664     -935.69229      31339.048      32339.405      9900.3777      22439.027      4772.5838      7008.4243     -5242.6486      347.74847     -2803.0364      62383.599     -44027.643     -505.43229      73307.14       41.851924      41.851924      41.851924      1.1431244     -2132.0628     -823.72815      148.71414    
    163000   163000         532.42498     -1064.716       31419.286      32553.294      10028.618      22524.676      4743.8677      7173.4628     -5281.9517      345.10305     -2778.3222      62354.778     -44032.261     -507.3442       73030.885      41.799285      41.799285      41.799285      1.1474485     -161.87477     -1335.3838     -1696.8894    
    164000   164000         531.34929     -1138.2765      31254.507      32463.193      10008.356      22454.836      4746.3251      7206.7244     -5360.3492      358.81924     -2816.4347      62361.895     -44042.143     -508.88489      72809.778      41.757059      41.757059      41.757059      1.1509331     -672.43239     -1952.9864     -789.41083    
    165000   165000         525.36486      398.4046       32643.226      32221.595      9895.6352      22325.96       4571.4024      7014.2413     -5287.5127      394.28814     -2731.3667      62396.527     -44031.619     -510.59575      72565.813      41.710368      41.710368      41.710368      1.1548025     -131.07919     -73.584606      1399.8776    
    166000   166000         536.76374     -1640.0638      30755.969      32512.781      10110.342      22402.44       4800.138       7006.2506     -5254.4149      366.78907     -2831.3478      62336.727     -44021.702     -504.4529       73449.465      41.878991      41.878991      41.878991      1.1409093     -633.4043      -1690.3276     -2596.4594    
    167000   167000         535.0581       680.85665      33043.816      32327.097      10078.215      22248.882      4653.8418      7089.1424     -5296.4256      349.07375     -2851.1529      62342.396     -44037.994     -513.32426      72180.098      41.636335      41.636335      41.636335      1.1609735      430.50434      149.43546      1462.6302    
    168000   168000         524.73535     -2451.6811      29752.262      32368.034      9883.778       22484.256      4738.6383      7100.5022     -5238.7505      385.66172     -2805.2941      62335.054     -44031.555     -506.4648       73157.691      41.823464      41.823464      41.823464      1.1454596     -1319.2228     -3696.3138     -2339.5067    
    169000   169000         528.41804      913.52451      33206.123      32238.235      9953.1442      22285.091      4522.2589      7119.6679     -5283.1799      330.13501     -2824.5875      62459.626     -44038.829     -510.01183      72648.895      41.72628       41.72628       41.72628       1.1534818      1495.6822      515.46085      729.43044    
    170000   170000         521.77805      1715.3287      34272.787      32464.262      9828.0751      22636.187      4690.7461      7161.5515     -5234.8666      412.65818     -2767.9503      62404.646     -44030.597     -512.51667      72293.836      41.658192      41.658192      41.658192      1.159147       1002.2681      2118.6562      2025.0618    
    171000   171000         532.7423      -140.15314      32198.654      32348.35       10034.595      22313.755      4619.3797      6986.1001     -5195.2856      312.06954     -2810.6649      62429.878     -44027.722     -505.9152       73237.167      41.838603      41.838603      41.838603      1.1442166     -586.56805     -497.43388      663.54252    
    172000   172000         517.76164     -873.30192      31333.386      32270.435      9752.4229      22518.012      4689.5219      7054.4492     -5292.7799      421.52071     -2685.4029      62358.576     -44027.873     -503.60178      73573.599      41.902571      41.902571      41.902571      1.1389844     -1033.4681     -989.43584     -597.00186    
    173000   173000         541.30167     -368.79843      32302.301      32697.831      10195.817      22502.014      4723.4027      7041.0817     -5300.6996      349.71562     -2657.9863      62374.847     -44028.346     -503.84275      73538.413      41.89589       41.89589       41.89589       1.1395294     -1141.0861     -674.90226      709.59303    
    174000   174000         526.44541     -75.387069      32313.843      32394.222      9915.9883      22478.234      4502.4021      7110.5515     -5201.0506      368.13818     -2725.6723      62449.637     -44025.773     -506.80693      73108.305      41.81405       41.81405       41.81405       1.1462334     -60.406809      23.129457     -188.88385    
    175000   175000         529.58145     -1390.4974      31037.744      32502.911      9975.0579      22527.853      4789.3996      7116.9676     -5303.5047      366.11781     -2836.9329      62432.17      -44036.365     -512.82383      72250.535      41.649874      41.649874      41.649874      1.1598417     -776.4658      -2636.2238     -758.80251    
    176000   176000         513.88452     -1027.9488      31276.604      32372.547      9679.3946      22693.152      4749.2441      7242.893      -5258.2051      356.74998     -2801.8124      62432.15      -44027.868     -506.8376       73103.882      41.813207      41.813207      41.813207      1.1463028      33.653073     -2495.8253     -621.67415    
    177000   177000         528.93377     -1002.6441      31629.968      32707.307      9962.8583      22744.448      4774.8549      7226.5581     -5206.8783      333.54878     -2750.9173      62403.701     -44036.419     -502.89778      73676.594      41.922115      41.922115      41.922115      1.1373922     -1321.981      -2.2466883     -1683.7047    
    178000   178000         531.35666     -395.92656      32045.62       32465.051      10008.495      22456.556      4700.7722      7174.9485     -5394.8661      382.58365     -2783.2489      62393.76      -44017.394     -510.08065      72639.094      41.724404      41.724404      41.724404      1.1536375     -785.12701      819.88261     -1222.5353    
    179000   179000         534.07457     -341.23884      31962.155      32329.01       10059.689      22269.321      4663.2593      6974.3053     -5295.6317      354.02575     -2751.6274      62358.949     -44033.96      -502.63113      73715.68       41.929527      41.929527      41.929527      1.1367891     -435.89749     -298.12421     -289.69481    
    180000   180000         529.37842      359.70402      32672.064      32288.228      9971.2336      22316.995      4587.5661      7167.0533     -5333.2782      367.17177     -2811.7468      62383.056     -44042.828     -506.3898       73168.526      41.825528      41.825528      41.825528      1.14529        716.10553     -334.87289      697.87942    
    181000   181000         534.75959      672.8151       33215.513      32503.593      10072.592      22431.002      4583.9839      7176.1344     -5241.2973      361.38171     -2794.8376      62388.7       -44043.064     -510.68124      72553.666      41.708041      41.708041      41.708041      1.1549958      341.06601      1605.1588      72.220473    
    182000   182000         528.72049     -299.58965      32069.819      32388.336      9958.8411      22429.495      4695.2029      7103.3236     -5249.9106      354.1976      -2785.1965      62343.796     -44031.918     -508.25204      72900.438      41.774383      41.774383      41.774383      1.1495018     -1003.4528      743.29257     -638.60875    
    183000   183000         533.62641     -414.26541      32016.062      32461.609      10051.248      22410.361      4734.9533      7054.5411     -5343.2364      389.44721     -2779.0616      62377.219     -44023.502     -502.42476      73745.959      41.935267      41.935267      41.935267      1.1363223     -251.36512     -233.26801     -758.16309    
    184000   184000         523.94714      192.57228      32172.029      31966.577      9868.9315      22097.646      4549.1043      6974.7636     -5310.4535      347.7725      -2832.4961      62402.478     -44033.522     -506.48835      73154.291      41.822816      41.822816      41.822816      1.1455129      761.95487     -1191.3543      1007.1163    
    185000   185000         524.57235     -885.12011      31452.621      32400.399      9880.7077      22519.692      4896.7329      7074.8607     -5352.4839      375.52628     -2819.8705      62358.678     -44013.752     -504.63852      73422.448      41.873856      41.873856      41.873856      1.1413292     -2127.8475     -77.59619      -449.91661    
    186000   186000         523.26673     -126.38836      32117.859      32252.187      9856.1155      22396.072      4566.7594      7097.1128     -5220.2339      368.81789     -2859.3553      62459.173     -44016.202     -508.42444      72875.718      41.769661      41.769661      41.769661      1.1498917     -292.89059      306.81298     -393.08746    
    187000   187000         530.99971      664.35617      33109.896      32402.249      10001.772      22400.478      4694.6547      7008.3986     -5254.8785      379.80708     -2815.2216      62408.847     -44021.13      -507.30588      73036.401      41.800337      41.800337      41.800337      1.1473619      152.58812      603.96098      1236.5194    
    188000   188000         535.09776     -123.59543      32394.388      32527.061      10078.962      22448.1        4852.4531      6959.984      -5350.6534      359.81182     -2722.7734      62385.966     -44036.689     -503.38971      73604.595      41.908454      41.908454      41.908454      1.1385047     -1054.1254     -359.36175      1042.7009    
    189000   189000         518.48635      360.19046      32583.7        32201.664      9766.0735      22435.59       4727.9203      7052.0713     -5293.9152      359.71995     -2757.6228      62365.345     -44017.928     -509.4636       72727.072      41.741242      41.741242      41.741242      1.1522419      104.00218      231.9878       744.5814     
    190000   190000         529.17779      611.52671      32973.532      32321.063      9967.4546      22353.608      4754.0275      6955.6517     -5283.6995      357.3853      -2780.1888      62381.398     -44030.967     -506.4544       73159.194      41.82375       41.82375       41.82375       1.1454361      2028.5518     -557.46363      363.49196    
    191000   191000         530.64123     -279.06381      32072.89       32371.424      9995.0196      22376.404      4802.6044      7109.5985     -5367.9087      347.58845     -2882.9044      62378.081     -44010.655     -505.11974      73352.499      41.860554      41.860554      41.860554      1.1424175     -1732.0881      967.78069     -72.884062    
    192000   192000         529.06875      874.37332      33107.484      32182.53       9965.4008      22217.129      4624.9004      7058.7363     -5351.4693      367.28083     -2836.5194      62370.686     -44016.486     -510.81276      72534.984      41.70446       41.70446       41.70446       1.1552933     -627.75005      1174.4465      2076.4235    
    193000   193000         536.10096     -542.57721      31765.224      32340.062      10097.858      22242.204      4644.1618      7015.2722     -5377.1916      366.00217     -2815.0118      62423.559     -44014.587     -510.03644      72645.39       41.725609      41.725609      41.725609      1.1535375     -179.79596     -173.12024     -1274.8154    
    194000   194000         533.87667     -2012.8979      30229.077      32385.578      10055.962      22329.616      4683.0401      7014.9835     -5277.9426      357.74332     -2806.5709      62397.683     -44039.32      -504.37943      73460.165      41.881025      41.881025      41.881025      1.1407432     -2317.7302     -1626.4189     -2094.5445    
    195000   195000         527.34965      448.00268      32781.945      32304.003      9933.0202      22370.983      4796.4849      6996.6339     -5308.6406      356.61504     -2868.7132      62417.081     -44018.479     -506.51276      73150.765      41.822144      41.822144      41.822144      1.1455681      38.561263      1501.7681     -196.32127    
    196000   196000         535.12151      793.92446      33229.641      32383.535      10079.409      22304.126      4594.2659      7038.8527     -5284.0429      381.38954     -2833.8855      62449.659     -44042.113     -507.03687      73075.151      41.807729      41.807729      41.807729      1.1467534      2144.3143      840.11382     -602.65476    
    197000   197000         517.97003      1278.1749      33725.696      32360.78       9756.3481      22604.432      4738.9025      7161.8517     -5253.4048      369.79104     -2767.0172      62373.003     -44018.695     -506.0222       73221.681      41.835654      41.835654      41.835654      1.1444586      550.7707       3823.8259     -540.07189    
    198000   198000         518.24279     -751.94324      31264.615      32064.363      9761.4857      22302.878      4602.1399      7088.028      -5288.3776      342.18233     -2834.8731      62418.357     -44024.579     -508.06197      72927.71       41.779592      41.779592      41.779592      1.1490719     -2978.7916     -56.298391      779.2603     
    199000   199000         534.04928      985.75833      33450.898      32400.156      10059.213      22340.943      4724.3971      7113.8533     -5383.4359      361.93036     -2771.7319      62331.259     -44035.328     -506.94326      73088.645      41.810302      41.810302      41.810302      1.1465417      1212.3965      820.94932      923.9292     
    200000   200000         521.82216     -3558.0707      28264.957      32028.284      9828.9058      22199.378      4631.6522      6998.543      -5231.1764      358.83223     -2876.6581      62358.653     -44040.468     -510.8904       72523.961      41.702348      41.702348      41.702348      1.1554689     -3590.2575     -2615.7497     -4468.205     
    201000   201000         530.53768     -427.59666      31730.982      32183.967      9993.0691      22190.898      4843.9113      7001.1497     -5305.9688      320.31497     -2995.7172      62379.787     -44052.579     -510.07656      72639.676      41.724515      41.724515      41.724515      1.1536282     -834.17606     -1147.6585      699.04457    
    202000   202000         525.37979     -590.82469      31494.376      32111.043      9895.9165      22215.127      4567.591       7219.4331     -5291.3388      350.37796     -2924.4155      62336.089     -44042.61      -517.71791      71567.537      41.518217      41.518217      41.518217      1.1709105     -2202.9901      583.08243     -152.56636    
    203000   203000         518.83867     -1120.2747      30966.056      32157.731      9772.7096      22385.022      4637.2266      7115.375      -5304.4879      367.29747     -2731.1033      62331.824     -44031.11      -507.98617      72938.592      41.78167       41.78167       41.78167       1.1489004     -1783.0378      434.12011     -2011.9064    
    204000   204000         526.30683     -1611.3537      30614.243      32324.485      9913.378       22411.107      4696.9252      7044.1879     -5269.0481      361.61456     -2729.5405      62345.226     -44038.258     -509.11785      72776.462      41.750689      41.750689      41.750689      1.1514599     -1679.9315     -1435.774      -1718.3556    
    205000   205000         517.96632      820.1595       32848.86       31981.994      9756.2783      22225.716      4565.7306      7056.177      -5324.8374      369.61999     -2783.0508      62365.265     -44023.189     -511.24776      72473.267      41.692629      41.692629      41.692629      1.1562771      933.12789      809.47404      717.87658    
    206000   206000         533.62941      1565.2903      33985.858      32312.243      10051.304      22260.939      4662.5195      7000.4385     -5232.6664      374.04844     -2863.9717      62360.586     -44040.015     -505.38741      73313.651      41.853163      41.853163      41.853163      1.1430229      1386.9248      436.17569      2872.7702    
    207000   207000         527.44664      272.83         32375.661      32088.545      9934.847       22153.698      4559.7869      7008.786      -5233.2845      346.27784     -2865.0542      62393.114     -44055.928     -513.47475      72158.944      41.632267      41.632267      41.632267      1.1613138     -1153.0097      1526.0417      445.45805    
    208000   208000         523.71434     -1186.0301      31065.617      32316.476      9864.5464      22451.929      4675.1116      7237.7254     -5291.7154      357.10541     -2875.1573      62379.126     -44030.266     -512.35702      72316.363      41.662519      41.662519      41.662519      1.1587859     -1570.4783      149.6276      -2137.2396    
    209000   209000         529.94579     -547.00333      31536.268      32115.862      9981.9204      22133.942      4580.5689      7039.7664     -5398.8282      376.80593     -2775.9375      62354.337     -44042.771     -509.97757      72653.775      41.727215      41.727215      41.727215      1.1534044     -193.71135     -955.64382     -491.65483    
    210000   210000         516.30919      122.27498      32277.961      32147.509      9725.0649      22422.444      4638.3209      7106.0038     -5282.4893      360.99804     -2786.4928      62412.252     -44026.149     -506.49188      73153.78       41.822718      41.822718      41.822718      1.1455209      666.83312      344.44416     -644.45233    
    211000   211000         524.97084      52.188904      32291.553      32236.346      9888.2135      22348.132      4516.2547      7238.0234     -5315.2741      352.10005     -2823.3464      62419.593     -44039.219     -510.81923      72534.067      41.704285      41.704285      41.704285      1.1553079     -1589.2007     -162.31697      1908.0844    
    212000   212000         519.9929      -2011.4399      29954.649      32092.413      9794.4504      22297.963      4788.8069      7020.3763     -5330.7189      388.14062     -2851.6192      62317.291     -44034.314     -508.43148      72874.708      41.769468      41.769468      41.769468      1.1499076     -2184.3012     -3430.4578     -419.56074    
    213000   213000         518.03244     -712.65706      31223.262      31971.532      9757.5238      22214.009      4718.3197      7028.9418     -5319.7902      346.47981     -2891.7705      62369.756     -44037.928     -514.64406      71994.994      41.600712      41.600712      41.600712      1.1639584     -31.364617     -467.27023     -1639.3363    
    214000   214000         522.09353      1016.3747      33325.605      32251.33       9834.0172      22417.313      4692.402       7119.4322     -5392.0033      396.92799     -2812.4988      62461.375     -44048.322     -511.23848      72474.583      41.692881      41.692881      41.692881      1.1562561      2547.0237     -563.71037      1065.8106    
    215000   215000         528.05787     -236.14908      31725.098      31974.626      9946.36        22028.266      4686.6427      6935.8927     -5410.0735      351.65537     -2877.8371      62390.914     -44048.928     -511.38869      72453.295      41.688799      41.688799      41.688799      1.1565959     -2053.0528      1106.979       237.62658    
    216000   216000         529.40395      270.62266      32505.609      32218.278      9971.7146      22246.564      4698.1325      6974.208      -5337.985       360.55308     -2729.5353      62325.691     -44044.5       -508.94192      72801.619      41.755499      41.755499      41.755499      1.151062       1332.5762     -1409.2619      888.5536     
    217000   217000         521.2278      -233.2103       31937.374      32184.974      9817.7106      22367.263      4743.5298      7174.4306     -5365.0565      390.75336     -2890.2809      62350.006     -44036.12      -508.96018      72799.008      41.755         41.755         41.755         1.1511033      1039.2002     -1047.4374     -691.39368    
    218000   218000         521.76127      1224.0386      33224.98       31933.929      9827.7589      22106.17       4548.683       7025.5421     -5379.9548      356.38446     -2849.7334      62439.899     -44034.651     -512.31499      72322.295      41.663658      41.663658      41.663658      1.1586908      84.710656      748.13086      2839.2744    
    219000   219000         532.40989     -814.97382      31445.433      32309.473      10028.334      22281.14       4562.4532      7101.4912     -5318.9148      351.4025      -2821.4469      62444.521     -44038.366     -509.67643      72696.703      41.735431      41.735431      41.735431      1.1527233     -1113.9001     -638.8085      -692.21288    
    220000   220000         531.47369      480.23468      32780.245      32271.034      10010.7        22260.334      4621.3982      7039.4711     -5254.5167      354.57011     -2868.4854      62386.839     -44018.942     -509.61297      72705.756      41.737164      41.737164      41.737164      1.1525797      638.60865      59.194055      742.90132    
    221000   221000         525.8333       438.0924       32543.092      32077.607      9904.4586      22173.148      4623.8382      7056.9828     -5378.4379      345.22832     -2803.6519      62361.52      -44032.331     -508.56353      72855.786      41.765852      41.765852      41.765852      1.1502063      1214.7548      1083.3715     -983.84912    
    222000   222000         521.4431       88.367172      32210.579      32117.115      9821.766       22295.349      4699.9026      7054.9214     -5265.3496      362.08649     -2880.7534      62354.885     -44030.343     -510.89368      72523.496      41.702259      41.702259      41.702259      1.1554763     -2241.7122      2419.4376      87.376087    
    223000   223000         520.69794      623.44616      32635.141      31969.308      9807.7303      22161.578      4575.5631      7022.5518     -5389.9749      370.8634      -2774.5352      62377.627     -44020.517     -505.96336      73230.196      41.837276      41.837276      41.837276      1.1443255      731.17345      908.97175      230.19328    
    224000   224000         518.55978     -500.12954      31532.674      32063.292      9767.4565      22295.836      4701.0415      7094.7028     -5341.5367      344.06447     -2886.0947      62410.357     -44026.699     -509.31349      72748.506      41.745342      41.745342      41.745342      1.1519024     -2471.7486      345.66394      625.696      
    225000   225000         524.23018     -123.09286      31612.687      31742.348      9874.2627      21868.085      4416.8036      6969.1234     -5357.0613      345.83091     -2803.5359      62343.167     -44046.243     -512.98964      72227.181      41.645386      41.645386      41.645386      1.1602167     -798.06086     -203.7361       632.51838    
    226000   226000         528.21054     -617.85219      31457.865      32117.645      9949.2357      22168.409      4612.8837      6918.1497     -5282.3847      374.94059     -2766.9929      62352.628     -44040.815     -506.02357      73221.482      41.835616      41.835616      41.835616      1.1444617     -326.8509      -211.81246     -1314.8932    
    227000   227000         530.52734     -2013.1173      30166.762      32309.301      9992.8744      22316.427      4616.416       7096.9738     -5242.754       346.10329     -2865.7719      62395.349     -44029.889     -507.72144      72976.622      41.78893       41.78893       41.78893       1.1483017     -2324.3821     -1298.1        -2416.8699    
    228000   228000         523.26566     -266.13698      31791.471      32072.89       9856.0952      22216.795      4532.9912      7116.0582     -5306.2204      361.20608     -2818.4704      62365.425     -44034.195     -511.01889      72505.727      41.698852      41.698852      41.698852      1.1557595     -1604.4963     -419.73377      1225.8191    
    229000   229000         522.25022     -281.74384      31862.371      32159.523      9836.9686      22322.555      4672.0898      7142.3776     -5342.0731      332.79804     -2843.7763      62395.507     -44034.368     -512.34321      72318.312      41.662893      41.662893      41.662893      1.1587547      651.31212     -1822.1005      325.55686    
    230000   230000         519.62766     -345.89365      31723.325      32090.603      9787.5709      22303.032      4695.6901      6993.7226     -5287.7959      362.67202     -2799.5028      62377.957     -44039.711     -508.90132      72807.428      41.75661       41.75661       41.75661       1.1509702     -2312.7036     -220.8201       1495.8427    
    231000   231000         522.64972     -1419.0319      30580.29       32084.401      9844.4935      22239.907      4797.4028      6998.7413     -5375.9125      372.97273     -2850.8429      62344.838     -44047.292     -509.79735      72679.46       41.732131      41.732131      41.732131      1.1529967     -1190.8292     -2488.8194     -577.44701    
    232000   232000         529.87387      906.36428      33301.193      32339.735      9980.5657      22359.169      4681.0859      7023.3602     -5326.92        385.911       -2767.389       62394.284     -44031.164     -509.39814      72736.418      41.74303       41.74303       41.74303       1.1520939      1338.2471      1439.7888     -58.94308     
    233000   233000         519.291       -1832.9286      30170.437      32094.702      9781.2297      22313.472      4648.1131      7133.9122     -5322.3055      392.67223     -2865.379       62359.134     -44032.675     -514.71386      71985.23       41.598832      41.598832      41.598832      1.1641163     -428.25896     -1723.1446     -3347.3823    
    234000   234000         522.30933      387.13231      32412.754      32005.065      9838.082       22166.983      4615.7461      7023.7526     -5373.2822      366.37201     -2814.815       62376.224     -44027.015     -513.11496      72209.541      41.641995      41.641995      41.641995      1.1605001      450.96321      477.73101      232.70272    
    235000   235000         520.8545      -303.92861      31515.046      31837.669      9810.6792      22026.99       4662.985       6979.1272     -5396.5844      345.9733      -2875.0273      62338.645     -44028.128     -509.05124      72785.985      41.75251       41.75251       41.75251       1.1513093      1169.6834     -1376.158      -705.31122    
    236000   236000         522.45423     -151.0596       31917.543      32077.78       9840.8113      22236.968      4678.2951      7119.2786     -5341.1479      392.96871     -2930.1375      62351.365     -44033.654     -509.41559      72733.925      41.742553      41.742553      41.742553      1.1521333      781.76755      1546.006      -2780.9523    
    237000   237000         516.77751      1100.5008      32942.028      31780.076      9733.8861      22046.19       4546.818       6963.8441     -5392.2584      354.08724     -2848.3296      62456.145     -44034.116     -511.78475      72397.225      41.678042      41.678042      41.678042      1.1574916      1715.0577      1095.3878      491.05679    
    238000   238000         525.81952      216.05138      32282.107      32054.311      9904.1991      22150.112      4507.2062      6964.118      -5304.293       396.03952     -2835.0752      62448.515     -44026.399     -512.5008       72296.075      41.658623      41.658623      41.658623      1.1591111      2647.4325     -1643.7573     -355.52103    
    239000   239000         510.92385      487.79081      32366.331      31846.421      9623.6281      22222.793      4696.9886      6988.4388     -5384.995       321.82039     -2725.8649      62367.136     -44040.731     -506.97983      73083.373      41.809297      41.809297      41.809297      1.1466244     -531.91934      245.86325      1749.4285    
    240000   240000         521.04654      1211.073       33249.384      31972.709      9814.2964      22158.413      4644.9969      7020.794      -5349.5775      359.09027     -2912.6636      62430.283     -44034.51      -512.59617      72282.623      41.656039      41.656039      41.656039      1.1593268      604.79198      1577.1885      1451.2384    
    241000   241000         529.18482      1272.1832      33771.362      32420.307      9967.5871      22452.72       4755.0317      7091.5792     -5380.8001      395.26738     -2771.2671      62392.471     -44029.562     -508.81725      72819.457      41.758909      41.758909      41.758909      1.1507801      1442.7807      1338.969       1034.8       
    242000   242000         523.55317      809.88297      32834.952      31979.094      9861.5108      22117.583      4664.7413      7011.4453     -5385.7893      331.56406     -2855.7734      62388.302     -44036.906     -511.33518      72460.877      41.690253      41.690253      41.690253      1.1564748     -251.93898      2014.7672      666.82068    
    243000   243000         522.823       -425.55432      31519.389      31970.034      9847.7575      22122.277      4648.9366      6889.512      -5314.5476      378.59585     -2787.2493      62340.012     -44032.982     -510.27604      72611.279      41.719077      41.719077      41.719077      1.1540794      1825.3059     -1295.5409     -1806.4279    
    244000   244000         527.91534      347.27664      32616.12       32244.799      9943.6754      22301.124      4622.0022      7055.5304     -5303.7473      364.62399     -2778.6386      62378.219     -44036.866     -505.37229      73315.844      41.85358       41.85358       41.85358       1.1429887      422.11835      695.89552     -76.183962    
    245000   245000         526.47049     -1735.5837      30217.72       32048.384      9916.4605      22131.924      4585.4094      6963.2414     -5209.0537      334.54479     -2884.1458      62383.959     -44042.031     -512.29714      72324.815      41.664142      41.664142      41.664142      1.1586505     -2431.0284     -1601.01       -1174.7127    
    246000   246000         523.41901     -101.07819      31981.636      32088.897      9858.9836      22229.913      4692.356       7056.8988     -5379.8716      360.3049      -2835.8019      62374.972     -44038.945     -509.21568      72762.48       41.748015      41.748015      41.748015      1.1516812     -1824.7325     -252.15866      1773.6566    
    247000   247000         508.13717     -262.42536      31463.327      31745.193      9571.1389      22174.054      4569.7759      7157.6358     -5409.1433      341.25087     -2834.3755      62374.037     -44025.127     -503.09402      73647.855      41.916663      41.916663      41.916663      1.137836       1187.0465     -832.07181     -1142.2508    
    248000   248000         516.53661      1013.9333      33003.934      31931.353      9729.3486      22202.005      4657.0049      7016.8053     -5348.7053      332.0091      -2842.0246      62430.617     -44043.701     -510.81598      72534.528      41.704373      41.704373      41.704373      1.1553006      619.75322      1583.8914      838.15526    
    249000   249000         514.14623     -1525.2321      30241.492      31862.455      9684.3241      22178.131      4663.8707      7000.5497     -5409.6471      377.22689     -2762.0856      62350.134     -44041.918     -508.44948      72872.129      41.768975      41.768975      41.768975      1.1499483     -1850.2706     -1122.1745     -1603.251     
    250000   250000         519.02719     -60.478533      32056.527      32121.49       9776.2606      22345.23       4791.3814      7039.8198     -5433.0055      363.20973     -2742.4863      62355.747     -44029.436     -503.06279      73652.428      41.917531      41.917531      41.917531      1.1377654      1987.5234     -1857.206      -311.75306    
Loop time of 1076.22 on 1 procs for 250000 steps with 6320 atoms

Performance: 20.070 ns/day, 1.196 hours/ns, 232.295 timesteps/s, 1.468 Matom-step/s
100.0% CPU use with 1 MPI tasks x 1 OpenMP threads

MPI task timing breakdown:
Section |  min time  |  avg time  |  max time  |%varavg| %total
---------------------------------------------------------------
Pair    | 376.45     | 376.45     | 376.45     |   0.0 | 34.98
Bond    | 147.07     | 147.07     | 147.07     |   0.0 | 13.67
Kspace  | 295.83     | 295.83     | 295.83     |   0.0 | 27.49
Neigh   | 112.45     | 112.45     | 112.45     |   0.0 | 10.45
Comm    | 10.045     | 10.045     | 10.045     |   0.0 |  0.93
Output  | 2.9541     | 2.9541     | 2.9541     |   0.0 |  0.27
Modify  | 71.094     | 71.094     | 71.094     |   0.0 |  6.61
Other   |            | 60.32      |            |       |  5.61

Nlocal:           6320 ave        6320 max        6320 min
Histogram: 1 0 0 0 0 0 0 0 0 0
Nghost:          17200 ave       17200 max       17200 min
Histogram: 1 0 0 0 0 0 0 0 0 0
Neighs:              0 ave           0 max           0 min
Histogram: 1 0 0 0 0 0 0 0 0 0
FullNghs:  3.45167e+06 ave 3.45167e+06 max 3.45167e+06 min
Histogram: 1 0 0 0 0 0 0 0 0 0

Total # of neighbors = 3451666
Ave neighs/atom = 546.14968
Ave special neighs/atom = 5.5411392
Neighbor list builds = 12931
Dangerous builds = 0
System init for write_data ...
PPPM Kokkos initialization ...
  using 12-bit tables for long-range coulomb
  G vector (1/distance) = 0.33791014
  grid = 48 48 48
  stencil order = 5
  estimated absolute RMS force accuracy = 0.00033171979
  estimated relative force accuracy = 9.9896429e-07
  using double precision cuFFT
  3d grid and FFT values/proc = 166375 110592
Generated 21 of 21 mixed pair_coeff terms from sixthpower/sixthpower mixing rule
System init for write_restart ...
PPPM Kokkos initialization ...
  using 12-bit tables for long-range coulomb
  G vector (1/distance) = 0.33791014
  grid = 48 48 48
  stencil order = 5
  estimated absolute RMS force accuracy = 0.00033171979
  estimated relative force accuracy = 9.9896429e-07
  using double precision cuFFT
  3d grid and FFT values/proc = 166375 110592
Generated 21 of 21 mixed pair_coeff terms from sixthpower/sixthpower mixing rule
STAGE COMPLETE: NPT T=545.0->520.0K P=1.0->1.0atm steps=250000
