LAMMPS (22 Jul 2025 - Update 3)
OMP_NUM_THREADS environment is not set. Defaulting to 1 thread.
  using 1 OpenMP thread(s) per MPI task
package gpu 1
# ============================================================
# PolyJarvis LAMMPS Engine - NVT Simulation Template
# ============================================================
# Stage: NVT (constant volume, constant temperature)
# Use cases:
#   - Initial heating to melt temperature
#   - Constant-T annealing step
#   - Production run at fixed density (after NPT equilibration)
#   - Temperature ramp up or down
#
# Tunable parameters (injected by script_generator.py):
#   DATA_FILE        - .data or .restart file to read
#   READ_COMMAND     - "read_data" or "read_restart"
#   LOG_FILE         - log filename
#   LOG_APPEND       - "append" or "" (overwrite)
#   DUMP_FILE        - trajectory filename
#   LAST_DUMP_FILE   - final snapshot filename
#   WRITE_DATA_FILE  - output .data filename
#   WRITE_RESTART_FILE - unconditional final-state restart file, written every run
#                        (independent of periodic RESTART_BLOCK checkpointing) so a
#                        continuation call always has a definitive state to read from
#   DUMP_APPEND_BLOCK - "dump_modify dump_nvt append yes" or empty -- set when this
#                        run continues (via READ_COMMAND=read_restart) a trajectory
#                        started by an earlier run into the SAME DUMP_FILE/LOG_FILE
#   RESTART_FILE_1   - restart checkpoint file 1
#   RESTART_FILE_2   - restart checkpoint file 2
#   RESTART_FREQ     - steps between restart writes
#   RESTART_BLOCK    - full restart command or empty
#   PAIR_STYLE_BLOCK - pair + kspace style lines
#   BOND_STYLE, ANGLE_STYLE, DIHEDRAL_STYLE, IMPROPER_STYLE
#   GPU_PACKAGE      - "package gpu 1 neigh no" or empty
#   T_START          - initial temperature (K)
#   T_FINAL          - final temperature (K) -- ramp or constant
#   T_DAMP           - thermostat damping (fs), recommended 100*timestep
#   TIMESTEP         - integration timestep (fs), typically 1.0
#   N_STEPS          - number of MD steps
#   THERMO_FREQ      - thermo output frequency (steps)
#   DUMP_FREQ        - dump output frequency (steps)
#   SHAKE_BLOCK      - "fix shake..." or empty
#   UNSHAKE_BLOCK    - "unfix shake..." or empty
#   INIT_VELOCITY_BLOCK - "velocity all create..." or empty
# ============================================================

log nvt_melt_hold.log
