Authorization required, but no authorization protocol specified

Authorization required, but no authorization protocol specified

Authorization required, but no authorization protocol specified

Authorization required, but no authorization protocol specified

LAMMPS (22 Jul 2025 - Update 3)
KOKKOS mode with Kokkos version 4.6.2 is enabled
  will use up to 1 GPU(s) per node
  using 1 OpenMP thread(s) per MPI task
Reading data file ...
  orthogonal box = (3.7493718 3.7493718 3.7493718) to (41.612221 41.612221 41.612221)
  1 by 1 by 1 MPI processor grid
  reading atoms ...
  3020 atoms
  reading velocities ...
  3020 velocities
  scanning bonds ...
  4 = max bonds/atom
  scanning angles ...
  12 = max angles/atom
  scanning dihedrals ...
  24 = max dihedrals/atom
  orthogonal box = (3.7493718 3.7493718 3.7493718) to (41.612221 41.612221 41.612221)
  1 by 1 by 1 MPI processor grid
  reading bonds ...
  3010 bonds
  reading angles ...
  6000 angles
  reading dihedrals ...
  8910 dihedrals
Finding 1-2 1-3 1-4 neighbors ...
  special bond factors lj:    0        0        0.5     
  special bond factors coul:  0        0        0.5     
     4 = max # of 1-2 neighbors
     6 = max # of 1-3 neighbors
    12 = max # of 1-4 neighbors
    16 = max # of special neighbors
  special bonds CPU = 0.004 seconds
  read_data CPU = 0.076 seconds
PPPM Kokkos initialization ...
  using 12-bit tables for long-range coulomb
  G vector (1/distance) = 0.33193407
  grid = 40 40 40
  stencil order = 5
  estimated absolute RMS force accuracy = 0.00028688849
  estimated relative force accuracy = 8.6395615e-07
  using double precision cuFFT
  3d grid and FFT values/proc = 103823 64000
Generated 3 of 3 mixed pair_coeff terms from geometric mixing rule
Neighbor list info ...
  update: every = 1 steps, delay = 0 steps, check = yes
  max neighbors/atom: 4000, page size: 100000
  master list distance cutoff = 11.5
  ghost atom cutoff = 11.5
  binsize = 11.5, bins = 4 4 4
  1 neighbor lists, perpetual/occasional/extra = 1 0 0
  (1) pair lj/cut/coul/long/kk, perpetual
      attributes: full, newton off, kokkos_device
      pair build: full/bin/kk/device
      stencil: full/bin/3d
      bin: kk/device
Setting up Verlet run ...
  Unit style    : real
  Current step  : 0
  Time step     : 1
Per MPI rank memory allocation (min/avg/max) = 28.29 | 28.29 | 28.29 Mbytes
   Step          Time           Temp          Press         Enthalpy        TotEng         KinEng         PotEng         E_bond        E_angle        E_dihed        E_impro         E_vdwl         E_coul         E_long         E_tail         Volume           Lx             Ly             Lz          Density          Pxx            Pyy            Pzz      
         0   0              633.25268     -81.963706      8818.2269      8883.1108      5698.6824      3184.4284      2312.4809      3616.1309     -4235.9392      0              770.59711      15166.673     -14445.514     -100.39342      54280.005      37.862849      37.862849      37.862849      1.5304354     -1262.3213     -63.851383      1080.2816    
      1000   1000           618.53929     -879.32555      7880.4238      8556.8734      5566.2756      2990.5978      2236.5469      3595.8206     -4252.4976      0              719.00461      15143.907     -14452.184     -103.30831      52748.474      37.503342      37.503342      37.503342      1.574871      -997.23118     -586.79389     -1053.9516    
      2000   2000           626.5682       2272.6104      10624.412      8881.3239      5638.5283      3242.7956      2295.6187      3643.6636     -4218.6426      0              820.2075       15160.279     -14458.331     -103.61598      52591.846      37.466185      37.466185      37.466185      1.5795613      1448.4742      2883.3385      2486.0186    
      3000   3000           633.03378      1227.3505      9529.0815      8598.351       5696.7124      2901.6385      2224.7882      3475.3883     -4215.6805      0              724.66752      15157.725     -14465.25      -104.80106      51997.141      37.324428      37.324428      37.324428      1.5976271      3470.157       1050.482      -838.58749    
      4000   4000           621.89296     -640.19093      8160.2287      8651.5474      5596.4555      3055.0918      2328.0667      3540.1894     -4249.1142      0              748.53978      15146.747     -14459.337     -103.55409      52623.277      37.473647      37.473647      37.473647      1.5786178     -333.78053     -834.90149     -751.89077    
      5000   5000           629.26995      744.64798      9319.0096      8765.7668      5662.8416      3102.9253      2273.4309      3621.8004     -4217.1836      0              717.24149      15183.883     -14476.247     -106.96859      50943.512      37.070601      37.070601      37.070601      1.6306697     -1234.8179      2030.3579      1438.4039    
      6000   6000           617.04817      505.50289      8900.0303      8520.8542      5552.8569      2967.9973      2204.7097      3594.9544     -4243.1476      0              723.47649      15155.618     -14467.614     -105.95069      51432.94       37.188939      37.188939      37.188939      1.6151525      1611.97       -403.62808      308.16679    
      7000   7000           623.64397     -1026.6161      7942.5555      8727.1263      5612.213       3114.9133      2338.1292      3584.193      -4233.4277      0              708.39016      15182.7       -14465.072     -103.99129      52402.038      37.421058      37.421058      37.421058      1.5852827     -3643.9659     -365.60056      929.71806    
      8000   8000           634.4183       917.92246      9356.9976      8665.6923      5709.1719      2956.5204      2234.1106      3491.3754     -4245.4568      0              757.03488      15196.736     -14477.279     -105.52544      51640.207      37.238827      37.238827      37.238827      1.6086698     -1417.6918      1347.5406      2823.9186    
      9000   9000           628.90769      1415.0668      9708.5847      8646.066       5659.5815      2986.4845      2230.6         3535.9199     -4213.9031      0              738.48357      15166.793     -14471.409     -105.84282      51485.362      37.201569      37.201569      37.201569      1.613508       2234.023       2416.397      -405.21966    
     10000   10000          619.53477      2708.6607      10670.941      8646.0568      5575.234       3070.8228      2245.0097      3566.7707     -4229.0551      0              780.69175      15184.293     -14476.887     -106.31036      51258.935      37.146953      37.146953      37.146953      1.6206354      4656.3463      1789.2022      1680.4336    
     11000   11000          630.23583     -783.18177      7983.4711      8570.0758      5671.5335      2898.5423      2176.6878      3582.2574     -4253.0648      0              686.86278      15178.5       -14472.701     -106.10554      51357.882      37.170839      37.170839      37.170839      1.617513      -1990.0121     -544.49008      184.95684    
     12000   12000          614.89133      213.81113      8678.5309      8516.8399      5533.4473      2983.3926      2273.0168      3532.6562     -4247.9019      0              730.01217      15160.094     -14464.485     -105.09102      51853.676      37.290069      37.290069      37.290069      1.6020473     -524.32104      2203.7868     -1038.0324    
     13000   13000          618.77067     -1637.2794      7342.1104      8557.6564      5568.3578      2989.2986      2342.0907      3502.1152     -4225.5413      0              693.29781      15158.398     -14481.062     -107.04649      50906.439      37.061606      37.061606      37.061606      1.6318573     -2290.353      -432.94414     -2188.5412    
     14000   14000          625.41004      611.96731      8814.6606      8357.8074      5628.106       2729.7014      2220.6757      3349.2835     -4256.2476      0              734.09545      15155.514     -14473.62      -106.45662      51188.511      37.129933      37.129933      37.129933      1.622865       1818.2015     -387.44936      405.14982    
     15000   15000          618.91943     -1244.4512      7808.7395      8742.7221      5569.6965      3173.0255      2346.3491      3650.4455     -4262.1018      0              741.35015      15154.492     -14457.509     -105.89127      51461.8        37.195893      37.195893      37.195893      1.6142467     -2462.9501     -2040.0037      769.60012    
     16000   16000          615.09854     -599.30849      8110.8351      8551.5374      5535.3121      3016.2252      2242.4432      3593.5268     -4245.2005      0              753.05906      15145.589     -14473.192     -108.07523      50421.872      36.943638      36.943638      36.943638      1.6475398      156.67979      1167.6397     -3122.2449    
     17000   17000          616.37774     -1518.7307      7253.4425      8375.9986      5546.8237      2829.1749      2252.5908      3480.0551     -4257.8654      0              668.52326      15157.175     -14471.304     -107.52111      50681.727      37.006993      37.006993      37.006993      1.6390926     -2332.081      -1765.5975     -458.51348    
     18000   18000          609.53811      239.77941      8588.7568      8411.6033      5485.2734      2926.3299      2196.4257      3555.9975     -4253.4972      0              731.46623      15171.702     -14475.764     -107.56802      50659.624      37.001613      37.001613      37.001613      1.6398077     -269.36579      23.865951      964.83807    
     19000   19000          621.81155      1898.4284      10114.01       8675.0548      5595.7229      3079.3319      2348.234       3446.3186     -4243.0073      0              833.41051      15169.643     -14475.267     -104.84992      51972.914      37.31863       37.31863       37.31863       1.5983719      2566.5856      507.19879      2621.5007    
     20000   20000          636.02165      228.20155      8992.741       8820.7763      5723.6005      3097.1758      2270.7239      3634.2054     -4252.6401      0              755.353        15151.443     -14461.909     -105.46306      51670.753      37.246168      37.246168      37.246168      1.6077189      608.83746      1141.231      -1065.4638    
     21000   21000          625.42055     -779.518        8035.082       8626.2405      5628.2005      2998.04        2215.4704      3577.8504     -4231.3746      0              709.61982      15185.695     -14459.221     -104.79565      51999.828      37.32507       37.32507       37.32507       1.5975446     -1949.6954     -1395.2463      1006.3877    
     22000   22000          616.08081      582.35306      8986.5828      8548.8759      5544.1516      3004.7243      2209.2705      3543.5987     -4239.3532      0              805.04266      15156.885     -14470.719     -105.73628      51537.237      37.214059      37.214059      37.214059      1.6118839      1540.3942      657.93548     -451.27049    
     23000   23000          616.28848      2139.7022      10090.393      8518.6031      5546.0205      2972.5826      2140.9416      3541.0203     -4218.1136      0              784.24478      15227.16      -14502.671     -108.18818      50369.232      36.930777      36.930777      36.930777      1.6492617      2853.8814      2378.6484      1186.5768    
     24000   24000          617.88621      1122.8146      9459.5141      8618.5904      5560.3985      3058.192       2301.7559      3553.0486     -4249.4992      0              740.78343      15186.989     -14474.886     -106.11395      51353.809      37.169857      37.169857      37.169857      1.6176413      1119.2233     -471.80661      2721.027     
     25000   25000          628.14692     -567.91115      8355.0724      8781.3324      5652.7353      3128.5971      2288.319       3622.532      -4228.2385      0              737.09842      15173.877     -14464.991     -105.88316      51465.746      37.196844      37.196844      37.196844      1.614123      -538.87238     -693.59979     -471.26129    
     26000   26000          628.93623     -123.62795      8403.1259      8494.6208      5659.8383      2834.7825      2190.8361      3482.0579     -4243.4105      0              694.3074       15195.378     -14484.387     -107.38422      50746.334      37.022712      37.022712      37.022712      1.6370058     -1783.5267      467.11288      945.52993    
     27000   27000          614.33335     -876.61842      7782.1614      8426.5084      5528.426       2898.0823      2225.2847      3488.7011     -4233.4465      0              705.42353      15196.194     -14484.075     -108.12145      50400.321      36.938373      36.938373      36.938373      1.6482443      1827.7528     -1556.9998     -2900.6083    
     28000   28000          621.54481     -77.037231      8495.8833      8551.4097      5593.3225      2958.0873      2266.1531      3518.2276     -4249.2198      0              706.50764      15216.266     -14499.847     -110.26103      49422.315      36.697884      36.697884      36.697884      1.680861      -1579.8459      1720.0767     -371.34252    
     29000   29000          628.01471     -1089.5634      7862.2949      8663.7845      5651.5455      3012.239       2316.6609      3561.144      -4249.1061      0              669.71662      15196.01      -14482.187     -108.03778      50439.352      36.947906      36.947906      36.947906      1.6469689     -1508.8101      755.32867     -2515.2086    
     30000   30000          607.96776      1131.2535      9182.7572      8350.1705      5471.1417      2879.0288      2218.1865      3520.2775     -4246.2914      0              667.80295      15211.705     -14492.651     -107.98204      50465.39       36.954263      36.954263      36.954263      1.6461191      589.59377      485.26808      2318.8987    
     31000   31000          617.42463     -193.37314      8337.3936      8477.7835      5556.2447      2921.5388      2340.7136      3459.0118     -4222.5636      0              623.35161      15218.848     -14497.823     -109.46654      49781.015      36.786453      36.786453      36.786453      1.6687495      39.100861      1012.459      -1631.6793    
     32000   32000          626.36386      301.70274      8946.1676      8720.0268      5636.6894      3083.3374      2280.434       3512.3769     -4224.5845      0              792.99904      15196.668     -14474.556     -106.02818      51395.352      37.179877      37.179877      37.179877      1.6163338     -881.46697     -1354.156       3140.7311    
     33000   33000          614.76667     -671.8729       8115.5318      8620.8337      5532.3255      3088.5082      2335.916       3520.6436     -4227.4143      0              738.72186      15189.494     -14468.853     -105.67135      51568.905      37.22168       37.22168       37.22168       1.6108941     -2182.4519     -60.537358      227.37058    
     34000   34000          639.35644     -450.27499      8402.7384      8733.8949      5753.6105      2980.2844      2320.1314      3520.4551     -4233.4029      0              656.47994      15203.476     -14486.855     -108.06017      50428.902      36.945354      36.945354      36.945354      1.6473102     -703.35571     -631.13576     -16.333502    
     35000   35000          625.04783     -336.5421       8320.981       8573.225       5624.8464      2948.3787      2316.3268      3458.4967     -4246.8985      0              695.29792      15209.298     -14484.142     -106.03263      51393.194      37.179357      37.179357      37.179357      1.6164016      2427.7517     -523.04815     -2914.3298    
     36000   36000          627.00978      1329.7918      9607.1455      8608.8579      5642.5021      2966.3558      2228.0995      3565.5953     -4239.5529      0              705.10075      15180.969     -14473.856     -105.86419      51474.968      37.199065      37.199065      37.199065      1.6138338      1242.1169      456.42405      2290.8345    
     37000   37000          612.38493      29.622609      8368.0259      8345.8471      5510.8921      2834.9549      2254.974       3487.4894     -4260.3661      0              638.7965       15187.463     -14473.402     -106.1466       51338.014      37.166046      37.166046      37.166046      1.618139      -526.30375      971.05694     -355.88536    
     38000   38000          633.14474     -842.55018      8028.2334      8650.3399      5697.711       2952.6289      2289.8862      3536.6374     -4267.3622      0              687.67654      15190.085     -14484.294     -107.63464      50628.27       36.993977      36.993977      36.993977      1.6408233     -972.96921     -1740.4256      185.74431    
     39000   39000          627.89714     -22.518224      8543.4501      8559.4863      5650.4875      2908.9988      2285.584       3506.6933     -4232.2952      0              648.97437      15216.267     -14516.225     -111.59726      48830.55       36.550827      36.550827      36.550827      1.7012309      1592.0422      921.29606     -2580.893     
     40000   40000          624.27848     -25.151088      8550.7309      8568.8182      5617.923       2950.8952      2230.488       3551.7598     -4200.9361      0              656.3952       15231.931     -14518.743     -110.51073      49310.645      36.670224      36.670224      36.670224      1.6846675     -25.28647       140.734       -190.9008     
     41000   41000          616.4614       373.46205      8833.4444      8562.3649      5547.5765      3014.7884      2242.9151      3561.2811     -4222.7643      0              701.22154      15226.771     -14494.636     -109.4891       49770.758      36.783927      36.783927      36.783927      1.6690934     -328.84426      614.96696      834.26346    
     42000   42000          630.47094      830.15079      9214.0797      8590.6893      5673.6493      2917.04        2292.5653      3462.9309     -4248.2334      0              686.31108      15196.768     -14473.302     -105.83221      51490.52       37.202811      37.202811      37.202811      1.6133463     -155.65154      2249.2365      396.86742    
     43000   43000          643.10135     -1250.7021      7864.4664      8807.9996      5787.3112      3020.6884      2341.4223      3428.1219     -4243.5765      0              784.01227      15179.344     -14468.635     -105.34592      51728.206      37.259968      37.259968      37.259968      1.6059332     -552.33093     -1047.3629     -2152.4124    
     44000   44000          615.35322     -122.94082      8387.8108      8479.4485      5537.604       2941.8445      2206.8234      3596.4323     -4227.7014      0              651.33382      15196.402     -14481.446     -106.62114      51109.523      37.110825      37.110825      37.110825      1.6253731      1132.1474     -269.57252     -1231.3973    
     45000   45000          625.56144      811.6792       9174.3117      8578.9625      5629.4684      2949.4941      2267.448       3468.2602     -4230.1631      0              741.04688      15191.694     -14488.791     -108.35119      50293.452      36.912247      36.912247      36.912247      1.6517467      1448.1212      105.44715      881.46921    
     46000   46000          624.73661      238.96965      8742.898       8568.564       5622.0457      2946.5183      2241.9937      3544.8324     -4234.7409      0              651.4805       15241.71      -14498.757     -108.93856      50022.284      36.845787      36.845787      36.845787      1.6607007      640.25697     -22.704755      99.356746    
     47000   47000          607.23236      1470.2833      9395.4636      8314.5333      5464.5238      2850.0095      2256.2565      3345.8217     -4226.5211      0              752.96769      15213.102     -14491.617     -108.09967      50410.476      36.940854      36.940854      36.940854      1.6479123      1235.9079      2910.5793      264.36258    
     48000   48000          625.85725      435.9944       8985.7926      8667.2485      5632.1304      3035.1181      2303.2446      3478.7997     -4223.2548      0              758.09393      15211.509     -14493.275     -108.77582      50097.122      36.864153      36.864153      36.864153      1.6582199      3954.047      -551.17159     -2094.8922    
     49000   49000          606.69339      129.882        8417.2807      8322.9092      5459.6736      2863.2356      2215.185       3472.1691     -4253.1691      0              732.07263      15183.172     -14486.194     -109.37779      49821.409      36.7964        36.7964        36.7964        1.6673965      837.1359      -1034.7547      587.26477    
     50000   50000          626.48658     -1983.0661      7126.1893      8547.1762      5637.7938      2909.3824      2332.9567      3494.1841     -4212.5118      0              579.50751      15221.181     -14505.935     -110.90935      49133.42       36.626239      36.626239      36.626239      1.6907442     -2531.6259     -773.28365     -2644.2888    
     51000   51000          637.83635     -68.198522      8726.4809      8776.2502      5739.9311      3036.3191      2325.0201      3493.0131     -4221.2831      0              733.63422      15196.064     -14490.129     -108.9016       50039.259      36.849955      36.849955      36.849955      1.6601374      47.410986      458.89706     -710.90362    
     52000   52000          613.92318     -1318.5448      7539.8855      8543.515       5524.7349      3018.78        2264.4838      3546.0937     -4246.7924      0              713.28081      15206.056     -14464.342     -104.41011      52191.841      37.370956      37.370956      37.370956      1.5916672     -1909.2762     -1268.4541     -777.90401    
     53000   53000          602.92553      10.612484      8520.578       8512.6979      5425.7664      3086.9316      2247.5508      3645.1619     -4217.4081      0              676.16774      15220.246     -14484.786     -107.03113      50913.745      37.063379      37.063379      37.063379      1.6316231     -2016.8217      14.090862      2034.5683    
     54000   54000          625.4826       440.15682      8810.56        8482.2545      5628.7589      2853.4955      2115.0026      3582.9745     -4233.5058      0              667.77219      15205.462     -14484.21      -106.54922      51144.022      37.119173      37.119173      37.119173      1.6242767      1804.8967      25.819891     -510.24614    
     55000   55000          625.0788       417.96598      8980.7427      8668.4865      5625.1251      3043.3614      2191.0723      3577.5003     -4213.0233      0              788.26004      15172.01      -14472.458     -106.37777      51226.453      37.139105      37.139105      37.139105      1.621663       1031.0794      1776.0204     -1553.2018    
     56000   56000          621.16919     -634.85241      8140.2292      8611.4424      5589.9422      3021.5002      2340.6841      3541.3931     -4253.3573      0              685.27099      15179.085     -14471.576     -107.07211      50894.259      37.05865       37.05865       37.05865       1.6322478     -418.4424      -2318.0215      831.90671    
     57000   57000          614.87447      279.10087      8783.88        8574.8871      5533.2957      3041.5914      2217.832       3568.3678     -4260.6491      0              780.66615      15203.27      -14467.895     -106.13302      51344.58       37.16763       37.16763       37.16763       1.6179321     -741.49281      801.12037      777.67504    
     58000   58000          626.80832      199.51194      8843.5409      8689.7038      5640.6891      3049.0146      2207.6523      3619.324      -4220.3005      0              730.45253      15167.271     -14455.385     -103.06917      52870.858      37.532324      37.532324      37.532324      1.5712256     -66.569933      2151.5359     -1486.4302    
     59000   59000          614.54028      2321.0317      10147.811      8397.8368      5530.2883      2867.5485      2143.7595      3472.2453     -4251.7125      0              780.65324      15207.784     -14485.181     -105.40725      51698.111      37.25274       37.25274       37.25274       1.606868       3261.7893      2239.7063      1461.5995    
     60000   60000          617.33893      1129.1627      9585.6887      8722.4229      5555.4735      3166.9494      2266.5859      3605.8274     -4213.4649      0              793.24244      15171.351     -14456.592     -103.95204      52421.826      37.425768      37.425768      37.425768      1.5846843      2241.5948     -1659.4574      2805.3505    
     61000   61000          638.76816      569.45824      9192.5775      8761.351       5748.3165      3013.0344      2262.1899      3555.3416     -4221.161       0              698.68467      15184.617     -14466.637     -104.94878      51923.953      37.306907      37.306907      37.306907      1.599879      -1165.7863      2418.9815      455.1795     
     62000   62000          628.7658      -1263.0481      7712.5109      8673.7826      5658.3046      3015.478       2302.9259      3604.5633     -4235.1485      0              622.08196      15183.731     -14462.676     -104.42267      52185.561      37.369457      37.369457      37.369457      1.5918588     -2647.5608     -1788.819       647.23542    
     63000   63000          625.37553      1259.1063      9766.3507      8811.1         5627.7954      3183.3046      2284.6376      3625.3079     -4222.7625      0              778.30932      15171.519     -14453.707     -104.75291      52021.045      37.330146      37.330146      37.330146      1.596893       622.84618      1131.0466      2023.4261    
     64000   64000          626.07334      1174.0735      9379.1963      8507.2631      5634.0751      2873.188       2202.9926      3466.6074     -4242.4024      0              733.6653       15192.914     -14480.588     -107.01215      50922.775      37.06557       37.06557       37.06557       1.6313338      52.634743      1295.9269      2173.659     
     65000   65000          603.60101      207.04412      8437.9568      8284.1684      5431.845       2852.3234      2173.7933      3499.943      -4230.6026      0              700.87129      15184.685     -14476.366     -106.99422      50931.309      37.067641      37.067641      37.067641      1.6310604      946.9141       191.49597     -517.27772    
     66000   66000          622.63317      137.20754      8692.7217      8589.3423      5603.1167      2986.2255      2203.5428      3593.2376     -4224.5282      0              720.31313      15155.388     -14461.728     -105.47874      51663.071      37.244322      37.244322      37.244322      1.6079579      2153.9138     -458.93737     -1283.3538    
     67000   67000          623.12452     -1521.982       7618.2557      8751.5047      5607.5384      3143.9662      2364.3971      3595.3054     -4254.4164      0              750.36165      15160.68      -14472.361     -106.7346       51055.195      37.097671      37.097671      37.097671      1.6271027     -1557.1531     -1608.529      -1400.2638    
     68000   68000          614.40314     -127.40354      8569.6079      8665.2289      5529.0541      3136.1748      2313.7758      3557.9247     -4217.7359      0              778.6379       15175.933     -14472.361     -105.8886       51463.1        37.196206      37.196206      37.196206      1.614206       2169.8145     -1987.5735     -564.45163    
     69000   69000          616.29556      150.42062      8791.1181      8677.2887      5546.0842      3131.2045      2288.0458      3617.8463     -4236.9141      0              764.15506      15159.869     -14461.798     -105.02047      51888.509      37.298417      37.298417      37.298417      1.6009719      1607.7624     -531.834       -624.6665     
     70000   70000          610.5975       782.69306      9126.1942      8535.059       5494.807       3040.252       2183.6377      3649.1709     -4256.501       0              765.59064      15156.843     -14458.49      -105.22664      51786.846      37.274042      37.274042      37.274042      1.6041147      694.91202     -868.89355      2522.0607    
     71000   71000          623.4572      -368.52885      8196.5504      8470.9114      5610.5322      2860.3791      2149.3023      3507.9064     -4229.9763      0              718.38375      15184.149     -14469.386     -106.75057      51047.556      37.095821      37.095821      37.095821      1.6273461     -1528.856      -455.21774      878.48723    
     72000   72000          627.45487      30.912694      8543.8503      8520.969       5646.5075      2874.4616      2237.1706      3514.2192     -4237.6326      0              682.43221      15160.108     -14481.836     -107.36868      50753.68       37.024498      37.024498      37.024498      1.6367689     -74.532717      1513.6765     -1346.4057    
     73000   73000          638.18407      1110.4397      9549.074       8693.0139      5743.0603      2949.9536      2179.9522      3539.7749     -4243.7151      0              779.50357      15139.91      -14445.472     -103.08887      52860.757      37.529933      37.529933      37.529933      1.5715258      1790.0381      843.32938      697.95172    
     74000   74000          625.19826     -681.54777      8069.9645      8592.705       5626.2001      2966.5049      2253.8349      3541.1264     -4247.1679      0              746.44876      15121.801     -14449.538     -103.61703      52591.313      37.466058      37.466058      37.466058      1.5795773     -1231.5914     -479.82773     -333.22413    
     75000   75000          620.63852     -1522.7024      7675.1079      8841.2223      5585.1667      3256.0556      2454.502       3584.7552     -4247.5726      0              779.3933       15129.473     -14444.496     -103.77552      52510.992      37.446975      37.446975      37.446975      1.5819934     -1832.3175     -762.53851     -1973.2513    
     76000   76000          619.29241     -367.63449      8292.8103      8580.6938      5573.053       3007.6408      2190.9235      3618.6132     -4257.1213      0              776.86375      15108.97      -14430.609     -101.48936      53693.864      37.726069      37.726069      37.726069      1.5471422      511.9761      -2327.2387      712.35916    
     77000   77000          606.52288      165.99613      8554.2485      8424.5345      5458.1391      2966.3953      2192.8396      3578.9625     -4263.9047      0              772.64821      15131.129     -14445.279     -101.70261      53581.276      37.699682      37.699682      37.699682      1.5503931     -1101.0603     -675.70807      2274.7567    
     78000   78000          615.44984     -27.434007      8494.6451      8515.7198      5538.4735      2977.2464      2316.3212      3484.0237     -4254.3809      0              754.19271      15125.675     -14448.585     -103.45401      52674.185      37.485727      37.485727      37.485727      1.5770921      721.93701     -1431.2481      627.00909    
     79000   79000          621.15262     -414.67537      8248.3908      8561.8233      5589.7931      2972.0301      2275.5615      3502.9918     -4247.0776      0              770.35376      15124.611     -14454.41      -105.14419      51827.452      37.283781      37.283781      37.283781      1.6028579      124.97425     -2252.402       883.40163    
     80000   80000          605.61561      443.15391      8702.0957      8363.2841      5449.9746      2913.3095      2159.2669      3614.2064     -4260.2818      0              724.63396      15131.271     -14455.787     -103.9483       52423.713      37.426217      37.426217      37.426217      1.5846272      903.96966      772.81293     -347.32087    
     81000   81000          624.00499     -256.81215      8406.2085      8598.5051      5615.4618      2983.0432      2275.8384      3517.0261     -4251.6177      0              776.81631      15129.777     -14464.797     -106.13658      51342.859      37.167215      37.167215      37.167215      1.6179863     -759.69244      92.259313     -103.00332    
     82000   82000          611.00071     -505.67274      8012.4236      8405.5865      5498.4354      2907.1511      2233.7901      3481.4246     -4231.9557      0              738.53296      15142.665     -14457.306     -102.2158       53312.262      37.636483      37.636483      37.636483      1.5582164     -1218.2045     -496.74286      197.92916    
     83000   83000          627.2443       46.627309      8620.2623      8584.5188      5644.6126      2939.9062      2125.1231      3662.0218     -4265.5101      0              746.08584      15127.141     -14454.956     -103.67273      52563.058      37.459348      37.459348      37.459348      1.5804264     -327.47759     -1270.9297      1738.2893    
     84000   84000          615.61328     -1208.8257      7466.9203      8405.204       5539.9443      2865.2597      2266.5326      3491.5668     -4270.3982      0              678.06828      15156.926     -14457.436     -102.38835      53222.419      37.61533       37.61533       37.61533       1.5608468     -1500.7839     -3730.1895      1604.4964    
     85000   85000          626.70099     -414.78616      8317.9163      8631.0264      5639.7233      2991.3031      2275.5797      3535.6268     -4252.3025      0              757.89617      15143.718     -14469.215     -105.28057      51760.315      37.267675      37.267675      37.267675      1.604937       223.50516     -568.60678     -899.25685    
     86000   86000          622.87917      86.070488      8623.4044      8558.9312      5605.3305      2953.6007      2289.9252      3468.759      -4251.8534      0              749.73377      15162.456     -14465.42      -106.09527      51362.853      37.172039      37.172039      37.172039      1.6173565      2155.5226     -1374.245      -523.06622    
     87000   87000          615.19106      710.62227      9090.5363      8561.6959      5536.1447      3025.5513      2216.8567      3646.6171     -4254.8292      0              721.44212      15162.793     -14467.328     -106.79115      51028.156      37.091121      37.091121      37.091121      1.6279648      2365.8129     -286.75399      52.807919    
     88000   88000          627.35977     -1522.9842      7408.2915      8540.3681      5645.6517      2894.7164      2283.1471      3509.1231     -4271.4892      0              690.11719      15147.694     -14463.876     -106.91548      50968.816      37.076738      37.076738      37.076738      1.6298602     -1029.3493     -2840.6858     -698.91749    
     89000   89000          603.86582     -2020.1286      6875.3661      8394.9852      5434.2281      2960.7571      2282.1618      3591.4667     -4275.9482      0              675.02339      15161.143     -14473.09      -105.64898      51579.822      37.224306      37.224306      37.224306      1.6105531     -1959.0496     -1325.9852     -2775.3508    
     90000   90000          618.11028     -676.5474       8036.1163      8532.8021      5562.4149      2970.3871      2289.8293      3572.3454     -4262.5545      0              675.48039      15196.276     -14500.989     -108.25242      50339.344      36.923471      36.923471      36.923471      1.6502409     -1145.3852      469.71735     -1353.9744    
     91000   91000          624.06605      1361.0911      9366.7681      8377.437       5616.0113      2761.4257      2134.9555      3549.1324     -4293.4839      0              666.95195      15192.667     -14488.798     -109.33686      49840.061      36.800992      36.800992      36.800992      1.6667725      1515.5343      637.23106      1930.5081    
     92000   92000          611.02699      156.44104      8412.0005      8293.6249      5498.6719      2794.953       2151.5463      3548.8334     -4262.316       0              686.24912      15122.892     -14452.252     -105.02916      51884.217      37.297388      37.297388      37.297388      1.6011043      864.86862     -2098.0983      1702.5528    
     93000   93000          618.97652      375.40881      8822.0921      8530.7883      5570.2103      2960.578       2237.1797      3528.3549     -4244.6344      0              740.74669      15145.109     -14446.178     -102.41873      53206.634      37.61161       37.61161       37.61161       1.5613099      1076.4122      212.29654     -162.48232    
     94000   94000          628.15573     -233.68942      8433.9489      8611.5644      5652.8146      2958.7498      2242.7564      3515.1323     -4253.526       0              773.16056      15140.965     -14459.738     -104.56326      52115.394      37.352701      37.352701      37.352701      1.594002       162.49593     -1124.7297      261.1655     
     95000   95000          592.96457      481.50048      8623.1556      8258.0253      5336.127       2921.8983      2169.7694      3529.2483     -4221.8612      0              756.65028      15159.925     -14471.833     -104.80208      51996.636      37.324307      37.324307      37.324307      1.5976427     -1573.9088      717.4246       2300.9857    
     96000   96000          612.39781     -714.0903       7921.3956      8465.4952      5511.008       2954.4872      2231.6275      3554.8698     -4256.4214      0              755.14237      15121.046     -14451.777     -104.30276      52245.554      37.383771      37.383771      37.383771      1.5900308     -1357.0014     -2291.3706      1506.1011    
     97000   97000          609.33877      463.6521       8839.3536      8494.198       5483.4795      3010.7185      2257.3018      3564.8326     -4244.3184      0              770.51805      15130.164     -14467.779     -106.75749      51044.247      37.095019      37.095019      37.095019      1.6274516      574.85295      767.67917      48.424179    
     98000   98000          602.72818     -112.16978      8308.6425      8395.5256      5423.9904      2971.5352      2264.1738      3521.102      -4247.6612      0              757.15254      15132.298     -14455.53      -102.60338      53110.879      37.589034      37.589034      37.589034      1.5641248      531.6045      -2046.5435      1178.4296    
     99000   99000          632.43703     -399.04719      8371.8428      8680.5214      5691.3423      2989.1792      2307.5663      3519.4117     -4258.9717      0              718.71464      15160.069     -14457.611     -102.73979      53040.363      37.572391      37.572391      37.572391      1.5662043     -285.57516      681.99564     -1593.5621    
    100000   100000         615.27796     -1127.3833      7632.8125      8501.659       5536.9267      2964.7323      2209.0669      3558.2933     -4227.5825      0              737.65769      15134.149     -14446.852     -103.12159      52843.982      37.525963      37.525963      37.525963      1.5720247     -1455.6743     -478.39532     -1448.0802    
    101000   101000         595.96407     -779.93745      7648.173       8227.7509      5363.1197      2864.6312      2207.6093      3535.7594     -4241.1146      0              659.01522      15173.498     -14470.136     -106.9471       50953.747      37.073083      37.073083      37.073083      1.6303422     -126.10584     -1678.6019     -535.10462    
    102000   102000         613.17515      955.33459      9305.3603      8593.815       5518.0034      3075.8116      2347.8365      3545.6549     -4253.2806      0              738.94418      15166.134     -14469.477     -106.70235      51070.623      37.101407      37.101407      37.101407      1.6266111      18.215896      613.76096      2234.0269    
    103000   103000         612.13215      2856.5314      10577.365      8474.0588      5508.6174      2965.4415      2214.927       3496.7693     -4236.4416      0              788.85436      15173.744     -14472.412     -107.93384      50487.927      36.959763      36.959763      36.959763      1.6453843      2543.6755      3366.7411      2659.1776    
    104000   104000         619.67599     -1027.676       7769.8615      8535.8513      5576.5048      2959.3465      2242.4004      3608.7862     -4243.2279      0              664.18089      15139.956     -14452.749     -106.62382      51108.237      37.110514      37.110514      37.110514      1.625414      -1146.6327     -279.15543     -1657.2398    
    105000   105000         608.5848      -704.07688      7785.1726      8308.5328      5476.6945      2831.8383      2164.0265      3477.7424     -4251.4739      0              750.12485      15169.502     -14478.083     -106.91545      50968.834      37.076742      37.076742      37.076742      1.6298596      778.6993      -1002.2369     -1888.693     
    106000   106000         609.71429     -520.06864      8062.6571      8456.8536      5486.8588      2969.9948      2245.714       3510.3985     -4250.3093      0              775.24123      15139.868     -14450.917     -104.85011      51972.815      37.318606      37.318606      37.318606      1.5983749      798.93678     -894.0625      -1465.0802    
    107000   107000         621.30472     -1271.3305      7529.8521      8490.1655      5591.1619      2899.0036      2278.1517      3476.6192     -4254.957       0              701.04461      15159.241     -14461.096     -105.21229      51793.906      37.275735      37.275735      37.275735      1.6038961     -1354.776      -628.07683     -1831.1386    
    108000   108000         626.85557      1076.3155      9358.538       8554.012       5641.1143      2912.8977      2174.7807      3499.7797     -4246.2497      0              791.5691       15156.793     -14463.775     -106.32137      51253.627      37.145671      37.145671      37.145671      1.6208032      328.17595      1161.606       1739.1645    
    109000   109000         616.03083      188.94627      8685.1176      8545.7137      5543.7018      3002.0119      2260.898       3573.5094     -4225.4503      0              691.74206      15177.102     -14475.79      -107.71705      50589.536      36.984541      36.984541      36.984541      1.6420796     -74.093043     -575.90509      1216.8369    
    110000   110000         605.99392      636.47354      8788.6269      8306.3563      5453.379       2852.9773      2220.7809      3384.2378     -4221.8546      0              788.08893      15137.475     -14455.751     -104.88434      51955.854      37.314546      37.314546      37.314546      1.5988967      706.11002      3220.721      -2017.4104    
    111000   111000         620.66762      2878.8391      10708.924      8468.9916      5585.4286      2883.563       2151.6113      3519.2486     -4280.7744      0              814.56309      15117.168     -14438.254     -102.1418       53350.885      37.64557       37.64557       37.64557       1.5570884      3090.5062      3353.2291      2192.7821    
    112000   112000         606.26926      6.9458269      8448.5786      8443.1656      5455.8568      2987.3087      2232.4067      3491.9342     -4270.9543      0              846.56487      15118.813     -14431.456     -101.97819      53436.479      37.665691      37.665691      37.665691      1.5545943     -140.29064      523.03197     -361.90385    
    113000   113000         626.43755      854.76175      9325.423       8673.2359      5637.3526      3035.8833      2370.0265      3534.7855     -4275.9444      0              731.93052      15115.451     -14440.366     -104.15831      52318.011      37.401045      37.401045      37.401045      1.5878288      424.92277      623.9234       1515.4391    
    114000   114000         610.50344      603.15253      8889.0411      8425.8546      5493.9605      2931.8942      2210.3805      3570.3648     -4253.7447      0              709.53813      15146.394     -14451.038     -103.48855      52656.604      37.481556      37.481556      37.481556      1.5776187     -1796.3185      327.85192      3277.9241    
    115000   115000         610.89501     -2078.9632      6847.5252      8470.011       5497.4843      2972.5268      2283.9849      3552.8024     -4286.3026      0              733.82696      15130.991     -14442.776     -101.83262      53512.868      37.683631      37.683631      37.683631      1.5523751     -1603.7796     -2360.3505     -2272.7594    
    116000   116000         614.36518     -476.31375      8018.836       8391.721       5528.7126      2863.0084      2140.3569      3506.2182     -4275.7117      0              824.48486      15096.19      -14428.529     -101.51712      53679.18       37.72263       37.72263       37.72263       1.5475654      156.5678      -857.13913     -728.36991    
    117000   117000         610.37867      397.41829      8711.4784      8408.2226      5492.8377      2915.3849      2283.1977      3470.4117     -4250.0445      0              730.1814       15132.513     -14450.875     -104.15012      52322.124      37.402026      37.402026      37.402026      1.5877039      683.798        394.4571       113.99977    
    118000   118000         608.03512     -412.20753      8213.1098      8529.4874      5471.7479      3057.7395      2289.1432      3636.457      -4266.9655      0              711.43993      15134.466     -14446.801     -103.54552      52627.634      37.474681      37.474681      37.474681      1.5784871     -1500.5131      1230.869      -966.97851    
    119000   119000         606.77769     -1349.6512      7503.9923      8539.7173      5460.4322      3079.2851      2280.4432      3630.1455     -4269.1039      0              756.16495      15106.825     -14425.19      -103.56145      52619.536      37.472759      37.472759      37.472759      1.57873       -1387.6152     -3101.4758      440.13739    
    120000   120000         607.88384      102.97767      8486.1788      8408.9545      5470.3866      2938.568       2234.8455      3537.2007     -4259.3784      0              749.61848      15132.495     -14456.213     -105.9767       51420.316      37.185896      37.185896      37.185896      1.6155491     -883.75635      342.4082       850.28115    
    121000   121000         630.41261     -568.63365      8073.0002      8502.9071      5673.1244      2829.7828      2219.3514      3481.9703     -4249.4657      0              697.05199      15135.987     -14455.112     -105.11849      51840.124      37.28682       37.28682       37.28682       1.6024661     -780.97139     -475.25057     -449.679      
    122000   122000         600.45724     -318.21677      8081.7293      8331.195       5403.5541      2927.641       2199.3275      3510.8171     -4267.475       0              807.5874       15109.083     -14431.698     -101.37556      53754.137      37.74018       37.74018       37.74018       1.5454074     -1226.2958      1138.1861     -866.54055    
    123000   123000         619.53222      332.85637      8750.6734      8488.9651      5575.2111      2913.754       2270.0803      3492.812      -4260.9169      0              743.27692      15095.253     -14426.752     -101.07886      53911.924      37.77707       37.77707       37.77707       1.5408844      873.6619       1464.261      -1339.3538    
    124000   124000         603.12359     -1021.7914      7552.9408      8354.5653      5427.5487      2927.0166      2250.5732      3497.189      -4270.8071      0              760.10407      15130.046     -14440.089     -101.30067      53793.876      37.749478      37.749478      37.749478      1.5442658     -1285.6602     -942.8356      -836.87855    
    125000   125000         629.22791      633.26768      9135.0753      8641.1739      5662.4632      2978.7107      2304.8558      3434.1832     -4276.7877      0              828.29969      15114.644     -14426.485     -101.89857      53478.236      37.6755        37.6755        37.6755        1.5533804      773.75707     -20.136885      1146.1829    
    126000   126000         612.93244     -305.12196      8135.2813      8371.9782      5515.8192      2856.1591      2256.2971      3500.7696     -4271.3232      0              688.02551      15120.185     -14437.795     -102.44765      53191.614      37.608071      37.608071      37.608071      1.5617508      629.75323     -2381.9587      836.83959    
    127000   127000         608.1689      -1198.5558      7442.5972      8365.439       5472.9518      2892.4871      2253.0444      3535.9966     -4262.4525      0              695.69485      15117.157     -14446.953     -103.21719      52795.038      37.514374      37.514374      37.514374      1.573482      -1178.8472     -1344.3637     -1072.4564    
    128000   128000         623.6082      -1035.8366      7727.5094      8533.1551      5611.8911      2921.264       2214.5712      3513.4334     -4244.553       0              756.20559      15114.49      -14432.883     -102.18053      53330.663      37.640813      37.640813      37.640813      1.5576788     -723.06211     -96.356284     -2288.0913    
    129000   129000         610.7465      -30.229607      8295.6256      8318.5981      5496.1478      2822.4503      2186.8944      3485.0938     -4264.3927      0              739.7012       15121.013     -14445.859     -104.57892      52107.592      37.350837      37.350837      37.350837      1.5942407      995.59271      47.737389     -1134.0189    
    130000   130000         620.40326      621.03824      9056.5818      8584.4349      5583.0496      3001.3853      2171.7086      3639.6277     -4259.3189      0              751.51574      15159.41      -14461.558     -104.53512      52129.425      37.356053      37.356053      37.356053      1.593573      -383.20184      1762.874       483.44256    
    131000   131000         606.73793     -1272.2503      7342.9779      8347.6662      5460.0744      2887.5917      2262.2442      3457.1273     -4237.903       0              716.96328      15128.227     -14439.067     -100.63806      54148.058      37.832145      37.832145      37.832145      1.5341648     -2084.2186     -1913.4598      180.92744    
    132000   132000         608.69462     -671.44822      7818.3899      8346.6215      5477.6827      2868.9388      2162.117       3506.166      -4223.9469      0              754.64081      15098.254     -14428.292     -101.02043      53943.105      37.784352      37.784352      37.784352      1.5399937      10.233584     -1534.4253     -490.153      
    133000   133000         615.36924     -2375.046       6693.2986      8587.9293      5537.7481      3050.1812      2291.4342      3527.3533     -4261.3779      0              813.56145      15099.042     -14419.832     -99.62504       54698.654      37.959943      37.959943      37.959943      1.5187219     -4040.8993     -3523.8004      439.56161    
    134000   134000         613.43918      2380.4303      10414.091      8497.6099      5520.3794      2977.2305      2169.7625      3479.2587     -4220.199       0              885.80287      15090.664     -14428.058     -98.712468      55204.329      38.076561      38.076561      38.076561      1.5048103      2941.9418      2479.8843      1719.4647    
    135000   135000         599.45755     -36.48169       8343.532       8372.1366      5394.5578      2977.5788      2219.0998      3557.3155     -4234.1473      0              750.59477      15122.336     -14437.62      -101.3584       53763.235      37.742309      37.742309      37.742309      1.5451459      1106.5641      333.95591     -1549.965     
    136000   136000         608.24927      397.56114      8916.4106      8609.8036      5473.675       3136.1286      2288.711       3566.5909     -4219.295       0              799.5194       15156.503     -14455.901     -103.04881      52881.303      37.534795      37.534795      37.534795      1.5709152      41.607447      1279.0352     -127.9592     
    137000   137000         619.68756     -295.04982      8000.1993      8224.6686      5576.6089      2648.0597      2149.3276      3323.1715     -4241.0707      0              724.62442      15150.504     -14458.497     -104.46226      52165.783      37.364735      37.364735      37.364735      1.5924623     -823.1359      -409.91196      347.89842    
    138000   138000         625.12804      1846.5884      9920.7596      8531.8859      5625.5682      2906.3177      2178.0542      3489.3862     -4239.7185      0              759.40888      15186.818     -14467.631     -105.66433      51572.329      37.222504      37.222504      37.222504      1.6107871      224.30793      3329.368       1986.0894    
    139000   139000         621.95093      1031.8381      9394.3216      8612.4256      5596.9772      3015.4484      2207.7137      3594.8466     -4226.0205      0              747.61928      15150.155     -14458.866     -104.87782      51959.087      37.31532       37.31532       37.31532       1.5987972      324.8294       1085.2679      1685.4169    
    140000   140000         602.19928     -1022.9033      7619.0129      8391.3056      5419.2308      2972.0748      2227.5661      3584.9422     -4226.2844      0              683.65623      15167.811     -14465.616     -105.2625       51769.203      37.269808      37.269808      37.269808      1.6046614     -161.0882      -2658.9988     -248.62291    
    141000   141000         621.63829      71.637637      8687.8426      8631.9244      5594.1637      3037.7607      2276.0914      3538.4344     -4218.3804      0              746.3121       15141.954     -14446.651     -101.81426      53522.518      37.685896      37.685896      37.685896      1.5520952      156.30214     -1446.4553      1505.066     
    142000   142000         613.09084     -1342.0112      7513.207       8536.4168      5517.2446      3019.1721      2329.4054      3487.9546     -4226.7381      0              721.73008      15168.776     -14461.956     -104.23475      52279.643      37.3919        37.3919        37.3919        1.5889941     -2317.5682     -1347.5665     -360.89895    
    143000   143000         602.04107      1402.1876      9484.8602      8399.4905      5417.807       2981.6835      2170.4205      3577.0086     -4217.71        0              724.30099      15182.362     -14454.699     -102.6714       53075.692      37.580731      37.580731      37.580731      1.5651617      2021.9126     -359.12423      2543.7745    
    144000   144000         608.69708      1143.1736      9208.5781      8330.6211      5477.7049      2852.9162      2120.5723      3461.9255     -4233.8282      0              794.82891      15162.728     -14453.31      -103.48086      52660.518      37.482485      37.482485      37.482485      1.5775014      696.61949      2817.5766     -84.675228    
    145000   145000         608.81703      479.32984      8849.4425      8482.2215      5478.7843      3003.4372      2269.2943      3529.9309     -4234.8591      0              732.66772      15166.098     -14459.695     -103.73564      52531.178      37.451773      37.451773      37.451773      1.5813855      915.23141     -990.98208      1513.7402    
    146000   146000         611.54219     -527.29098      8005.3303      8419.9725      5503.3083      2916.6642      2199.6996      3480.0649     -4264.9414      0              790.93816      15139.73      -14428.827     -101.06434      53919.667      37.778879      37.778879      37.778879      1.5406631     -445.13746     -1663.4866      526.75112    
    147000   147000         610.70371     -735.72394      7947.8522      8520.1669      5495.7628      3024.4041      2195.3019      3590.656      -4232.0443      0              750.64847      15163.257     -14443.415     -102.16475      53338.905      37.642752      37.642752      37.642752      1.5574381      32.835696     -595.64316     -1644.3644    
    148000   148000         602.93025     -480.75964      8130.5104      8497.9744      5425.8089      3072.1656      2240.1349      3529.9894     -4228.9127      0              824.0263       15152.127     -14445.199     -103.97625      52409.617      37.422862      37.422862      37.422862      1.5850534     -685.08157     -185.26029     -571.93708    
    149000   149000         612.4366       968.01905      9187.0485      8434.8169      5511.3571      2923.4598      2147.4678      3529.6871     -4246.5607      0              756.02756      15187.861     -14451.023     -102.2712       53283.382      37.629686      37.629686      37.629686      1.559061       454.32472      817.38027      1632.3522    
    150000   150000         605.14669      294.98781      8700.3955      8469.7455      5445.7547      3023.9908      2223.9762      3493.8781     -4209.1589      0              806.35045      15142.034     -14433.089     -101.64164      53613.416      37.707218      37.707218      37.707218      1.5494637      699.2776       251.21349     -65.527675    
    151000   151000         611.98803     -394.24484      8178.8378      8486.8539      5507.3203      2979.5335      2093.1787      3698.5343     -4260.1861      0              748.38416      15124.735     -14425.113     -101.72174      53571.202      37.697319      37.697319      37.697319      1.5506847      394.07211      450.8375      -2027.6442    
    152000   152000         608.29222     -1126.5594      7557.6012      8444.2806      5474.0616      2970.2191      2231.1109      3484.6683     -4246.0818      0              809.90426      15123.637     -14433.02      -100.97375      53968.041      37.790173      37.790173      37.790173      1.5392822     -1987.8742      221.23726     -1613.0411    
    153000   153000         587.47417     -1291.6596      7425.5602      8409.4028      5286.7186      3122.6842      2314.7388      3550.6412     -4212.6003      0              741.64158      15191.204     -14462.941     -104.33824      52227.789      37.379534      37.379534      37.379534      1.5905717     -1834.4678      1074.0687     -3114.5798    
    154000   154000         621.34722     -182.03015      8394.7135      8532.3407      5591.5444      2940.7963      2171.3109      3531.0899     -4238.5025      0              761.63966      15180.596     -14465.337     -105.11392      51842.379      37.28736       37.28736       37.28736       1.6023964     -1463.5742      1765.2569     -847.77315    
    155000   155000         611.79512     -1292.7677      7385.7011      8363.756       5505.5844      2858.1716      2243.9753      3462.6671     -4250.0643      0              689.43377      15183.393     -14471.233     -105.04571      51876.043      37.29543       37.29543       37.29543       1.6013566     -1200.9907      612.53019     -3289.8426    
    156000   156000         599.02061     -688.69765      7816.1309      8341.8025      5390.6258      2951.1767      2151.1941      3607.3575     -4230.7174      0              685.31776      15204.854     -14466.83      -104.12024      52337.14       37.405603      37.405603      37.405603      1.5872484     -777.77569      1134.2372     -2422.5544    
    157000   157000         631.21075      530.83468      8834.96        8437.7281      5680.3069      2757.4212      2084.9529      3439.3348     -4215.3079      0              763.45151      15149.675     -14464.685     -106.20287      51310.815      37.159481      37.159481      37.159481      1.6189968     -298.47879     -85.247471      1976.2303    
    158000   158000         598.8026       401.66479      8581.7995      8280.3077      5388.6638      2891.6439      2266.0492      3366.9067     -4194.9053      0              726.71928      15194.289     -14467.415     -105.87889      51467.817      37.197343      37.197343      37.197343      1.614058       238.00104      409.22551      557.76782    
    159000   159000         614.87277      37.702375      8543.3184      8515.4326      5533.2803      2982.1522      2229.041       3527.0981     -4201.2481      0              700.53138      15202.78      -14476.05      -107.45015      50715.197      37.015138      37.015138      37.015138      1.6380109     -690.47467      365.27588      438.30592    
    160000   160000         620.62172     -419.2492       8106.2424      8421.4717      5585.0155      2836.4562      2235.7312      3357.1217     -4228.5074      0              744.46016      15207.651     -14480         -105.69798      51555.91       37.218553      37.218553      37.218553      1.6113001      59.329339     -204.49319     -1112.5837    
    161000   161000         615.32931     -141.6724       8400.7442      8509.0793      5537.3888      2971.6906      2225.4559      3561.1777     -4231.08        0              683.33326      15195.966     -14463.162     -103.92901      52433.444      37.428532      37.428532      37.428532      1.5843332     -283.08927      524.81742     -666.74534    
    162000   162000         585.63365     -554.85533      7773.21        8182.9314      5270.1556      2912.7758      2197.7325      3515.8999     -4209.0383      0              688.90173      15194.434     -14475.154     -107.62476      50632.917      36.995109      36.995109      36.995109      1.6406727     -1211.5404      890.10788     -1343.1334    
    163000   163000         621.49261     -2033.355       6931.474       8496.7974      5592.8527      2903.9447      2292.3185      3420.3904     -4251.3875      0              718.10019      15172.629     -14448.106     -103.23576      52785.542      37.512125      37.512125      37.512125      1.5737651     -1219.5839     -1952.798      -2927.6832    
    164000   164000         596.56155      68.448675      8266.754       8213.8637      5368.4965      2845.3672      2136.8204      3456.6581     -4236.4022      0              764.96612      15174.553     -14451.229     -102.85137      52982.818      37.558798      37.558798      37.558798      1.5679053     -188.60587      926.08004     -532.12814    
    165000   165000         614.76192      649.63241      8907.4126      8412.2853      5532.2828      2880.0025      2112.2872      3450.3544     -4240.2697      0              833.41689      15193.113     -14468.899     -104.273        52260.465      37.387328      37.387328      37.387328      1.5895772      52.782615      144.32853      1751.7861    
    166000   166000         603.93353     -2409.6925      6369.585       8223.064       5434.8374      2788.2267      2139.2467      3413.2883     -4213.3887      0              746.80162      15139.331     -14437.052     -103.32252      52741.217      37.501622      37.501622      37.501622      1.5750877     -2208.5425     -1998.4924     -3022.0427    
    167000   167000         610.39703      701.72588      9026.3253      8492.7163      5493.0029      2999.7134      2198.6073      3535.3302     -4219.077       0              779.81667      15173.823     -14468.787     -104.51183      52141.042      37.358827      37.358827      37.358827      1.5932179     -102.63171      1493.1232      714.68615    
    168000   168000         615.29404      1194.0371      9466.7996      8534.8382      5537.0714      2997.7667      2214.5045      3477.0355     -4217.6754      0              801.81312      15156.811     -14434.722     -101.82184      53518.536      37.684961      37.684961      37.684961      1.5522107      425.21899      2209.8632      947.029      
    169000   169000         603.53681     -1310.6669      7455.1375      8501.9314      5431.2673      3070.6641      2205.4977      3559.9341     -4232.8218      0              827.81375      15142.666     -14432.426     -99.506672      54763.721      37.974988      37.974988      37.974988      1.5169174     -2083.5051     -1291.4404     -557.05535    
    170000   170000         594.52876      1390.4396      9269.6243      8170.9101      5350.2032      2820.7068      2139.8391      3415.6501     -4257.1307      0              800.67878      15162.731     -14441.062     -100.57462      54182.212      37.840097      37.840097      37.840097      1.5331977      1881.8793      1565.9314      723.50805    
    171000   171000         604.02559     -2.6987497      8429.466       8431.5342      5435.6659      2995.8684      2145.6707      3627.7117     -4233.2682      0              730.83671      15178.729     -14453.812     -103.70228      52548.078      37.455789      37.455789      37.455789      1.5808769     -1434.5101      70.757574      1355.6563    
    172000   172000         609.34197     -672.37718      7953.3365      8464.3899      5483.5083      2980.8816      2181.9568      3525.1155     -4210.5428      0              767.11233      15178.292     -14461.052     -104.56051      52116.765      37.353028      37.353028      37.353028      1.5939601     -1329.0908     -1555.7706      867.72981    
    173000   173000         609.90808     -44.199653      8295.9424      8329.6857      5488.6028      2841.0829      2147.9541      3422.4008     -4237.1467      0              790.57076      15167.146     -14449.842     -104.10027      52347.179      37.407995      37.407995      37.407995      1.586944      -1239.3834     -1255.6276      2362.4121    
    174000   174000         601.3509      -60.509682      8230.5329      8276.8185      5411.5961      2865.2224      2146.5814      3467.7028     -4226.5225      0              736.21451      15201.148     -14459.902     -103.89618      52450.01       37.432474      37.432474      37.432474      1.5838327     -1600.6974     -784.44504      2203.6134    
    175000   175000         611.6899       657.67751      8887.4026      8393.892       5504.6375      2889.2544      2133.1745      3462.2968     -4202.2072      0              756.44396      15208.196     -14468.65      -105.91014      51452.632      37.193684      37.193684      37.193684      1.6145344      3150.8247     -78.394222     -1099.398     
    176000   176000         618.82969     -688.74697      7971.2439      8504.5028      5568.8889      2935.6139      2236.5696      3363.3102     -4204.2235      0              808.17924      15170.281     -14438.503     -102.64615      53088.75       37.583813      37.583813      37.583813      1.5647768     -530.20466     -1557.0154      20.979138    
    177000   177000         611.64152     -245.37842      8418.1225      8609.2966      5504.2021      3105.0945      2189.6631      3541.8691     -4180.5059      0              829.45624      15164.939     -14440.328     -102.0066       53421.598      37.662195      37.662195      37.662195      1.5550273     -418.62581      10.894263     -328.4037     
    178000   178000         608.69108     -715.50019      7810.787       8365.5876      5477.6509      2887.9366      2164.494       3445.442      -4202.4732      0              746.28215      15182.028     -14447.836     -102.49292      53168.119      37.602533      37.602533      37.602533      1.5624409     -1258.5318     -663.00773     -224.96109    
    179000   179000         611.79301     -941.62577      7698.0401      8429.2853      5505.5654      2923.7199      2204.6875      3473.9884     -4219.7068      0              713.65438      15187.308     -14436.211     -102.33786      53248.676      37.621514      37.621514      37.621514      1.5600772     -195.58539     -960.26256     -1669.0294    
    180000   180000         617.61934     -272.06145      8412.0173      8622.1308      5557.9969      3064.1339      2173.4542      3589.5781     -4197.3221      0              773.63239      15172.607     -14447.816     -102.90444      52955.498      37.552341      37.552341      37.552341      1.5687142     -1142.5603     -757.54182      1083.9177    
    181000   181000         597.46317      845.20921      9053.0802      8377.5392      5376.6102      3000.929       2168.9825      3480.9968     -4203.1696      0              829.67142      15164.64      -14440.192     -99.433697      54803.912      37.984276      37.984276      37.984276      1.515805       1529.3362     -152.51924      1158.8107    
    182000   182000         614.97703      532.31417      9080.5662      8651.2422      5534.2186      3117.0236      2228.754       3537.4017     -4216.5404      0              845.29542      15146.527     -14424.414     -98.538042      55302.049      38.099014      38.099014      38.099014      1.5021513     -694.6121       2310.9175     -19.36287     
    183000   183000         611.61541     -848.85744      7664.0652      8326.6396      5503.9672      2822.6725      2086.0213      3506.5065     -4233.4842      0              731.40711      15174.626     -14442.404     -101.8172       53520.973      37.685533      37.685533      37.685533      1.55214       -1822.0571      531.10097     -1255.6162    
    184000   184000         614.55561      1169.702       9465.6589      8572.9618      5530.4262      3042.5356      2141.4103      3575.6468     -4222.3229      0              789.76233      15221.829     -14463.79      -104.1339       52330.275      37.403968      37.403968      37.403968      1.5874566      126.23424      1148.0397      2234.8322    
    185000   185000         613.29379      221.63996      8626.6042      8457.0097      5519.071       2937.9387      2177.9979      3460.0411     -4218.2474      0              791.55907      15187.414     -14460.826     -103.86218      52467.179      37.436557      37.436557      37.436557      1.5833145      1622.5562      718.13127     -1675.7675    
    186000   186000         603.08778     -715.14301      7686.9981      8232.1288      5427.2265      2804.9024      2242.8662      3366.1543     -4222.0233      0              717.49615      15162.881     -14462.472     -104.25893      52267.519      37.38901       37.38901       37.38901       1.5893627      967.58412      542.73339     -3655.7465    
    187000   187000         600.41919      2323.6435      10012.971      8224.3581      5403.2116      2821.1465      2152.5824      3465.4825     -4246.6898      0              723.86477      15184.98      -14459.073     -103.24623      52780.192      37.510857      37.510857      37.510857      1.5739246      1011.7553      3092.6368      2866.5384    
    188000   188000         609.83648      104.60602      8623.9924      8542.7305      5487.9585      3054.7721      2253.0736      3484.1498     -4217.0153      0              819.48327      15155.978     -14440.897     -102.30366      53266.477      37.625706      37.625706      37.625706      1.5595558      294.7679       323.64046     -304.59029    
    189000   189000         602.80022     -918.42559      7686.3448      8390.7901      5424.6387      2966.1514      2288.6398      3498.1857     -4219.9493      0              687.23637      15164.259     -14452.221     -103.61383      52592.936      37.466444      37.466444      37.466444      1.5795285      444.07789      40.439505     -3239.7941    
    190000   190000         611.88208     -566.61563      8081.8775      8513.2553      5506.3669      3006.8884      2301.0471      3491.0964     -4229.2911      0              731.35604      15167.28      -14454.6       -104.38829      52202.749      37.373559      37.373559      37.373559      1.5913347     -3337.2061      919.8043       717.5549     
    191000   191000         599.46253      728.27617      8849.6419      8295.7018      5394.6026      2901.0992      2164.4188      3489.037      -4206.6037      0              725.00536      15198.85      -14469.608     -104.4851       52154.381      37.362013      37.362013      37.362013      1.5928104      402.70454      1189.2508      592.87315    
    192000   192000         621.8965      -1656.3927      7257.8098      8541.7179      5596.4874      2945.2305      2311.5079      3371.3542     -4207.5206      0              740.59658      15168.13      -14438.837     -102.52987      53148.958      37.598015      37.598015      37.598015      1.5630042     -2013.4124      94.356385     -3050.1221    
    193000   193000         611.7914      -889.03431      7828.4948      8532.656       5505.5509      3027.1051      2297.5683      3491.1533     -4237.5288      0              750.68436      15151.383     -14426.155     -100.33847      54309.737      37.869761      37.869761      37.869761      1.5295976     -737.06942     -1679.5504     -250.48307    
    194000   194000         593.3163      -107.75001      8198.0972      8280.5384      5339.2923      2941.2461      2249.2894      3431.1332     -4211.2479      0              729.70412      15209.47      -14467.102     -103.87101      52462.721      37.435497      37.435497      37.435497      1.583449      -459.59842     -66.239701      202.5881     
    195000   195000         612.48678      424.42397      8711.7427      8384.8489      5511.8087      2873.0402      2175.7973      3439.759      -4233.0108      0              785.94732      15158.802     -14454.255     -103.18443      52811.804      37.518344      37.518344      37.518344      1.5729825      166.59517     -1256.5312      2363.2079    
    196000   196000         610.83156      1268.2121      9542.4624      8587.2428      5496.9132      3090.3296      2271.4371      3536.1754     -4209.3903      0              770.8872       15186.272     -14465.052     -105.51391      51645.853      37.240184      37.240184      37.240184      1.608494      -275.8061       1605.9022      2474.5401    
    197000   197000         597.49701      39.735857      8368.6858      8338.7662      5376.9148      2961.8514      2167.5247      3562.0767     -4218.332       0              733.58625      15176.63      -14459.634     -105.54744      51629.443      37.236239      37.236239      37.236239      1.6090052      138.13159      1079.294      -1098.218     
    198000   198000         627.45401      998.70513      9311.5757      8552.2585      5646.4998      2905.7587      2206.5916      3486.0278     -4233.9092      0              714.93185      15187.68      -14455.563     -104.52858      52132.684      37.356831      37.356831      37.356831      1.5934734      2190.458       119.51541      686.14198    
    199000   199000         599.16046     -729.57363      7740.1343      8295.0939      5391.8842      2903.2096      2222.2531      3444.9876     -4225.348       0              719.39979      15200.149     -14458.232     -104.47896      52157.445      37.362744      37.362744      37.362744      1.5927169     -8.6803636      198.2747      -2378.3152    
    200000   200000         600.49606     -1168.248       7453.2313      8361.2648      5403.9034      2957.3615      2169.1586      3522.6223     -4226.2373      0              772.6407       15155.763     -14436.586     -102.24786      53295.549      37.63255       37.63255       37.63255       1.5587051     -1246.4493     -457.1753      -1801.1194    
    201000   201000         597.17102      431.83827      8661.1991      8327.9526      5373.9811      2953.9715      2231.1626      3442.7519     -4217.136       0              755.28237      15201.072     -14459.161     -102.98563      52913.749      37.54247       37.54247       37.54247       1.5699519      2420.6391     -492.15267     -632.97158    
    202000   202000         590.75155      490.19331      8614.1928      8240.8817      5316.2119      2924.6697      2128.2139      3481.3583     -4207.4825      0              794.05241      15184.066     -14455.538     -104.356        52218.898      37.377413      37.377413      37.377413      1.5908425     -849.88654     -545.09485      2865.5613    
    203000   203000         612.41494      1292.09        9386.0784      8395.7294      5511.1622      2884.5672      2205.8935      3431.604      -4204.8953      0              730.9374       15192.274     -14471.246     -103.68729      52555.676      37.457594      37.457594      37.457594      1.5806484      376.60173      1402.2323      2097.4359    
    204000   204000         586.5707      -711.14062      7650.1782      8203.709       5278.5882      2925.1209      2290.2793      3414.3735     -4221.8443      0              728.46365      15170.88      -14457.031     -102.10211      53371.625      37.650447      37.650447      37.650447      1.5564833     -888.95547      369.44856     -1613.9149    
    205000   205000         609.13656     -835.16802      7751.2158      8383.9556      5481.6598      2902.2958      2190.6104      3456.2771     -4219.1541      0              768.1043       15161.031     -14454.573     -104.89862      51948.783      37.312853      37.312853      37.312853      1.5991143     -4213.5747     -551.51687      2259.5875    
    206000   206000         603.658       -1487.6704      7138.7988      8282.6203      5432.3579      2850.2623      2159.9535      3435.7776     -4194.4963      0              748.15654      15153.135     -14452.264     -103.36405      52720.027      37.496599      37.496599      37.496599      1.5757208     -1854.2431     -1934.5762     -674.19183    
    207000   207000         609.77599      949.04506      9205.813       8483.1806      5487.4141      2995.7665      2201.8621      3521.5244     -4211.3397      0              773.0896       15162.492     -14451.861     -104.37355      52210.123      37.375319      37.375319      37.375319      1.5911099      599.45144      781.51335      1466.1704    
    208000   208000         611.9138       890.31076      9115.2072      8453.6463      5506.6524      2946.994       2258.127       3459.0422     -4220.0736      0              761.81108      15155.748     -14467.661     -106.95297      50950.954      37.072406      37.072406      37.072406      1.6304316      321.02043      2081.7282      268.18364    
    209000   209000         598.61738      1066.7793      8966.4504      8168.0973      5386.997       2781.1003      2108.4756      3389.2878     -4214.0636      0              819.1249       15143.27      -14464.995     -106.19417      51315.018      37.160495      37.160495      37.160495      1.6188642     -269.57369      2428.7874      1041.1244    
    210000   210000         608.34412      2296.5443      10085.562      8361.1285      5474.5286      2886.5999      2120.1163      3476.5617     -4221.7406      0              802.71704      15172.088     -14463.143     -105.83992      51486.77       37.201908      37.201908      37.201908      1.6134639      1242.7103      3349.4454      2297.4772    
    211000   211000         600.72778      69.209385      8487.5804      8435.1587      5405.9887      3029.17        2308.0077      3545.9796     -4245.5224      0              728.15347      15153.525     -14460.974     -104.92387      51936.28       37.30986       37.30986       37.30986       1.5994993     -1485.2099      3815.591      -2122.7529    
    212000   212000         599.06204      963.18518      8912.9944      8187.9828      5390.9986      2796.9842      2118.97        3525.2472     -4249.7823      0              706.95213      15164.49      -14468.893     -105.58102      51613.025      37.232292      37.232292      37.232292      1.609517      -1134.7565      229.67216      3794.6399    
    213000   213000         626.15614      763.44951      9190.0646      8617.0542      5634.8201      2982.2341      2257.9995      3501.7807     -4244.6517      0              753.74421      15186.653     -14473.292     -105.88608      51464.322      37.196501      37.196501      37.196501      1.6141676      834.14867      827.87468      628.32517    
    214000   214000         591.14831      1678.3041      9465.8178      8189.5138      5319.7824      2869.7313      2180.4174      3510.8359     -4244.7948      0              711.90117      15175.048     -14463.676     -104.50512      52144.39       37.359627      37.359627      37.359627      1.5931156      2076.4924      870.42154      2087.9983    
    215000   215000         593.42582     -1519.0039      7063.6056      8231.6068      5340.2779      2891.3289      2169.4232      3574.0416     -4241.3366      0              674.10078      15167.968     -14452.868     -103.35623      52724.018      37.497545      37.497545      37.497545      1.5756015     -1125.3613     -1890.9267     -1540.7235    
    216000   216000         602.73989     -934.97925      7637.5189      8323.1015      5424.0957      2899.0058      2195.6275      3544.2733     -4247.6413      0              698.35281      15192.607     -14484.213     -108.3835       50278.461      36.908579      36.908579      36.908579      1.6522392      357.25591     -880.29761     -2281.896     
    217000   217000         596.41941     -1298.0677      7347.1194      8297.6482      5367.2173      2930.4309      2225.3584      3540.8715     -4247.6789      0              728.13455      15161.351     -14477.606     -108.53083      50210.21       36.891871      36.891871      36.891871      1.6544851     -2403.9977     -284.62165     -1205.5839    
    218000   218000         603.9464       489.43592      8645.2472      8283.6186      5434.9533      2848.6654      2184.7885      3488.0632     -4239.9169      0              697.90141      15184.664     -14466.835     -107.56082      50663.016      37.002439      37.002439      37.002439      1.6396979      63.496488     -80.715835      1485.5271    
    219000   219000         602.75864     -2438.8736      6577.5346      8357.2278      5424.2645      2932.9633      2316.6905      3539.1413     -4234.6308      0              600.87587      15189.795     -14478.908     -108.90936      50035.697      36.84908       36.84908       36.84908       1.6602555     -4223.8861     -4090.6138      997.87905    
    220000   220000         606.88718     -2093.0261      6755.0114      8323.4487      5461.4175      2862.0313      2229.8436      3520.3088     -4246.1444      0              635.15133      15194.862     -14471.99      -106.05435      51382.668      37.176818      37.176818      37.176818      1.6167328     -2559.5976     -1967.9921     -1751.4886    
    221000   221000         603.40275     -427.48965      7903.851       8222.5026      5430.0609      2792.4418      2177.661       3439.6658     -4237.3602      0              696.4755       15190.614     -14474.614     -106.61798      51111.036      37.111191      37.111191      37.111191      1.625325       1818.3829     -1664.4017     -1436.4502    
    222000   222000         589.1139      -2164.9763      6592.1359      8225.0206      5301.4746      2923.5459      2269.1248      3482.9984     -4235.4932      0              687.21339      15175.563     -14455.86      -105.37041      51716.184      37.257081      37.257081      37.257081      1.6063065     -3257.1343     -2519.6987     -718.09575    
    223000   223000         598.18049     -1090.7625      7301.3731      8121.6045      5383.0654      2738.5391      2134.3078      3470.8128     -4252.2891      0              649.59052      15203.44      -14467.322     -105.68537      51562.061      37.220033      37.220033      37.220033      1.6111079     -1684.4215      55.251025     -1643.1172    
    224000   224000         593.41033      1834.6985      9517.9711      8162.8254      5340.1385      2822.687       2129.3325      3408.1865     -4231.7229      0              817.47617      15171.974     -14472.559     -107.5969       50646.029      36.998303      36.998303      36.998303      1.6402479      943.10105      2191.8063      2369.1881    
    225000   225000         595.63941     -721.61778      7547.2647      8094.4234      5360.1981      2734.2253      2168.9956      3409.7442     -4256.8587      0              721.1873       15142.442     -14451.285     -104.81295      51991.242      37.323016      37.323016      37.323016      1.5978084     -319.94133     -2635.4787      790.56673    
    226000   226000         604.45098      1096.4074      9104.2525      8271.3025      5439.494       2831.8084      2131.4704      3510.9805     -4246.6142      0              733.30957      15168.618     -14465.956     -104.6102       52092.009      37.347113      37.347113      37.347113      1.5947176      2194.7579      268.07178      826.39241    
    227000   227000         601.67887      1638.9348      9501.3582      8277.08        5414.5476      2862.5324      2131.6352      3503.143      -4228.8399      0              763.07432      15166.21      -14472.691     -106.39043      51220.353      37.13763       37.13763       37.13763       1.6218561      2557.0522      2068.5892      291.16289    
    228000   228000         609.97188     -1014.1302      7628.3339      8388.6491      5489.1769      2899.4722      2270.0102      3454.5918     -4240.7448      0              703.74766      15186.19      -14474.322     -106.00372      51407.213      37.182737      37.182737      37.182737      1.6159608     -981.18769     -60.941758     -2000.261     
    229000   229000         587.52937     -88.538626      8147.2977      8214.7091      5287.2153      2927.4939      2229.6876      3515.4643     -4244.325       0              700.45253      15184.333     -14458.119     -104.38067      52206.56       37.374468      37.374468      37.374468      1.5912185     -1860.0302      605.67806      988.73629    
    230000   230000         617.14324      1556.2378      9519.2846      8341.4495      5553.7125      2787.737       2107.3466      3437.5887     -4249.5873      0              791.08399      15166.415     -14465.11      -105.0056       51895.855      37.300177      37.300177      37.300177      1.6007452      1799.4885      840.87907      2028.3458    
    231000   231000         596.72518     -1558.3405      7076.3724      8263.5461      5369.969       2893.5771      2263.8423      3455.8748     -4241.6994      0              693.6565       15178.975     -14457.072     -104.32038      52236.732      37.381667      37.381667      37.381667      1.5902994     -604.3434      -1046.0404     -3024.6378    
    232000   232000         625.22396      85.666621      8541.7339      8475.3426      5626.4314      2848.9112      2209.7156      3436.8488     -4244.8922      0              747.65472      15148.673     -14449.089     -102.54658      53140.294      37.595972      37.595972      37.595972      1.563259      -1105.3169      3.4781519      1358.8386    
    233000   233000         606.90039     -1016.1968      7600.9595      8360.835       5461.5364      2899.2985      2215.4672      3476.2283     -4241.9853      0              746.9354       15175.164     -14472.511     -106.2812       51272.995      37.150349      37.150349      37.150349      1.620191      -1804.1677     -2926.1364      1681.7137    
    234000   234000         594.4034      -117.5775       8110.3536      8198.0401      5349.0751      2848.965       2238.856       3445.7902     -4236.5013      0              683.73603      15187.624     -14470.54      -106.56452      51136.676      37.117396      37.117396      37.117396      1.62451        431.78956     -571.02336     -213.49871    
    235000   235000         588.51607      32.152386      8339.0697      8314.7534      5296.0947      3018.6587      2314.8428      3507.3551     -4237.7418      0              726.8369       15173.074     -14465.708     -105.08398      51857.15       37.290902      37.290902      37.290902      1.60194       -1184.2006     -359.36451      1640.0223    
    236000   236000         595.88768      1765.6731      9476.7826      8159.2406      5362.4323      2796.8083      2177.6482      3415.1663     -4256.944       0              745.68881      15191.112     -14475.863     -106.50423      51165.627      37.124399      37.124399      37.124399      1.6235908      757.69195      757.09262      3782.2347    
    237000   237000         608.06181      478.34186      8567.8221      8208.4255      5471.9881      2736.4374      2143.4661      3424.7144     -4251.657       0              724.8811       15157.248     -14462.215     -105.77559      51518.081      37.209448      37.209448      37.209448      1.6124833      910.02797      1334.6488     -809.65121    
    238000   238000         589.02357      135.4787       8320.8509      8220.3792      5300.6617      2919.7175      2279.8298      3435.3653     -4227.8155      0              724.43787      15185.863     -14477.963     -107.16386      50850.687      37.048072      37.048072      37.048072      1.6336464     -464.21023     -301.82604      1172.4724    
    239000   239000         604.6342      -98.126642      8278.1362      8351.7676      5441.1428      2910.6248      2205.3563      3552.1684     -4259.5455      0              719.12232      15150.673     -14457.15      -105.91194      51451.757      37.193473      37.193473      37.193473      1.6145618     -963.98936     -798.26423      1467.8737    
    240000   240000         594.67524     -130.93502      8086.9697      8185.6104      5351.5215      2834.0889      2189.0533      3457.147      -4242.4121      0              712.83546      15178.035     -14460.57      -105.49237      51656.395      37.242718      37.242718      37.242718      1.6081657     -976.62479      376.07288      207.74683    
    241000   241000         598.5236       1138.4629      9094.0177      8250.3004      5386.1531      2864.1473      2204.2523      3435.5385     -4241.8905      0              751.97742      15182.509     -14468.239     -107.23658      50816.201      37.039695      37.039695      37.039695      1.6347551     -366.38444      1012.4783      2769.2948    
    242000   242000         617.71767     -1896.9556      6952.9089      8364.2589      5558.8818      2805.3771      2254.001       3433.982      -4236.7403      0              650.77294      15162.292     -14458.931     -106.81777      51015.441      37.08804       37.08804       37.08804       1.6283706     -3194.3074     -736.25213     -1760.3074    
    243000   243000         608.84475      1171.331       9147.5615      8259.8021      5479.0338      2780.7683      2192.6794      3357.3022     -4236.8424      0              737.11203      15197.043     -14466.526     -104.85892      51968.448      37.317561      37.317561      37.317561      1.5985092      735.57828      707.03825      2071.3766    
    244000   244000         595.43563     -350.92439      7971.8919      8236.9432      5358.3642      2878.579       2165.8156      3434.6566     -4209.5741      0              773.08854      15167.287     -14452.695     -105.22154      51789.352      37.274643      37.274643      37.274643      1.6040371      209.64709      364.39109     -1626.8113    
    245000   245000         591.83951      126.38468      8396.0067      8302.4235      5326.0025      2976.4209      2241.3355      3581.1704     -4247.2007      0              680.4493       15203.524     -14482.857     -107.32908      50772.406      37.029051      37.029051      37.029051      1.6361652      509.43499     -2134.4597      2004.1787    
    246000   246000         585.14893     -1217.8269      7104.3024      7991.319       5265.7936      2725.5254      2119.4443      3433.8772     -4223.15        0              675.41171      15203.99      -14484.048     -109.11259      49942.5        36.826187      36.826187      36.826187      1.6633537     -1873.0257     -2309.9117      529.45666    
    247000   247000         592.06391     -182.27801      7991.1097      8124.8365      5328.022       2796.8146      2120.421       3485.7873     -4204.2434      0              676.45324      15205.857     -14487.461     -108.32703      50304.67       36.914991      36.914991      36.914991      1.6513784     -1456.0069      450.03065      459.14217    
    248000   248000         609.40558     -1538.8547      7322.2539      8431.8178      5484.0807      2947.737       2256.7665      3429.6858     -4204.6578      0              744.97113      15210.461     -14489.49      -110.2215       49440.041      36.702271      36.702271      36.702271      1.6802584     -1076.0219     -2657.5168     -883.02535    
    249000   249000         596.4126      -359.62732      7919.1555      8182.0967      5367.1561      2814.9406      2266.5671      3303.9442     -4193.8414      0              712.52727      15219.717     -14493.974     -108.6964       50133.729      36.87313       36.87313       36.87313       1.6570091      689.72603      57.744078     -1826.3521    
    250000   250000         603.61961     -133.9326       8114.2888      8211.6376      5432.0124      2779.6252      2228.4078      3339.5013     -4210.9827      0              705.8305       15208.19      -14491.322     -109.33933      49838.934      36.800714      36.800714      36.800714      1.6668102     -1477.9652      34.923771      1041.2436    
Loop time of 543.288 on 1 procs for 250000 steps with 3020 atoms

Performance: 39.758 ns/day, 0.604 hours/ns, 460.161 timesteps/s, 1.390 Matom-step/s
100.0% CPU use with 1 MPI tasks x 1 OpenMP threads

MPI task timing breakdown:
Section |  min time  |  avg time  |  max time  |%varavg| %total
---------------------------------------------------------------
Pair    | 129.03     | 129.03     | 129.03     |   0.0 | 23.75
Bond    | 35.112     | 35.112     | 35.112     |   0.0 |  6.46
Kspace  | 248.24     | 248.24     | 248.24     |   0.0 | 45.69
Neigh   | 17.188     | 17.188     | 17.188     |   0.0 |  3.16
Comm    | 3.7178     | 3.7178     | 3.7178     |   0.0 |  0.68
Output  | 1.497      | 1.497      | 1.497      |   0.0 |  0.28
Modify  | 68.664     | 68.664     | 68.664     |   0.0 | 12.64
Other   |            | 39.84      |            |       |  7.33

Nlocal:           3020 ave        3020 max        3020 min
Histogram: 1 0 0 0 0 0 0 0 0 0
Nghost:           9905 ave        9905 max        9905 min
Histogram: 1 0 0 0 0 0 0 0 0 0
Neighs:              0 ave           0 max           0 min
Histogram: 1 0 0 0 0 0 0 0 0 0
FullNghs:  1.15979e+06 ave 1.15979e+06 max 1.15979e+06 min
Histogram: 1 0 0 0 0 0 0 0 0 0

Total # of neighbors = 1159792
Ave neighs/atom = 384.03709
Ave special neighs/atom = 11.86755
Neighbor list builds = 3850
Dangerous builds = 0
System init for write_data ...
PPPM Kokkos initialization ...
  using 12-bit tables for long-range coulomb
  G vector (1/distance) = 0.33401852
  grid = 40 40 40
  stencil order = 5
  estimated absolute RMS force accuracy = 0.00026382979
  estimated relative force accuracy = 7.9451558e-07
  using double precision cuFFT
  3d grid and FFT values/proc = 103823 64000
Generated 3 of 3 mixed pair_coeff terms from geometric mixing rule
System init for write_restart ...
PPPM Kokkos initialization ...
  using 12-bit tables for long-range coulomb
  G vector (1/distance) = 0.33401852
  grid = 40 40 40
  stencil order = 5
  estimated absolute RMS force accuracy = 0.00026382979
  estimated relative force accuracy = 7.9451558e-07
  using double precision cuFFT
  3d grid and FFT values/proc = 103823 64000
Generated 3 of 3 mixed pair_coeff terms from geometric mixing rule
STAGE COMPLETE: NPT T=625.0->600.0K P=1.0->1.0atm steps=250000
