LAMMPS (22 Jul 2025 - Update 3)
KOKKOS mode with Kokkos version 4.6.2 is enabled
  will use up to 1 GPU(s) per node
  using 1 OpenMP thread(s) per MPI task
Reading data file ...
  orthogonal box = (0 0 0) to (52.20571 52.20571 52.20571)
  1 by 1 by 1 MPI processor grid
  reading atoms ...
  6500 atoms
  scanning bonds ...
  4 = max bonds/atom
  scanning angles ...
  16 = max angles/atom
  scanning dihedrals ...
  38 = max dihedrals/atom
  scanning impropers ...
  12 = max impropers/atom
  orthogonal box = (0 0 0) to (52.20571 52.20571 52.20571)
  1 by 1 by 1 MPI processor grid
  reading bonds ...
  6970 bonds
  reading angles ...
  11760 angles
  reading dihedrals ...
  17500 dihedrals
  reading impropers ...
  4800 impropers
Finding 1-2 1-3 1-4 neighbors ...
  special bond factors lj:    0        0        1       
  special bond factors coul:  0        0        1       
     4 = max # of 1-2 neighbors
    10 = max # of 1-3 neighbors
    14 = max # of special neighbors
  special bonds CPU = 0.003 seconds
  read_data CPU = 0.120 seconds
PPPM Kokkos initialization ...
  using 12-bit tables for long-range coulomb
  G vector (1/distance) = 0.29817335
  grid = 36 36 36
  stencil order = 5
  estimated absolute RMS force accuracy = 0.00026267297
  estimated relative force accuracy = 7.9103185e-07
  using double precision cuFFT
  3d grid and FFT values/proc = 79507 46656
Generated 28 of 28 mixed pair_coeff terms from sixthpower/sixthpower mixing rule
Neighbor list info ...
  update: every = 1 steps, delay = 0 steps, check = yes
  max neighbors/atom: 4000, page size: 100000
  master list distance cutoff = 11.5
  ghost atom cutoff = 11.5
  binsize = 11.5, bins = 5 5 5
  1 neighbor lists, perpetual/occasional/extra = 1 0 0
  (1) pair lj/class2/coul/long/kk, perpetual
      attributes: full, newton off, kokkos_device
      pair build: full/bin/kk/device
      stencil: full/bin/3d
      bin: kk/device
Setting up cg/kk style minimization ...
  Unit style    : real
  Current step  : 0
WARNING: Fix MINIMIZE/kk not compatible with sending data in Kokkos communication (src/KOKKOS/comm_kokkos.cpp:767)
WARNING: Fix with atom-based arrays not compatible with sending data in Kokkos communication, switching to classic exchange/border communication (src/KOKKOS/comm_kokkos.cpp:780)
WARNING: Fix MINIMIZE/kk not compatible with Kokkos sorting on device (src/KOKKOS/atom_kokkos.cpp:212)
WARNING: Fix with atom-based arrays not compatible with Kokkos sorting on device, switching to classic host sorting (src/KOKKOS/atom_kokkos.cpp:218)
Per MPI rank memory allocation (min/avg/max) = 41.34 | 41.34 | 41.34 Mbytes
   Step          Time           Temp          Press          TotEng         PotEng         E_bond        E_angle        E_dihed        E_impro         E_vdwl         E_coul         E_long         Volume           Lx             Ly             Lz          Density    
         0   0              0              6463.5641      34245.334      34245.334      2853.1817      4195.0713      21465.036      988.9633       4026.4218      4971.2154     -4254.5546      142283.33      52.20571       52.20571       52.20571       0.61999999   
       500   500            0             -637.5666       5168.6137      5168.6137      856.48822      1308.9417      1126.1343      18.228441      1310.7915      4860.0772     -4312.0477      142283.33      52.20571       52.20571       52.20571       0.61999999   
      1000   1000           0             -704.38906      4786.3399      4786.3399      856.3207       1288.7498      1016.9113      15.461911      1074.5846      4851.5049     -4317.1933      142283.33      52.20571       52.20571       52.20571       0.61999999   
      1500   1500           0             -651.2312       4612.6741      4612.6741      856.45427      1317.7601      954.49722      15.528738      935.11152      4850.2624     -4316.9401      142283.33      52.20571       52.20571       52.20571       0.61999999   
      2000   2000           0             -710.08593      4513.2392      4513.2392      857.23014      1329.2824      933.23112      16.127102      848.43833      4847.1593     -4318.2292      142283.33      52.20571       52.20571       52.20571       0.61999999   
      2500   2500           0             -634.00825      4431.3237      4431.3237      856.60978      1315.6146      926.60882      15.788263      790.54807      4845.0629     -4318.9088      142283.33      52.20571       52.20571       52.20571       0.61999999   
      3000   3000           0             -723.6434       4381.8683      4381.8683      856.71822      1314.7399      914.10792      15.00145       754.46356      4848.5638     -4321.7265      142283.33      52.20571       52.20571       52.20571       0.61999999   
      3500   3500           0             -729.3856       4343.2269      4343.2269      857.24894      1318.226       910.85463      14.971502      716.97507      4845.9647     -4321.0138      142283.33      52.20571       52.20571       52.20571       0.61999999   
      4000   4000           0             -723.90009      4312.2224      4312.2224      856.5379       1322.38        909.26337      15.553953      687.77282      4841.1212     -4320.4068      142283.33      52.20571       52.20571       52.20571       0.61999999   
      4500   4500           0             -755.65495      4273.6656      4273.6656      855.18009      1323.48        911.33853      15.439306      645.62448      4845.3371     -4322.734       142283.33      52.20571       52.20571       52.20571       0.61999999   
      5000   5000           0             -748.23457      4233.0839      4233.0839      855.11213      1328.9519      899.34157      15.321226      612.06669      4846.1326     -4323.8422      142283.33      52.20571       52.20571       52.20571       0.61999999   
      5500   5500           0             -724.55653      4202.6585      4202.6585      856.20313      1335.3493      884.93126      15.506647      590.04691      4845.1733     -4324.552       142283.33      52.20571       52.20571       52.20571       0.61999999   
      5798   5798           0             -706.00024      4191.7768      4191.7768      856.53217      1331.7858      892.94752      15.093669      575.49094      4844.5211     -4324.5944      142283.33      52.20571       52.20571       52.20571       0.61999999   
Loop time of 18.8958 on 1 procs for 5798 steps with 6500 atoms

99.8% CPU use with 1 MPI tasks x 1 OpenMP threads

Minimization stats:
  Stopping criterion = energy tolerance
  Energy initial, next-to-last, final = 
      34245.3343610992   4191.77948058777   4191.77675207789
  Force two-norm initial, final = 3346.7456 7.04904
  Force max component initial, final = 127.4621 1.1577635
  Final line search alpha, max atom move = 0.0094588899 0.010951158
  Iterations, force evaluations = 5798 11566

MPI task timing breakdown:
Section |  min time  |  avg time  |  max time  |%varavg| %total
---------------------------------------------------------------
Pair    | 2.4541     | 2.4541     | 2.4541     |   0.0 | 12.99
Bond    | 3.0305     | 3.0305     | 3.0305     |   0.0 | 16.04
Kspace  | 11.051     | 11.051     | 11.051     |   0.0 | 58.48
Neigh   | 0.60914    | 0.60914    | 0.60914    |   0.0 |  3.22
Comm    | 0.18461    | 0.18461    | 0.18461    |   0.0 |  0.98
Output  | 0.026565   | 0.026565   | 0.026565   |   0.0 |  0.14
Modify  | 0          | 0          | 0          |   0.0 |  0.00
Other   |            | 1.54       |            |       |  8.15

Nlocal:           6500 ave        6500 max        6500 min
Histogram: 1 0 0 0 0 0 0 0 0 0
Nghost:          12726 ave       12726 max       12726 min
Histogram: 1 0 0 0 0 0 0 0 0 0
Neighs:              0 ave           0 max           0 min
Histogram: 1 0 0 0 0 0 0 0 0 0
FullNghs:  2.42369e+06 ave 2.42369e+06 max 2.42369e+06 min
Histogram: 1 0 0 0 0 0 0 0 0 0

Total # of neighbors = 2423692
Ave neighs/atom = 372.87569
Ave special neighs/atom = 5.7630769
Neighbor list builds = 110
Dangerous builds = 0
System init for write_data ...
PPPM Kokkos initialization ...
  using 12-bit tables for long-range coulomb
  G vector (1/distance) = 0.29817335
  grid = 36 36 36
  stencil order = 5
  estimated absolute RMS force accuracy = 0.00026267297
  estimated relative force accuracy = 7.9103185e-07
  using double precision cuFFT
  3d grid and FFT values/proc = 79507 46656
Generated 28 of 28 mixed pair_coeff terms from sixthpower/sixthpower mixing rule
System init for write_restart ...
PPPM Kokkos initialization ...
  using 12-bit tables for long-range coulomb
  G vector (1/distance) = 0.29817335
  grid = 36 36 36
  stencil order = 5
  estimated absolute RMS force accuracy = 0.00026267297
  estimated relative force accuracy = 7.9103185e-07
  using double precision cuFFT
  3d grid and FFT values/proc = 79507 46656
Generated 28 of 28 mixed pair_coeff terms from sixthpower/sixthpower mixing rule
STAGE COMPLETE: minimization
