Authorization required, but no authorization protocol specified

Authorization required, but no authorization protocol specified

Authorization required, but no authorization protocol specified

Authorization required, but no authorization protocol specified

LAMMPS (22 Jul 2025 - Update 3)
KOKKOS mode with Kokkos version 4.6.2 is enabled
  will use up to 1 GPU(s) per node
  using 1 OpenMP thread(s) per MPI task
Reading data file ...
  orthogonal box = (7.0959778 7.0959778 7.0959778) to (46.596715 46.596715 46.596715)
  1 by 1 by 1 MPI processor grid
  reading atoms ...
  4940 atoms
  reading velocities ...
  4940 velocities
  scanning bonds ...
  4 = max bonds/atom
  scanning angles ...
  12 = max angles/atom
  scanning dihedrals ...
  24 = max dihedrals/atom
  scanning impropers ...
  10 = max impropers/atom
  orthogonal box = (7.0959778 7.0959778 7.0959778) to (46.596715 46.596715 46.596715)
  1 by 1 by 1 MPI processor grid
  reading bonds ...
  4930 bonds
  reading angles ...
  9840 angles
  reading dihedrals ...
  14670 dihedrals
  reading impropers ...
  6560 impropers
Finding 1-2 1-3 1-4 neighbors ...
  special bond factors lj:    0        0        1       
  special bond factors coul:  0        0        1       
     4 = max # of 1-2 neighbors
     6 = max # of 1-3 neighbors
    10 = max # of special neighbors
  special bonds CPU = 0.003 seconds
  read_data CPU = 0.194 seconds
Finding SHAKE clusters ...
     810 = # of size 2 clusters
     820 = # of size 3 clusters
      10 = # of size 4 clusters
       0 = # of frozen angles
  find clusters CPU = 0.002 seconds
PPPM Kokkos initialization ...
  using 12-bit tables for long-range coulomb
  G vector (1/distance) = 0.29697492
  grid = 27 27 27
  stencil order = 5
  estimated absolute RMS force accuracy = 0.00034734034
  estimated relative force accuracy = 1.0460051e-06
  using double precision cuFFT
  3d grid and FFT values/proc = 39304 19683
Generated 6 of 6 mixed pair_coeff terms from sixthpower/sixthpower mixing rule
Neighbor list info ...
  update: every = 1 steps, delay = 0 steps, check = yes
  max neighbors/atom: 4000, page size: 100000
  master list distance cutoff = 11.5
  ghost atom cutoff = 11.5
  binsize = 11.5, bins = 4 4 4
  1 neighbor lists, perpetual/occasional/extra = 1 0 0
  (1) pair lj/class2/coul/long/kk, perpetual
      attributes: full, newton off, kokkos_device
      pair build: full/bin/kk/device
      stencil: full/bin/3d
      bin: kk/device
Setting up Verlet run ...
  Unit style    : real
  Current step  : 0
  Time step     : 1
Per MPI rank memory allocation (min/avg/max) = 30.1 | 30.1 | 30.1 Mbytes
   Step          Time           Temp          Press         Enthalpy        TotEng         KinEng         PotEng         E_bond        E_angle        E_dihed        E_impro         E_vdwl         E_coul         E_long         E_tail         Volume           Lx             Ly             Lz          Density          Pxx            Pyy            Pzz      
         0   0              191.439       -21.683406     -5009.0827     -4989.5924      2346.6754     -7336.2678      613.71325      1877.1278     -2911.5576      16.57542      -1578.3887     -2255.3492     -3098.3888     -383.13041      61633.326      39.500737      39.500737      39.500737      1.3813147      100.29305      686.80004     -852.14331    
       500   500            167.36924      321.91103     -5313.055      -5600.9121      2051.6263     -7652.5384      572.91332      1662.018      -2903.4307      15.665433     -1645.5148     -2254.117      -3100.0726     -385.12084      61314.785      39.432569      39.432569      39.432569      1.3884909     -38.33852       64.314806      939.7568     
      1000   1000           174.53314      582.06644     -4957.7127     -5479.7541      2139.442      -7619.1961      561.37465      1688.3295     -2918.0724      15.570407     -1603.0021     -2261.9387     -3101.4574     -383.97746      61497.364      39.47167       39.47167       39.47167       1.3843686      293.31288      1017.6523      435.23414    
      1500   1500           173.76762      391.48351     -5136.3799     -5484.4742      2130.0581     -7614.5323      572.02852      1717.0287     -2951.103       16.059558     -1611.9507     -2258.1125     -3098.4829     -387.30641      60968.786      39.358256      39.358256      39.358256      1.3963706      126.18384      847.90663      200.36005    
      2000   2000           169.88483      515.13493     -5054.9044     -5516.067       2082.4626     -7598.5296      569.13305      1730.5919     -2926.5484      16.611369     -1631.5097     -2257.0506     -3099.7572     -384.68483      61384.281      39.447461      39.447461      39.447461      1.3869189      56.273116      1761.9497     -272.81796    
      2500   2500           169.11036      294.67381     -5288.3194     -5551.8397      2072.9691     -7624.8088      556.56519      1694.5351     -2913.9179      15.794997     -1614.563      -2263.0776     -3100.1456     -385.09287      61319.238      39.433523      39.433523      39.433523      1.38839        61.367246     -479.31545      1301.9696    
      3000   3000           165.5134       106.56868     -5518.149      -5613.4861      2028.8772     -7642.3633      558.91264      1713.932      -2929.7415      16.469296     -1639.2436     -2258.0707     -3104.6215     -384.95156      61341.749      39.438348      39.438348      39.438348      1.3878805      9.5428408      291.26237      18.900831    
      3500   3500           168.44531     -79.723612     -5652.6183     -5581.1414      2064.8169     -7645.9583      583.75866      1637.6579     -2913.1203      15.462311     -1611.4626     -2254.392      -3103.8623     -384.11315      61475.639      39.467021      39.467021      39.467021      1.3848578      415.55505     -374.11011     -280.61578    
      4000   4000           168.6099      -249.81718     -5791.4038     -5567.9408      2066.8344     -7634.7753      564.69252      1721.9198     -2935.4247      16.438909     -1641.2846     -2257.4664     -3103.6508     -384.99488      61334.847      39.436869      39.436869      39.436869      1.3880367      125.69273      921.44394     -1796.5882    
      4500   4500           169.04855      921.01397     -4692.0797     -5515.1743      2072.2114     -7587.3857      579.17641      1714.627      -2936.0637      15.910915     -1605.4336     -2256.9012     -3098.7015     -385.34929      61278.436      39.424775      39.424775      39.424775      1.3893145      1278.8707      1164.6753      319.49591    
      5000   5000           169.14132      1265.1568     -4425.0855     -5553.2324      2073.3487     -7626.5811      553.2124       1702.329      -2926.3682      15.782899     -1601.713      -2264.8132     -3105.011      -386.20403      61142.815      39.395669      39.395669      39.395669      1.3923961      1012.1636      1676.3165      1106.9904    
      5500   5500           172.25096     -1045.478      -6457.5508     -5519.1779      2111.4669     -7630.6447      596.56841      1687.2487     -2912.5013      15.676495     -1671.1003     -2247.0594     -3099.4774     -383.68738      61543.858      39.481615      39.481615      39.481615      1.3833228     -554.25387     -1960.5524     -621.62758    
      6000   6000           167.27456     -456.83797     -5995.7758     -5587.417       2050.4656     -7637.8827      580.79993      1694.5752     -2921.3488      16.172766     -1647.0955     -2260.05       -3100.9362     -385.26401      61291.999      39.427684      39.427684      39.427684      1.3890071     -536.26948      287.6886      -1121.933     
      6500   6500           169.10317     -684.01497     -6163.7892     -5545.1177      2072.8809     -7617.9986      577.46425      1722.7994     -2944.2808      16.185934     -1644.9825     -2246.4138     -3098.7711     -380.75323      62018.125      39.582773      39.582773      39.582773      1.3727442     -766.43965     -1612.6898      327.08454    
      7000   7000           172.47472      1237.4319     -4414.0948     -5521.1207      2114.2097     -7635.3304      547.05377      1715.234      -2948.7754      16.419271     -1607.8105     -2255.28       -3102.1714     -384.94765      61342.371      39.438482      39.438482      39.438482      1.3878665      844.19104      1410.4008      1457.7039    
      7500   7500           172.22183      355.64054     -5154.204      -5472.0865      2111.1098     -7583.1962      579.31273      1739.3098     -2933.0862      16.444292     -1631.6993     -2254.1871     -3099.2905     -385.28568      61288.553      39.426945      39.426945      39.426945      1.3890852      825.33072     -109.45226      351.04316    
      8000   8000           171.25095      161.24441     -5393.9119     -5537.2737      2099.2086     -7636.4824      569.37468      1727.197      -2920.9632      16.131911     -1676.4097     -2247.643      -3104.17       -387.33722      60963.936      39.357213      39.357213      39.357213      1.3964817      101.503       -517.2588       899.48903    
      8500   8500           171.65467     -193.55671     -5671.7422     -5497.7338      2104.1574     -7601.8913      569.23745      1721.8218     -2928.7092      16.13217      -1619.9733     -2257.0664     -3103.3337     -383.06823      61643.331      39.502875      39.502875      39.502875      1.3810905     -95.178645     -125.39325     -360.09823    
      9000   9000           171.22668      331.59584     -5238.7471     -5536.6741      2098.9111     -7635.5852      560.67696      1696.172      -2927.701       16.300006     -1615.0723     -2262.8296     -3103.1312     -383.29867      61606.27       39.494956      39.494956      39.494956      1.3819213      213.79762      1288.3647     -507.37481    
      9500   9500           169.27867     -58.974585     -5615.4607     -5562.7995      2075.0323     -7637.8317      576.60921      1695.2325     -2931.4871      16.106365     -1623.233      -2266.4373     -3104.6224     -385.66617      61228.087      39.413974      39.413974      39.413974      1.390457      -492.06896      357.08164     -41.936437    
     10000   10000          170.76798     -124.8641      -5577.5899     -5465.2534      2093.2884     -7558.5418      573.20095      1741.3983     -2900.493       16.077055     -1642.7625     -2246.3866     -3099.576      -382.78488      61688.962      39.512619      39.512619      39.512619      1.3800689     -34.586401     -390.57427      50.568366    
     10500   10500          173.87069      24.090142     -5496.3276     -5517.945       2131.3217     -7649.2667      576.03493      1674.7899     -2936.6675      15.757393     -1624.3105     -2253.2809     -3101.59       -383.77347      61530.052      39.478662      39.478662      39.478662      1.3836331      913.48408     -407.51613     -433.69753    
     11000   11000          171.19661     -748.60724     -6184.777      -5514.0289      2098.5426     -7612.5714      591.66259      1728.0541     -2929.2192      16.405778     -1671.1862     -2247.2377     -3101.0507     -384.35513      61436.937      39.458737      39.458737      39.458737      1.3857302     -567.61225     -415.15209     -1263.0574    
     11500   11500          171.03049      396.28363     -5208.4985     -5563.3668      2096.5062     -7659.873       556.42447      1673.9928     -2930.2934      15.398278     -1615.7651     -2260.6246     -3099.0054     -384.57152      61402.366      39.451335      39.451335      39.451335      1.3865104      1813.9809      177.39044     -802.52042    
     12000   12000          170.87476     -171.75019     -5687.622      -5533.7309      2094.5973     -7628.3282      556.71922      1718.9809     -2920.0674      15.613635     -1649.195      -2251.4797     -3098.8998     -384.3455       61438.476      39.459067      39.459067      39.459067      1.3856955      367.48766     -82.657386     -800.08085    
     12500   12500          174.07108     -225.93231     -5694.5082     -5492.1922      2133.7781     -7625.9702      582.63966      1730.9901     -2932.2278      16.871915     -1675.7353     -2249.4007     -3099.1082     -384.57943      61401.104      39.451065      39.451065      39.451065      1.3865389     -411.13212      136.95025     -403.61507    
     13000   13000          170.06436     -242.7039      -5738.6136     -5520.3332      2084.6633     -7604.9965      553.79506      1737.5805     -2927.8053      15.816005     -1635.9655     -2249.0649     -3099.3524     -382.91304      61668.314      39.50821       39.50821       39.50821       1.380531       1003.8641     -1227.0953     -504.88056    
     13500   13500          172.582       -140.8098      -5633.1991     -5507.0671      2115.5248     -7622.5919      578.98735      1692.2862     -2913.3567      16.388782     -1646.5419     -2250.3119     -3100.0437     -384.45515      61420.953      39.455315      39.455315      39.455315      1.3860908     -452.89694      1320.8266     -1290.359     
     14000   14000          170.80045     -421.75872     -5868.8503     -5490.4588      2093.6864     -7584.1452      584.12286      1732.8263     -2926.9654      15.894119     -1633.0006     -2255.5864     -3101.4361     -383.84935      61517.889      39.476061      39.476061      39.476061      1.3839067     -804.75446     -723.13948      262.6178     
     14500   14500          171.47919      17.681094     -5579.239      -5595.0041      2102.0064     -7697.0106      549.06685      1663.7186     -2929.3006      16.098263     -1642.6182     -2251.7459     -3102.2295     -386.23253      61138.303      39.3947        39.3947        39.3947        1.3924989     -528.13584      102.27779      478.90133    
     15000   15000          169.32811     -50.919539     -5573.9478     -5528.295       2075.6383     -7603.9333      576.16396      1701.8499     -2917.1361      16.163289     -1623.0853     -2255.8643     -3102.0249     -384.11021      61476.11       39.467122      39.467122      39.467122      1.3848472      60.335286      293.32529     -506.4192     
     15500   15500          173.13909     -197.65011     -5682.2789     -5504.8014      2122.3536     -7627.155       560.74086      1698.1817     -2923.4386      16.31974      -1630.5207     -2248.4553     -3099.9827     -383.52339      61570.173      39.487241      39.487241      39.487241      1.3827315     -2.4455938     -250.91999     -339.58475    
     16000   16000          167.49001     -26.347888     -5631.5443     -5607.973       2053.1067     -7661.0797      565.01365      1676.202      -2924.2849      16.017238     -1639.4225     -2253.2699     -3101.3353     -384.94663      61342.535      39.438517      39.438517      39.438517      1.3878628     -825.05645      113.65647      632.35631    
     16500   16500          168.23328     -358.31399     -5883.9562     -5562.1502      2062.2178     -7624.368       575.11355      1687.0148     -2917.9831      16.159738     -1638.6901     -2247.6019     -3098.3811     -383.4491       61582.103      39.489791      39.489791      39.489791      1.3824637      631.84816     -758.97917     -947.81096    
     17000   17000          168.48623     -790.17069     -6293.4497     -5584.3798      2065.3185     -7649.6983      586.76232      1677.0585     -2931.011       16.154045     -1643.7131     -2251.9781     -3102.971      -383.76908      61530.757      39.478813      39.478813      39.478813      1.3836173     -1201.123      -1307.3436      137.95457    
     17500   17500          168.34628     -277.69704     -5816.418      -5567.8731      2063.6029     -7631.476       576.59454      1701.3957     -2923.2422      16.272068     -1646.6457     -2254.5847     -3101.2657     -384.77284      61370.24       39.444453      39.444453      39.444453      1.3872362      395.00915      556.54028     -1784.6405    
     18000   18000          169.01968      84.365956     -5431.556      -5507.1572      2071.8575     -7579.0147      585.80755      1734.4809     -2937.2383      15.999695     -1611.2141     -2262.2762     -3104.5744     -384.30567      61444.844      39.46043       39.46043       39.46043       1.3855519      178.47923     -142.42264      217.04129    
     18500   18500          169.93321     -1072.8305     -6474.2699     -5514.0086      2083.0557     -7597.0643      610.46642      1674.8939     -2915.2656      15.293276     -1622.3432     -2255.2335     -3104.8756     -384.75103      61373.719      39.445199      39.445199      39.445199      1.3871576     -525.38477     -736.1756      -1956.931     
     19000   19000          167.33651      41.971233     -5550.3952     -5588           2051.2251     -7639.2251      568.85768      1676.8849     -2920.3199      15.657704     -1631.2571     -2249.7699     -3099.2785     -384.36812      61434.861      39.458293      39.458293      39.458293      1.385777      -12.495416     -1306.0262      1444.4353    
     19500   19500          169.94767      121.21615     -5481.1887     -5589.796       2083.2329     -7673.0289      571.4415       1640.9587     -2931.3549      15.785259     -1605.4331     -2261.2888     -3103.1376     -384.36116      61435.973      39.458531      39.458531      39.458531      1.385752       188.66676      743.968       -568.98633    
     20000   20000          170.77435      181.1049      -5391.1489     -5552.9498      2093.3664     -7646.3162      550.64937      1716.0614     -2925.8974      15.805041     -1644.1254     -2258.9865     -3099.8227     -385.46731      61259.673      39.420751      39.420751      39.420751      1.38974       -460.4761       739.48288      264.30793    
     20500   20500          173.52026     -155.80555     -5614.6201     -5474.5376      2127.026      -7601.5636      553.12106      1739.659      -2938.2399      16.064983     -1614.4745     -2257.1132     -3100.581      -383.03377      61648.876      39.504059      39.504059      39.504059      1.3809663      593.47185     -1308.3389      247.45037    
     21000   21000          174.14101     -558.87221     -6011.302      -5510.5764      2134.6352     -7645.2116      592.34336      1685.0708     -2930.2508      16.477571     -1653.2646     -2253.451      -3102.1369     -384.37114      61434.377      39.458189      39.458189      39.458189      1.385788       305.27544     -849.63151     -1132.2606    
     21500   21500          168.30963      720.50647     -4914.9546     -5559.0969      2063.1537     -7622.2505      566.8316       1719.5914     -2940.7754      16.760525     -1629.8578     -2253.8415     -3100.9594     -385.207        61301.071      39.429629      39.429629      39.429629      1.3888015      1062.3491      757.86547      341.30479    
     22000   22000          171.67625     -107.48121     -5652.9719     -5556.56        2104.4219     -7660.982       559.52983      1693.1666     -2938.5023      15.898801     -1635.5989     -2254.3748     -3101.1012     -383.91962      61506.629      39.473652      39.473652      39.473652      1.3841601      741.22157     -773.50761     -290.1576     
     22500   22500          171.19325     -341.6173      -5841.4216     -5534.5444      2098.5013     -7633.0457      583.23085      1686.5034     -2929.2991      16.189827     -1629.4013     -2258.4441     -3101.8252     -383.36575      61595.491      39.492653      39.492653      39.492653      1.3821632     -589.53357     -233.57426     -201.74407    
     23000   23000          171.07279     -352.84195     -5824.348      -5507.4782      2097.0248     -7604.503       583.09779      1719.3549     -2935.731       15.570677     -1628.1956     -2258.0693     -3100.5304     -383.47535      61577.887      39.48889       39.48889       39.48889       1.3825583     -117.42049      199.59151     -1140.6969    
     23500   23500          175.23514     -168.42206     -5668.4206     -5517.9107      2148.0472     -7665.9579      570.30349      1683.4475     -2940.5732      16.814443     -1636.2437     -2256.0411     -3103.6653     -385.36484      61275.963      39.424245      39.424245      39.424245      1.3893706      478.07905     -607.16474     -376.18051    
     24000   24000          169.57628     -502.22729     -5948.7026     -5497.9117      2078.6804     -7576.5921      577.25853      1758.5133     -2934.5764      16.744543     -1641.5107     -2249.6217     -3103.3997     -383.67483      61545.871      39.482045      39.482045      39.482045      1.3832775     -179.93408     -763.83544     -562.91234    
     24500   24500          171.17575      141.45192     -5393.6463     -5520.6226      2098.2868     -7618.9094      563.72203      1686.2746     -2922.6344      15.650939     -1601.8654     -2257.6991     -3102.3582     -383.64049      61551.38       39.483223      39.483223      39.483223      1.3831537     -773.95296      673.52697      524.78175    
     25000   25000          169.71382      73.431887     -5463.9886     -5529.9489      2080.3664     -7610.3152      581.77255      1716.164      -2933.8213      16.1934       -1629.4137     -2257.7876     -3103.4225     -383.38995      61591.604      39.491822      39.491822      39.491822      1.3822504     -82.477425      9.0820492      293.69104    
     25500   25500          171.08337      347.37624     -5208.1546     -5517.7473      2097.1544     -7614.9017      552.58767      1722.9324     -2941.8196      16.073037     -1601.6776     -2260.2708     -3102.7268     -386.40932      61110.331      39.388691      39.388691      39.388691      1.3931363      1274.7686      939.14146     -1171.7814    
     26000   26000          169.2988      -438.89133     -5960.3276     -5567.0334      2075.279      -7642.3125      568.11268      1686.991      -2930.4332      15.805651     -1626.0743     -2254.6217     -3102.0926     -384.30637      61444.731      39.460406      39.460406      39.460406      1.3855544     -353.97457     -233.51097     -729.18846    
     26500   26500          171.12407     -484.27446     -5905.5396     -5469.4459      2097.6534     -7567.0993      576.02063      1755.7105     -2914.9982      16.446944     -1642.2483     -2256.3423     -3101.6885     -382.42819      61746.498      39.5249        39.5249        39.5249        1.378783      -166.23817      332.28432     -1618.8695    
     27000   27000          173.85232     -516.57731     -5948.3664     -5484.4636      2131.0965     -7615.56        584.22672      1703.8071     -2924.7623      15.628583     -1632.6815     -2258.729      -3103.0498     -383.48332      61576.607      39.488616      39.488616      39.488616      1.3825871     -819.43225     -147.37413     -582.92555    
     27500   27500          171.37354      19.728874     -5532.3007     -5549.9171      2100.7113     -7650.6284      564.02744      1713.8185     -2938.7094      17.265667     -1648.8506     -2255.3847     -3102.7953     -385.67638      61226.466      39.413627      39.413627      39.413627      1.3904938     -102.7272       818.1475      -656.23368    
     28000   28000          166.85484     -147.01566     -5679.0298     -5547.4104      2045.3207     -7592.7311      584.13215      1710.6445     -2920.2774      15.885012     -1626.9631     -2254.3749     -3101.7774     -384.66419      61387.574      39.448167      39.448167      39.448167      1.3868445     -826.33409     -3.4262341      388.71334    
     28500   28500          167.28637      1239.9888     -4483.0082     -5587.3376      2050.6105     -7637.948       547.04268      1691.2363     -2915.4405      15.502339     -1609.8815     -2263.9225     -3102.4849     -386.68497      61066.769      39.379329      39.379329      39.379329      1.3941301      1266.2864      1000.8474      1452.8327    
     29000   29000          168.69111     -739.68201     -6211.0092     -5547.6209      2067.8299     -7615.4508      578.22981      1722.031      -2917.3492      16.528853     -1665.6722     -2248.8972     -3100.3219     -383.98595      61496.004      39.471379      39.471379      39.471379      1.3843992     -779.92407     -572.8198      -866.30217    
     29500   29500          172.32978      298.15211     -5270.8494     -5536.1987      2112.433      -7648.6317      562.73981      1685.1806     -2914.8748      15.259155     -1636.5564     -2258.7737     -3101.6064     -386.95287      61024.49       39.370239      39.370239      39.370239      1.395096       1265.0972      192.79221     -563.43306    
     30000   30000          172.65288     -240.5113      -5695.9093     -5479.7512      2116.3936     -7596.1448      566.81525      1725.5165     -2936.4897      16.260294     -1618.1021     -2248.8762     -3101.2687     -383.17946      61625.436      39.499052      39.499052      39.499052      1.3814915     -282.51897     -279.14479     -159.87015    
     30500   30500          172.73358      360.15891     -5261.5532     -5581.2589      2117.3828     -7698.6416      555.52684      1659.4026     -2917.7988      15.639063     -1645.5639     -2259.6929     -3106.1544     -387.95554      60866.773      39.336293      39.336293      39.336293      1.3987109      927.42086      222.20434     -69.148473    
     31000   31000          170.59352      267.71079     -5300.4167     -5539.4829      2091.1498     -7630.6327      560.35582      1725.8029     -2924.8178      16.465109     -1641.085      -2262.3633     -3104.9903     -385.64328      61231.721      39.414754      39.414754      39.414754      1.3903744      508.46564     -36.876144      331.54287    
     31500   31500          168.2724      -613.55238     -6071.6982     -5521.1768      2062.6974     -7583.8741      581.76455      1708.2667     -2922.7903      15.388619     -1603.0485     -2259.0181     -3104.4372     -383.80933      61524.303      39.477433      39.477433      39.477433      1.3837624     -230.69433     -30.212124     -1579.7507    
     32000   32000          169.73257      431.61036     -5190.3219     -5577.7401      2080.5962     -7658.3362      575.18011      1680.1966     -2946.9769      15.5812       -1623.8073     -2257.5758     -3100.9342     -383.66306      61547.759      39.482449      39.482449      39.482449      1.3832351      1347.0235      263.50104     -315.69346    
     32500   32500          172.77529     -361.16034     -5885.0384     -5562.8487      2117.8941     -7680.7428      560.20727      1677.475      -2914.2855      16.160227     -1663.6981     -2256.6377     -3099.9641     -386.03484      61169.612      39.401423      39.401423      39.401423      1.3917862     -244.20722     -258.9327      -580.34112    
     33000   33000          173.54432     -495.26925     -5937.8952     -5494.1724      2127.3209     -7621.4933      572.85398      1724.072      -2920.942       16.568515     -1662.1771     -2251.2252     -3100.6434     -384.38613      61431.982      39.457677      39.457677      39.457677      1.385842      -330.73954     -29.448157     -1125.6201    
     33500   33500          172.93937     -22.721854     -5546.1867     -5525.8857      2119.9054     -7645.7912      551.53209      1704.5158     -2923.2059      15.964686     -1638.9138     -2255.0447     -3100.6393     -385.44666      61262.956      39.421455      39.421455      39.421455      1.3896655     -650.86103      627.07706     -44.381593    
     34000   34000          173.21305      530.91616     -5074.8873     -5549.1277      2123.2602     -7672.3878      556.56836      1674.7884     -2932.1859      15.954397     -1628.392      -2257.9398     -3101.1813     -385.53651      61248.678      39.418392      39.418392      39.418392      1.3899895      521.80378      1209.8314     -138.88666    
     34500   34500          171.58426      302.40506     -5286.5703     -5557.7372      2103.2944     -7661.0317      560.49683      1707.5952     -2938.6389      16.669419     -1638.7167     -2264.432      -3104.0055     -384.05234      61485.374      39.469105      39.469105      39.469105      1.3846385      644.23287     -363.54781      626.53012    
     35000   35000          172.5801       34.422024     -5519.6628     -5550.4781      2115.5014     -7665.9796      566.6129       1687.7609     -2940.3764      15.733777     -1648.3189     -2248.5253     -3098.8665     -384.68682      61383.963      39.447393      39.447393      39.447393      1.3869261      217.513        1025.0368     -1139.2837    
     35500   35500          175.28902     -100.87346     -5535.8605     -5445.0687      2148.7077     -7593.7764      577.14053      1712.0633     -2920.8333      16.043036     -1617.9483     -2258.3679     -3101.8737     -382.6205       61715.464      39.518277      39.518277      39.518277      1.3794763     -561.09606      192.03241      66.443274    
     36000   36000          174.39308      398.01079     -5128.0493     -5483.3864      2137.7251     -7621.1115      550.68469      1726.224      -2929.2626      16.038792     -1621.3928     -2258.7919     -3104.6116     -385.73803      61216.68       39.411527      39.411527      39.411527      1.390716       470.38437      142.54423      581.10378    
     36500   36500          164.97624     -814.37978     -6375.9419     -5645.0507      2022.2927     -7667.3434      561.93133      1669.9887     -2918.6024      15.591687     -1643.8164     -2251.0073     -3101.429      -383.71816      61538.922      39.480559      39.480559      39.480559      1.3834337     -1140.9594     -25.806423     -1276.3735    
     37000   37000          171.55606     -648.2106      -6075.6484     -5491.8175      2102.9487     -7594.7663      579.62453      1727.952      -2936.1217      16.642655     -1632.653      -2249.478      -3100.7328     -382.35535      61758.261      39.52741       39.52741       39.52741       1.3785203     -136.00006     -725.99179     -1082.6399    
     37500   37500          170.88406     -113.87718     -5648.1159     -5546.2841      2094.7112     -7640.9953      566.08445      1678.5967     -2916.4549      15.631401     -1638.6657     -2247.6769     -3098.5103     -385.11596      61315.562      39.432735      39.432735      39.432735      1.3884733      484.81809     -750.5841      -75.865516    
     38000   38000          171.20803     -268.5652      -5777.0514     -5534.9617      2098.6825     -7633.6442      573.81036      1692.0674     -2929.4703      15.953695     -1627.1968     -2256.6702     -3102.1383     -382.04235      61808.858      39.538201      39.538201      39.538201      1.3773919     -295.30453     -60.51497      -449.87611    
     38500   38500          170.46739     -139.23065     -5653.518      -5528.6601      2089.6037     -7618.2638      567.62262      1703.3589     -2909.5826      16.655744     -1641.6692     -2252.7151     -3101.9342     -384.02271      61490.118      39.47012       39.47012       39.47012       1.3845317     -401.89975     -325.22497      309.43278    
     39000   39000          170.7028      -568.59205     -5996.3484     -5485.7502      2092.4893     -7578.2396      583.16035      1722.4887     -2914.1854      16.293307     -1625.0073     -2257.2605     -3103.7287     -383.49492      61574.745      39.488218      39.488218      39.488218      1.3826289     -639.79727      312.50651     -1378.4854    
     39500   39500          172.06426      527.89591     -5035.0348     -5507.4873      2109.1782     -7616.6656      557.97744      1716.5784     -2933.2829      16.084279     -1612.2944     -2259.7666     -3101.9617     -384.7939       61366.881      39.443734      39.443734      39.443734      1.3873122      670.15274      407.2707       506.26429    
     40000   40000          172.47222     -893.27429     -6260.0932     -5458.9098      2114.1791     -7573.0889      592.80438      1718.1312     -2906.46        15.919098     -1644.6909     -2245.8766     -3102.9161     -383.96447      61499.445      39.472115      39.472115      39.472115      1.3843218     -668.00402     -1669.7021     -342.11677    
     40500   40500          172.97261      559.07254     -4985.8601     -5487.4793      2120.3129     -7607.7922      559.74395      1699.6205     -2920.547       16.171405     -1602.6251     -2258.1458     -3102.0101     -383.82403      61521.947      39.476929      39.476929      39.476929      1.3838154      1561.1719     -78.083856      194.12957    
     41000   41000          172.15222      361.96714     -5196.8413     -5520.9282      2110.2565     -7631.1847      560.69843      1699.9653     -2919.8918      15.998127     -1639.9087     -2248.0648     -3099.9813     -384.63229      61392.665      39.449257      39.449257      39.449257      1.3867295      824.84537      225.25404      35.802021    
     41500   41500          167.9709      -855.10546     -6330.343      -5562.2184      2059.0014     -7621.2199      584.3614       1689.4939     -2905.9526      16.211743     -1648.6225     -2255.5069     -3101.205      -383.37707      61593.672      39.492264      39.492264      39.492264      1.382204      -825.57662     -397.36402     -1342.3757    
     42000   42000          168.76657     -148.21882     -5695.7834     -5562.8445      2068.7549     -7631.5994      580.58254      1685.2819     -2930.8042      15.96443      -1626.6569     -2255.2281     -3100.7391     -383.9632       61499.648      39.472158      39.472158      39.472158      1.3843172      543.31794     -1201.4146      213.44019    
     42500   42500          170.01136     -279.54035     -5816.7548     -5566.8128      2084.0137     -7650.8265      596.95467      1643.9424     -2927.4055      15.131637     -1625.8613     -2252.7998     -3100.7886     -385.16208      61308.22       39.431161      39.431161      39.431161      1.3886396      253.95686     -633.49396     -459.08396    
     43000   43000          170.69683     -692.41011     -6163.4225     -5539.884       2092.4162     -7632.3002      582.25906      1669.2881     -2909.9531      15.40326      -1634.7336     -2253.5756     -3100.9883     -382.41794      61748.153      39.525253      39.525253      39.525253      1.378746      -877.36107     -644.69989     -555.16938    
     43500   43500          171.92648     -899.82698     -6357.4126     -5550.5017      2107.4894     -7657.991       589.30994      1684.6251     -2942.5712      16.360831     -1646.8111     -2255.7211     -3103.1834     -384.03566      61488.043      39.469676      39.469676      39.469676      1.3845784     -1857.3387     -421.64569     -420.49656    
     44000   44000          171.45344      624.95815     -4982.0335     -5541.8834      2101.6908     -7643.5741      550.70829      1678.4109     -2929.3187      15.432512     -1596.1633     -2259.5202     -3103.1236     -384.43017      61424.944      39.45617       39.45617       39.45617       1.3860008      438.49819      1324.5672      111.80908    
     44500   44500          177.11183      112.9215      -5285.0583     -5386.631       2171.0518     -7557.6829      573.6068       1735.9359     -2916.1856      16.11033      -1612.6481     -2254.85       -3099.6522     -382.85782      61677.209      39.51011       39.51011       39.51011       1.3803319      292.31931      340.15393     -293.70874    
     45000   45000          171.80435      904.94092     -4764.8035     -5573.4724      2105.9923     -7679.4647      555.83119      1672.4918     -2927.5881      15.68596      -1637.0446     -2255.9283     -3102.9125     -385.3786       61273.775      39.423775      39.423775      39.423775      1.3894202      553.97407      515.83416      1645.0145    
     45500   45500          171.17602      348.21943     -5218.9969     -5532.1341      2098.2901     -7630.4242      545.8159       1703.9764     -2924.5844      15.898248     -1615.8221     -2255.6302     -3100.0781     -382.9627       61660.318      39.506503      39.506503      39.506503      1.38071       -54.136667      507.58582      591.20912    
     46000   46000          172.6262      -736.71383     -6105.0528     -5443.691       2116.0665     -7559.7576      597.68728      1730.4942     -2927.5741      16.346749     -1629.2743     -2249.944      -3097.4934     -383.617        61555.149      39.484029      39.484029      39.484029      1.383069      -823.35895     -425.54981     -961.23275    
     46500   46500          170.07202     -289.63571     -5786.7389     -5526.4323      2084.7572     -7611.1895      564.61397      1694.637      -2911.2153      15.71858      -1620.3892     -2252.518      -3102.0365     -383.18201      61625.027      39.498964      39.498964      39.498964      1.3815007      236.301       -518.47419     -586.73393    
     47000   47000          168.23268     -475.94231     -5986.1485     -5562.0794      2062.2104     -7624.2898      588.74276      1734.3133     -2932.1292      17.054094     -1674.9755     -2256.0533     -3101.242      -386.50559      61095.11       39.38542       39.38542       39.38542       1.3934834     -262.71912     -170.13884     -994.96897    
     47500   47500          168.27479     -110.17674     -5670.0201     -5570.9541      2062.7266     -7633.6807      564.95895      1680.9665     -2931.5185      15.518985     -1609.5673     -2254.6072     -3099.4321     -383.004        61653.668      39.505082      39.505082      39.505082      1.380859       624.97855     -185.34949     -770.15926    
     48000   48000          171.98815      559.18442     -5034.5313     -5534.311       2108.2453     -7642.5563      551.97362      1686.1986     -2910.6232      15.337525     -1631.0174     -2253.7582     -3100.6672     -385.31382      61284.076      39.425985      39.425985      39.425985      1.3891866      1032.7131      179.36101      465.47915    
     48500   48500          173.9762      -513.37069     -5937.2443     -5478.0714      2132.615      -7610.6864      589.48318      1720.1517     -2935.402       16.459838     -1642.9093     -2255.6092     -3102.8607     -385.02852      61329.488      39.43572       39.43572       39.43572       1.388158      -787.9293      -420.29924     -331.88354    
     49000   49000          169.84236      364.62935     -5206.2893     -5533.4242      2081.942      -7615.3662      543.59479      1708.0685     -2919.0409      15.573381     -1618.6736     -2247.9173     -3096.9711     -383.85116      61517.599      39.475999      39.475999      39.475999      1.3839132      1069.5094      743.88546     -719.50678    
     49500   49500          169.40479      785.95177     -4841.151      -5545.3908      2076.5782     -7621.9689      579.89441      1680.8535     -2921.3378      15.816458     -1625.0415     -2251.8067     -3100.3474     -384.33816      61439.648      39.459318      39.459318      39.459318      1.3856691      1322.5165      817.91012      217.42874    
     50000   50000          169.19709      225.6754      -5344.9352     -5547.9385      2074.0322     -7621.9707      555.25793      1673.9545     -2913.5776      15.654118     -1597.9441     -2254.3628     -3100.9528     -382.84164      61679.816      39.510667      39.510667      39.510667      1.3802736      596.99153     -591.59651      671.63117    
     50500   50500          169.89578      214.19119     -5335.6591     -5527.1609      2082.5969     -7609.7577      563.66262      1728.7377     -2927.32        16.166784     -1632.3094     -2254.9151     -3103.7804     -385.18287      61304.911      39.430452      39.430452      39.430452      1.3887145      68.360152      336.21223      238.0012     
     51000   51000          170.3475      -349.69988     -5816.3487     -5504.5038      2088.134      -7592.6378      568.62192      1724.5509     -2912.0993      16.056363     -1646.1407     -2245.1115     -3098.5155     -386.1846       61145.892      39.39633       39.39633       39.39633       1.3923261     -867.81135      564.47192     -745.7602     
     51500   51500          168.97777     -608.57318     -6070.0034     -5523.7332      2071.3437     -7595.077       568.76569      1740.4671     -2920.4637      16.833231     -1640.0206     -2256.2289     -3104.4297     -383.65731      61548.682      39.482646      39.482646      39.482646      1.3832143     -256.93216     -861.13017     -707.65721    
     52000   52000          168.06917      296.49402     -5276.402      -5542.7863      2060.2061     -7602.9923      563.75323      1709.8585     -2917.7867      15.960465     -1616.8122     -2254.8433     -3103.1224     -383.30591      61605.107      39.494708      39.494708      39.494708      1.3819474      190.4355       770.70866     -71.662098    
     52500   52500          171.0292       105.15509     -5442.0613     -5535.8456      2096.4903     -7632.3359      574.9989       1699.6631     -2917.7818      15.846084     -1656.0387     -2247.4073     -3101.6162     -386.13451      61153.823      39.398033      39.398033      39.398033      1.3921455      606.7576      -195.94486     -95.347469    
     53000   53000          171.30082      270.22796     -5273.1608     -5515.8867      2099.82       -7615.7066      568.5763       1682.96       -2911.5993      15.667884     -1611.5188     -2258.8495     -3100.9433     -383.4003       61589.941      39.491467      39.491467      39.491467      1.3822877      993.31559      33.923988     -216.5557     
     53500   53500          169.97859     -704.99505     -6133.8497     -5503.5525      2083.6119     -7587.1643      599.61056      1718.2328     -2918.5533      15.881768     -1651.5294     -2248.5791     -3102.2277     -385.19339      61303.237      39.430093      39.430093      39.430093      1.3887524     -387.60661     -192.51673     -1534.8618    
     54000   54000          168.25914     -311.04169     -5884.7343     -5605.2254      2062.5348     -7667.7602      552.72266      1682.3672     -2935.6121      16.282528     -1625.5475     -2255.9047     -3102.0683     -383.23151      61617.067      39.497263      39.497263      39.497263      1.3816792     -41.010722     -408.44497     -483.66938    
     54500   54500          168.48153      50.710476     -5529.9772     -5575.4376      2065.2609     -7640.6985      553.45858      1688.4019     -2921.0697      16.565685     -1620.8599     -2252.8101     -3104.3849     -384.15117      61469.555      39.465719      39.465719      39.465719      1.3849949      556.60674     -382.5493      -21.926015    
     55000   55000          171.3682      -171.6384      -5690.1322     -5535.8704      2100.6459     -7636.5162      553.15487      1692.8052     -2924.7328      16.022271     -1615.8633     -2254.3813     -3103.5212     -383.17241      61626.571      39.499294      39.499294      39.499294      1.3814661     -83.11165      -993.03304      561.22948    
     55500   55500          172.33247     -680.824       -6100.2886     -5488.8096      2112.466      -7601.2756      566.13125      1725.7332     -2920.7544      15.594358     -1631.0205     -2254.6204     -3102.3392     -383.43475      61584.407      39.490284      39.490284      39.490284      1.3824119     -1520.526      -737.5126       215.56657    
     56000   56000          169.58659     -92.39671      -5594.5163     -5511.7997      2078.8067     -7590.6064      557.84517      1742.5783     -2916.3687      16.135669     -1637.9222     -2251.3687     -3101.5059     -384.68219      61384.702      39.447551      39.447551      39.447551      1.3869094      231.32755     -27.125635     -481.39204    
     56500   56500          170.50259      422.21852     -5191.3359     -5569.3335      2090.0351     -7659.3686      537.59435      1682.562      -2910.8643      15.66033      -1635.4805     -2248.5819     -3100.2584     -384.66828      61386.921      39.448027      39.448027      39.448027      1.3868592      1373.3779     -496.70315      389.98084    
     57000   57000          169.11764     -103.91594     -5646.2528     -5552.8585      2073.0583     -7625.9168      557.77661      1696.6925     -2932.435       16.327719     -1610.7154     -2254.1026     -3099.4607     -383.17781      61625.703      39.499109      39.499109      39.499109      1.3814856      533.35672     -556.36474     -288.7398     
     57500   57500          173.40233      513.62359     -5060.7511     -5521.5631      2125.5804     -7647.1435      553.29712      1693.9303     -2920.9768      16.97279      -1639.0138     -2250.4716     -3100.8816     -383.84797      61518.109      39.476108      39.476108      39.476108      1.3839018      12.308827      1224.0524      304.50954    
     58000   58000          173.09726      502.82861     -5057.8605     -5508.6705      2121.8409     -7630.5114      538.2841       1682.6546     -2904.3634      15.864244     -1609.148      -2252.3275     -3101.4753     -384.11791      61474.877      39.466858      39.466858      39.466858      1.384875       934.18589      270.31315      303.98678    
     58500   58500          166.89631      658.43343     -4883.5399     -5472.8431      2045.8291     -7518.6722      590.33912      1733.6508     -2914.0837      16.333092     -1590.9174     -2253.0114     -3100.9827     -384.77885      61369.282      39.444248      39.444248      39.444248      1.3872579     -614.62146      1543.5608      1046.361     
     59000   59000          171.83835      291.66917     -5213.9485     -5475.7774      2106.4091     -7582.1865      562.91059      1733.6603     -2928.6728      16.522887     -1614.6526     -2251.2929     -3100.662      -383.62864      61553.281      39.48363       39.48363       39.48363       1.383111       810.96941      320.48681     -256.44871    
     59500   59500          170.13368      307.50749     -5223.7272     -5500.8957      2085.513      -7586.4087      562.29425      1705.7423     -2925.1303      16.266675     -1588.0294     -2256.7946     -3100.7576     -382.07618      61803.385      39.537034      39.537034      39.537034      1.3775139      213.6577       424.57093      284.29383    
     60000   60000          172.34845     -495.41846     -5942.6712     -5498.4847      2112.6619     -7611.1466      583.42913      1683.4056     -2919.8341      14.941869     -1621.1854     -2253.3944     -3098.5093     -384.10058      61477.652      39.467452      39.467452      39.467452      1.3848125     -76.544831     -715.52071     -694.18984    
     60500   60500          171.23076      264.36038     -5228.1438     -5465.323       2098.9611     -7564.2841      586.29912      1726.1638     -2946.3513      16.4579       -1589.9489     -2255.8095     -3101.0952     -383.84677      61518.302      39.476149      39.476149      39.476149      1.3838974      514.80946      800.08232     -521.81063    
     61000   61000          173.14116      559.35972     -5021.0302     -5524.1751      2122.379      -7646.5541      549.833        1710.1394     -2954.0443      16.524532     -1619.6304     -2250.7393     -3098.637      -382.8567       61677.389      39.510148      39.510148      39.510148      1.3803279      1578.375       93.93518       5.7689479    
     61500   61500          172.26602     -484.94291     -5965.3629     -5528.9206      2111.6514     -7640.572       579.20883      1686.9744     -2932.51        16.463676     -1643.1891     -2246.9066     -3100.6132     -382.65019      61710.676      39.517255      39.517255      39.517255      1.3795833     -1219.6535      161.69786     -396.87308    
     62000   62000          171.94322      103.66846     -5484.8604     -5577.5803      2107.6945     -7685.2748      550.40332      1681.8791     -2924.6072      15.822917     -1655.4975     -2252.4416     -3100.8339     -385.04502      61326.858      39.435157      39.435157      39.435157      1.3882175      249.85504      427.64522     -366.49487    
     62500   62500          168.68994     -258.79027     -5787.592      -5555.0671      2067.8156     -7622.8827      598.26503      1690.2341     -2922.4329      16.875201     -1654.8345     -2249.6433     -3101.3464     -383.2803       61609.223      39.495587      39.495587      39.495587      1.3818551     -676.67613      775.22656     -874.92124    
     63000   63000          174.62234     -841.19227     -6187.5504     -5428.9299      2140.5353     -7569.4653      595.89441      1735.4544     -2922.1665      16.495001     -1644.3101     -2247.8182     -3103.0143     -381.86409      61837.711      39.544353      39.544353      39.544353      1.3767492     -1000.3806     -167.5209      -1355.6753    
     63500   63500          168.83891     -249.3197      -5794.1521     -5570.1721      2069.6417     -7639.8137      554.93622      1704.8314     -2940.6605      16.743316     -1619.6582     -2253.7259     -3102.2799     -383.34105      61599.459      39.493501      39.493501      39.493501      1.3820741     -507.33612     -272.22508      31.602093    
     64000   64000          171.30886      133.52051     -5423.5319     -5542.9372      2099.9185     -7642.8557      553.517        1682.8458     -2917.2556      15.46816      -1625.4439     -2252.1026     -3099.8846     -385.09004      61319.689      39.43362       39.43362       39.43362       1.3883798     -45.346556     -30.317549      476.22564    
     64500   64500          169.7497       849.22929     -4745.9862     -5507.4987      2080.8062     -7588.3049      561.35424      1711.9281     -2923.2056      15.693527     -1596.8003     -2254.93       -3102.345      -384.04849      61485.989      39.469236      39.469236      39.469236      1.3846247      323.5073       703.84666      1520.3339    
     65000   65000          171.76287     -5.3171111     -5523.9672     -5519.1918      2105.4838     -7624.6756      571.62616      1683.2505     -2931.7938      15.933045     -1609.1029     -2257.0917     -3097.4968     -383.44672      61582.485      39.489873      39.489873      39.489873      1.3824551      71.800441     -750.1882       662.43642    
     65500   65500          172.72066      247.34212     -5260.4372     -5481.9495      2117.2245     -7599.174       587.19984      1694.4189     -2924.9428      15.527791     -1621.9772     -2249.7223     -3099.6782     -384.53707      61407.867      39.452513      39.452513      39.452513      1.3863862      614.47224      1027.6694     -900.11526    
     66000   66000          169.47446      178.96622     -5280.3368     -5440.3988      2077.4322     -7517.8311      590.52474      1761.2579     -2940.5124      15.960977     -1589.735      -2255.8719     -3099.4554     -385.0533       61325.541      39.434874      39.434874      39.434874      1.3882473      14.173325      888.89241     -366.16707    
     66500   66500          173.3827      -322.65827     -5787.5179     -5497.7668      2125.3399     -7623.1067      571.78657      1697.9357     -2913.7094      15.776545     -1642.4339     -2251.5339     -3100.9282     -383.49161      61575.275      39.488332      39.488332      39.488332      1.382617      -728.00935      576.39625     -816.36171    
     67000   67000          169.99392      274.38204     -5290.0307     -5535.8837      2083.7999     -7619.6836      539.74723      1725.8414     -2918.9734      16.364246     -1623.9125     -2258.9559     -3099.7947     -384.34237      61438.976      39.459174      39.459174      39.459174      1.3856842      1091.6812      300.42957     -568.96465    
     67500   67500          172.59774      681.33731     -4887.8239     -5498.7596      2115.7177     -7614.4772      567.98614      1713.1528     -2945.8279      16.026685     -1602.4976     -2259.9359     -3103.3815     -384.06504      61483.341      39.468669      39.468669      39.468669      1.3846843      535.53302      130.11136      1378.3675    
     68000   68000          173.05747     -398.49315     -5804.8876     -5446.7167      2121.353      -7568.0698      574.44943      1734.5999     -2920.8657      16.868554     -1630.9186     -2245.279      -3096.9244     -383.14988      61630.195      39.500068      39.500068      39.500068      1.3813849     -613.12586     -42.30925      -540.04433    
     68500   68500          168.10316      587.38491     -5026.0714     -5551.6309      2060.6227     -7612.2536      569.43273      1719.9739     -2948.9501      16.453537     -1619.2749     -2251.4703     -3098.4184     -384.89211      61351.223      39.440379      39.440379      39.440379      1.3876662      927.20608      448.65844      386.2902     
     69000   69000          170.88837      65.800939     -5483.9397     -5543.0556      2094.7641     -7637.8197      557.19021      1712.8322     -2940.9275      16.495075     -1632.7103     -2252.5866     -3098.1127     -383.32401      61602.198      39.494086      39.494086      39.494086      1.3820127      159.11709      337.39019     -299.10446    
     69500   69500          175.11635      267.20511     -5192.2167     -5431.5397      2146.591      -7578.1307      582.21794      1696.3532     -2909.4729      15.357053     -1611.969      -2251.3132     -3099.3038     -384.50186      61413.491      39.453717      39.453717      39.453717      1.3862592      305.10254     -271.12373      767.6365     
     70000   70000          171.91051      444.35211     -5076.6939     -5475.4973      2107.2935     -7582.7908      576.28407      1697.2457     -2913.4924      15.171756     -1598.4173     -2256.2003     -3103.3823     -383.71298      61539.752      39.480737      39.480737      39.480737      1.3834151      925.10566      672.23728     -264.28662    
     70500   70500          173.13182     -95.318776     -5599.8234     -5514.395       2122.2644     -7636.6594      567.96381      1704.2948     -2913.2133      16.357885     -1658.2805     -2250.724      -3103.0581     -384.25023      61453.708      39.462328      39.462328      39.462328      1.385352       307.4698       56.635799     -650.06193    
     71000   71000          170.96545     -377.17778     -5873.8842     -5535.3902      2095.7089     -7631.0991      594.96184      1651.8111     -2918.6481      16.094047     -1615.7153     -2257.0825     -3102.5202     -383.73663      61535.96       39.479926      39.479926      39.479926      1.3835003     -709.55809     -732.43338      310.45814    
     71500   71500          167.84907     -509.50041     -5986.7884     -5527.9173      2057.5081     -7585.4254      599.80731      1707.7642     -2931.0014      16.147432     -1630.9428     -2248.068      -3099.1321     -382.3772       61754.733      39.526657      39.526657      39.526657      1.3785991     -742.47976     -192.09814     -593.92333    
     72000   72000          170.91815     -175.80897     -5714.884      -5558.1494      2095.1292     -7653.2786      592.08959      1666.7775     -2919.2909      16.129522     -1650.4862     -2255.8918     -3102.6065     -386.29083      61129.077      39.392718      39.392718      39.392718      1.3927091     -181.14072     -299.61072     -46.675465    
     72500   72500          166.97087      472.444       -5123.1686     -5546.7216      2046.7431     -7593.4647      581.39287      1738.3517     -2945.4148      16.740092     -1626.2179     -2255.1853     -3103.1313     -384.13214      61472.601      39.466371      39.466371      39.466371      1.3849263      484.85139      266.40003      666.08058    
     73000   73000          168.85612     -330.76135     -5861.9305     -5566.7747      2069.8526     -7636.6273      559.64749      1703.2212     -2908.8949      16.658374     -1646.5894     -2259.3812     -3101.2889     -385.92376      61187.219      39.405203      39.405203      39.405203      1.3913857     -621.16        -336.74281     -34.381233    
     73500   73500          169.86454      295.746       -5236.3505     -5502.4392      2082.2139     -7584.6532      563.56299      1697.6854     -2919.3191      15.845649     -1591.0518     -2252.1608     -3099.2155     -382.76349      61692.408      39.513355      39.513355      39.513355      1.3799918      657.23209      368.39981     -138.3939     
     74000   74000          169.02892      394.8013      -5204.9753     -5559.7668      2071.9708     -7631.7376      553.76902      1703.9168     -2930.117       16.340581     -1618.8877     -2254.1093     -3102.65       -383.21593      61619.573      39.497799      39.497799      39.497799      1.381623       571.54712      74.876823      537.97994    
     74500   74500          168.65524     -146.89372     -5725.9397     -5593.9608      2067.3902     -7661.3511      575.84645      1660.2068     -2937.5999      15.818283     -1627.069      -2248.6533     -3099.9005     -383.29845      61606.306      39.494964      39.494964      39.494964      1.3819205     -111.22215     -692.7462       363.28717    
     75000   75000          168.925        67.399663     -5502.8198     -5563.5755      2070.697      -7634.2725      574.8364       1684.6712     -2934.1906      16.193752     -1629.0812     -2248.1976     -3098.5044     -382.03946      61809.325      39.538301      39.538301      39.538301      1.3773815      171.36562     -208.9457       239.77907    
     75500   75500          170.3517      -256.08557     -5747.6199     -5519.7503      2088.1855     -7607.9358      571.42695      1709.6036     -2927.2578      15.930239     -1622.9523     -2253.2389     -3101.4476     -387.02306      61013.423      39.367859      39.367859      39.367859      1.395349      -140.6756       321.293       -948.8741     
     76000   76000          169.65559     -379.62352     -5857.0501     -5516.3698      2079.6526     -7596.0224      577.45899      1681.6272     -2910.48        16.096281     -1602.9213     -2257.4663     -3100.3373     -383.74635      61534.4        39.479592      39.479592      39.479592      1.3835354     -729.45332     -302.01326     -107.40396    
     76500   76500          172.71659      123.93679     -5432.9907     -5544.2843      2117.1746     -7661.4589      564.54915      1697.4107     -2927.5916      15.953879     -1645.9904     -2260.2635     -3105.5271     -383.50257      61573.516      39.487956      39.487956      39.487956      1.3826565     -1192.8765      847.28599      717.40088    
     77000   77000          170.51825     -9.850294      -5566.8579     -5557.9966      2090.2272     -7648.2237      586.38637      1666.9863     -2935.1517      15.584718     -1635.5742     -2248.4079     -3098.0474     -382.81218      61684.562      39.51168       39.51168       39.51168       1.3801674     -485.11354      658.23766     -202.675      
     77500   77500          170.18811     -117.13117     -5634.1909     -5528.879       2086.1802     -7615.0592      584.08023      1684.6639     -2925.2929      15.920898     -1621.9121     -2252.8138     -3099.7054     -383.03027      61649.441      39.50418       39.50418       39.50418       1.3809536      520.68679      301.33774     -1173.418     
     78000   78000          169.64549     -211.47126     -5767.6632     -5578.9588      2079.5288     -7658.4876      577.02281      1683.5319     -2933.6732      15.606334     -1642.2796     -2254.6698     -3104.0261     -385.9292       61186.357      39.405018      39.405018      39.405018      1.3914053     -91.118447     -649.14737      105.85203    
     78500   78500          170.79752      704.55526     -4880.5993     -5510.164       2093.6504     -7603.8144      562.53968      1717.2107     -2927.7964      16.853019     -1619.6373     -2250.8642     -3102.1198     -385.40097      61270.219      39.423013      39.423013      39.423013      1.3895008      1032.5034     -124.39958      1205.562     
     79000   79000          168.96593      223.41522     -5321.5908     -5522.5376      2071.1987     -7593.7363      543.29924      1727.1629     -2922.0178      16.119848     -1603.4318     -2252.7825     -3102.0862     -382.88634      61672.614      39.509129      39.509129      39.509129      1.3804347     -138.3565      -25.207081      833.80925    
     79500   79500          172.23402      137.04041     -5368.0578     -5490.348       2111.2591     -7601.6072      573.23947      1718.34       -2929.1479      16.148158     -1615.307      -2259.5161     -3105.3638     -385.91808      61188.119      39.405396      39.405396      39.405396      1.3913652     -166.34159      1557.686      -980.22317    
     80000   80000          172.58292     -103.80591     -5635.8456     -5542.7389      2115.536      -7658.2749      567.01165      1675.2352     -2923.7874      15.607188     -1632.8722     -2257.3652     -3102.1041     -383.95417      61501.094      39.472468      39.472468      39.472468      1.3842846      150.03716     -193.27064     -268.18426    
     80500   80500          170.50639     -461.069       -5944.3113     -5531.1604      2090.0817     -7621.2422      565.60743      1706.8161     -2914.7903      15.673371     -1637.9846     -2255.2784     -3101.2857     -384.3221       61442.217      39.459868      39.459868      39.459868      1.3856111     -701.46106     -146.37505     -535.37089    
     81000   81000          171.74463      21.290254     -5497.237      -5516.3595      2105.2601     -7621.6196      577.59994      1703.3808     -2941.5916      16.376788     -1621.4309     -2254.5778     -3101.3769     -383.41911      61586.919      39.490821      39.490821      39.490821      1.3823556      806.83185      424.91349     -1167.8746    
     81500   81500          170.56433     -71.853901     -5603.8267     -5539.8468      2090.7919     -7630.6387      555.62211      1716.0224     -2926.5567      16.755659     -1634.9085     -2256.9779     -3100.5958     -386.76285      61054.472      39.376686      39.376686      39.376686      1.3944109     -533.25947      115.8475       201.85027    
     82000   82000          171.48135     -392.83063     -5896.4276     -5542.6025      2102.0329     -7644.6354      544.19715      1687.9759     -2920.7282      15.251972     -1625.1519     -2247.3292     -3098.8511     -382.3445       61760.015      39.527784      39.527784      39.527784      1.3784812     -109.37725     -676.47578     -392.63886    
     82500   82500          168.32982     -107.83894     -5646.8596     -5550.4645      2063.4012     -7613.8657      567.60286      1715.0999     -2919.8169      15.626082     -1641.8834     -2250.959      -3099.5352     -385.26431      61291.951      39.427673      39.427673      39.427673      1.3890081     -359.34906     -116.92696      152.75919    
     83000   83000          171.25143     -6.9429729     -5504.3695     -5498.1127      2099.2145     -7597.3272      580.32835      1717.3811     -2931.6883      15.632566     -1632.3079     -2248.3011     -3098.372      -382.15078      61791.321      39.534461      39.534461      39.534461      1.3777828     -307.26003      822.13711     -535.706      
     83500   83500          173.33842      185.58318     -5320.9951     -5486.5965      2124.797      -7611.3935      559.30731      1729.6563     -2930.6884      16.297943     -1634.0173     -2252.8238     -3099.1255     -385.93369      61185.644      39.404865      39.404865      39.404865      1.3914215      87.53784       324.87154      144.34015    
     84000   84000          171.75649     -220.78317     -5702.5413     -5505.7937      2105.4056     -7611.1992      576.39323      1710.1155     -2928.8781      16.072216     -1639.5167     -2244.5251     -3100.8603     -386.45117      61103.714      39.387269      39.387269      39.387269      1.3932872      324.93058      13.737685     -1001.0178    
     84500   84500          174.99813      310.58475     -5194.9168     -5474.0311      2145.1419     -7619.173       553.3204       1708.4555     -2930.0058      16.294545     -1602.2374     -2260.2151     -3104.7851     -383.20936      61620.628      39.498024      39.498024      39.498024      1.3815993      447.60396     -8.9440938      493.0944     
     85000   85000          174.29054     -13.791396     -5517.2838     -5504.9178      2136.4682     -7641.3859      530.2243       1721.6606     -2937.8485      16.096211     -1615.095      -2256.148      -3100.2755     -384.07413      61481.886      39.468358      39.468358      39.468358      1.3847171      53.391512      86.503235     -181.26894    
     85500   85500          170.23445      522.54036     -5059.2404     -5526.4594      2086.7482     -7613.2077      552.74597      1759.1054     -2954.697       16.55699      -1621.4682     -2261.539      -3103.9118     -385.15668      61309.079      39.431346      39.431346      39.431346      1.3886201      1273.7869     -558.9738       852.80797    
     86000   86000          166.53898      1087.4274     -4578.1637     -5550.5732      2041.4489     -7592.0221      558.88942      1715.6297     -2927.2582      16.217677     -1596.2008     -2258.4213     -3100.8787     -385.1139       61315.89       39.432806      39.432806      39.432806      1.3884659      1572.4513      700.8755       988.95536    
     86500   86500          172.02874     -39.928165     -5580.8689     -5545.1498      2108.7428     -7653.8926      571.05959      1655.4046     -2921.6071      15.871333     -1615.4957     -2256.5172     -3102.6081     -384.96082      61340.273      39.438032      39.438032      39.438032      1.3879139      284.13224      484.58136     -888.49809    
     87000   87000          170.78417     -136.79068     -5629.7508     -5507.0841      2093.4868     -7600.5708      600.16209      1716.8776     -2935.1577      16.233093     -1645.8274     -2252.5502     -3100.3083     -384.0323       61488.582      39.469791      39.469791      39.469791      1.3845663     -658.57639     -256.0679       504.27225    
     87500   87500          175.23401     -1.8144624     -5454.6838     -5453.0513      2148.0333     -7601.0846      551.37681      1732.3687     -2921.0228      16.902036     -1616.818      -2261.292      -3102.5993     -382.76303      61692.482      39.513371      39.513371      39.513371      1.3799902     -677.3946       949.77628     -277.82507    
     88000   88000          172.56099      249.92417     -5283.453      -5507.0626      2115.2672     -7622.3298      554.76153      1713.0172     -2922.817       16.26762      -1623.0964     -2260.5398     -3099.9229     -384.9071       61348.834      39.439867      39.439867      39.439867      1.3877203      435.24313      416.92127     -102.3919     
     88500   88500          173.01448     -247.74768     -5702.4962     -5480.2719      2120.8262     -7601.098       560.98233      1724.5889     -2913.3569      16.038948     -1639.7061     -2247.9005     -3101.7447     -383.9335       61504.405      39.473176      39.473176      39.473176      1.3842101     -803.49603     -423.36564      483.61864    
     89000   89000          172.09588      184.93833     -5301.1872     -5466.2505      2109.5658     -7575.8163      560.74143      1707.6907     -2913.0796      15.311172     -1590.2146     -2257.5317     -3098.7337     -385.84644      61199.481      39.407835      39.407835      39.407835      1.3911069      296.39782      45.914922      212.50224    
     89500   89500          168.89065      8.838247      -5517.0139     -5524.9648      2070.2759     -7595.2407      573.87962      1735.0099     -2937.8604      16.535567     -1643.8589     -2240.9423     -3098.0042     -382.81586      61683.97       39.511553      39.511553      39.511553      1.3801806      264.58637     -196.91578     -41.155849    
     90000   90000          170.49385     -355.58315     -5846.3553     -5529.249       2089.928      -7619.177       564.04466      1733.7676     -2939.7955      16.730047     -1638.3451     -2255.1337     -3100.445      -386.16635      61148.781      39.39695       39.39695       39.39695       1.3922603     -335.14781      1195.1457     -1926.7473    
     90500   90500          169.63093      454.27586     -5081.5602     -5488.5376      2079.3503     -7567.8879      571.109        1743.3195     -2925.4643      15.911202     -1617.8673     -2252.7396     -3102.1563     -384.40365      61429.181      39.457077      39.457077      39.457077      1.3859052      1231.5381      288.85473     -157.56525    
     91000   91000          173.19295      73.599691     -5398.77       -5464.7414      2123.0138     -7587.7552      569.68144      1723.4159     -2905.3394      16.473865     -1633.7282     -2255.8208     -3102.438      -384.20138      61461.521      39.464         39.464         39.464         1.3851759      157.31148      54.086208      9.4013885    
     91500   91500          164.41226      33.200895     -5541.507      -5571.2563      2015.3794     -7586.6357      558.03928      1769.6473     -2944.2956      17.148739     -1628.0915     -2256.4918     -3102.5921     -384.33647      61439.919      39.459376      39.459376      39.459376      1.385663       476.49031     -265.09514     -111.79248    
     92000   92000          167.70031      13.360186     -5514.5299     -5526.4998      2055.6846     -7582.1844      571.89815      1733.5647     -2918.4432      16.546762     -1621.3308     -2260.7384     -3103.6815     -384.37946      61433.048      39.457905      39.457905      39.457905      1.3858179      672.78349      714.98102     -1347.684     
     92500   92500          172.62898     -223.10292     -5734.0297     -5533.7739      2116.1006     -7649.8745      557.36408      1722.3176     -2933.4767      16.827604     -1663.8172     -2250.136      -3098.9539     -383.67038      61546.586      39.482198      39.482198      39.482198      1.3832615      751.01295     -394.17876     -1026.143     
     93000   93000          172.53448     -189.96615     -5675.4672     -5505.5406      2114.9423     -7620.4829      555.41388      1721.5087     -2893.6563      15.490549     -1657.176      -2258.2466     -3103.8171     -384.99309      61335.131      39.43693       39.43693       39.43693       1.3880303     -275.72325      579.67851     -873.85372    
     93500   93500          174.29345      571.30569     -4955.2172     -5467.3791      2136.5038     -7603.8829      559.85521      1744.1146     -2937.6062      16.646398     -1624.8521     -2259.8869     -3102.154      -384.14875      61469.942      39.465802      39.465802      39.465802      1.3849862      692.72183      1156.7941     -135.59883    
     94000   94000          172.79706     -321.55474     -5781.9367     -5492.6066      2118.1609     -7610.7675      584.36855      1690.6997     -2910.8213      16.174436     -1631.2053     -2257.8442     -3102.1395     -382.73605      61696.832      39.5143        39.5143        39.5143        1.3798929     -145.1581      -251.61047     -567.89565    
     94500   94500          170.1473       1161.9124     -4476.9094     -5512.8847      2085.6799     -7598.5646      546.88782      1721.5341     -2911.915       16.530162     -1611.118      -2256.3856     -3104.0981     -386.24434      61136.434      39.394298      39.394298      39.394298      1.3925415      181.85462      1586.4851      1717.3975    
     95000   95000          163.7511       159.33222     -5512.907      -5656.0682      2007.2748     -7663.343       579.949        1658.1355     -2927.1102      16.002414     -1640.1902     -2250.1494     -3099.9801     -383.2801       61609.255      39.495594      39.495594      39.495594      1.3818544      365.73426      467.40835     -355.14594    
     95500   95500          168.97533     -321.0989      -5847.1154     -5559.3375      2071.3139     -7630.6513      581.82895      1698.8161     -2920.8487      16.715916     -1651.1811     -2254.2183     -3101.7642     -384.25495      61452.953      39.462166      39.462166      39.462166      1.3853691     -200.82444     -102.90356     -659.5687     
     96000   96000          167.91389      515.00255     -5074.1894     -5535.4285      2058.3026     -7593.7311      570.05736      1733.8934     -2950.1914      16.523102     -1609.831      -2255.4426     -3098.74       -384.52215      61410.25       39.453023      39.453023      39.453023      1.3863324      126.19933      751.54251      667.26581    
     96500   96500          171.83103     -269.50605     -5735.884      -5494.0888      2106.3192     -7600.4081      569.48244      1698.0254     -2919.3798      15.091017     -1613.6675     -2251.3018     -3098.6577     -383.84767      61518.159      39.476118      39.476118      39.476118      1.3839006     -447.48588     -176.85226     -184.18       
     97000   97000          172.14758     -330.08939     -5800.6277     -5505.8563      2110.1996     -7616.0559      576.22682      1715.7178     -2921.9765      16.811338     -1641.7568     -2258.3866     -3102.6919     -385.64197      61231.929      39.414799      39.414799      39.414799      1.3903697      768.94373     -227.74896     -1531.4629    
     97500   97500          172.97142     -569.03575     -6015.9357     -5505.3577      2120.2983     -7625.656       561.79012      1738.4933     -2931.1343      16.019852     -1658.8021     -2251.4035     -3100.6194     -383.80937      61524.297      39.477431      39.477431      39.477431      1.3837626     -316.30218     -754.35216     -636.45292    
     98000   98000          170.77606     -830.38814     -6256.8788     -5511.5163      2093.3874     -7604.9037      584.6019       1727.9915     -2918.4989      16.290444     -1664.579      -2250.1847     -3100.525      -383.66458      61547.515      39.482397      39.482397      39.482397      1.3832406     -1196.643      -336.496       -958.02545    
     98500   98500          173.38728      347.51182     -5163.6612     -5476.1484      2125.3959     -7601.5443      550.66565      1715.7974     -2906.7773      16.44972      -1622.5253     -2253.0954     -3102.0592     -382.97944      61657.622      39.505927      39.505927      39.505927      1.3807704      1068.7595     -22.209859     -4.0142061    
     99000   99000          174.05909     -801.87934     -6225.0628     -5506.5781      2133.6311     -7640.2092      581.98604      1673.2124     -2917.7075      15.044655     -1633.8851     -2255.9831     -3102.8766     -384.35244      61437.366      39.458829      39.458829      39.458829      1.3857205     -681.07506     -689.53353     -1035.0294    
     99500   99500          168.79029     -1257.2778     -6679.4021     -5541.0989      2069.0456     -7610.1446      595.52882      1691.5982     -2925.0839      15.433665     -1627.4107     -2256.8552     -3103.3554     -380.37454      62079.869      39.595904      39.595904      39.595904      1.3713789     -1309.9711     -2057.5245     -404.3379     
    100000   100000         169.39566     -205.33882     -5720.8247     -5536.5782      2076.4663     -7613.0446      581.61245      1680.4716     -2923.1087      16.029491     -1613.8989     -2255.3509     -3098.7996     -383.8044       61525.094      39.477602      39.477602      39.477602      1.3837447     -403.73389     -141.76549     -70.51709     
    100500   100500         171.79338      233.33946     -5273.7128     -5482.7027      2105.8578     -7588.5605      569.96983      1717.5201     -2918.2572      16.207069     -1608.8062     -2260.2663     -3104.9277     -384.50408      61413.136      39.453641      39.453641      39.453641      1.3862673      207.38059      422.95299      69.684811    
    101000   101000         172.90956     -1040.6487     -6399.1215     -5463.8561      2119.54       -7583.3961      590.92617      1725.7187     -2921.2658      16.280257     -1644.5396     -2249.958      -3100.5578     -383.18403      61624.702      39.498895      39.498895      39.498895      1.381508      -751.83861     -1550.0854     -820.02205    
    101500   101500         173.50077     -204.56426     -5688.0331     -5504.6491      2126.7872     -7631.4363      563.19095      1689.7573     -2914.9767      15.647253     -1631.2068     -2251.8172     -3102.0311     -384.15499      61468.944      39.465589      39.465589      39.465589      1.3850087     -142.55966     -438.01306     -33.120069    
    102000   102000         173.47675     -4.9589537     -5518.1105     -5513.6755      2126.4926     -7640.1681      579.38149      1675.1047     -2912.3212      15.576062     -1647.2953     -2250.7587     -3099.8551     -385.05963      61324.533      39.434658      39.434658      39.434658      1.3882702     -270.24945      440.16249     -184.78991    
    102500   102500         172.21537     -336.25602     -5815.4072     -5512.804       2111.0306     -7623.8345      596.28372      1681.6541     -2917.269       16.254512     -1652.9319     -2248.336      -3099.4899     -382.67892      61706.043      39.516266      39.516266      39.516266      1.3796869      284.50577     -139.26353     -1154.0103    
    103000   103000         169.90621     -455.24369     -5927.7132     -5520.7782      2082.7247     -7603.5029      572.87445      1743.0861     -2925.8879      16.533385     -1656.7009     -2251.4932     -3101.9149     -385.26271      61292.207      39.427728      39.427728      39.427728      1.3890024     -126.95669     -933.40144     -305.37293    
    103500   103500         168.45828     -102.2128      -5598.9311     -5507.1637      2064.9759     -7572.1395      584.47816      1754.1627     -2932.744       17.168541     -1633.0959     -2259.167      -3102.942      -383.579        61561.247      39.485333      39.485333      39.485333      1.382932       251.85331     -346.52961     -211.9621     
    104000   104000         167.73334      99.333943     -5503.1427     -5592.2847      2056.0894     -7648.3742      565.12076      1684.5234     -2932.0234      15.510582     -1626.8469     -2254.6686     -3099.9901     -383.75427      61533.13       39.47932       39.47932       39.47932       1.3835639     -447.22766      929.13711     -183.90762    
    104500   104500         170.27326     -846.74039     -6344.667      -5586.6898      2087.224      -7673.9138      574.53642      1692.2554     -2930.8004      16.668233     -1675.6942     -2249.6765     -3101.2027     -384.70888      61380.444      39.446639      39.446639      39.446639      1.3870056     -145.46051     -981.65553     -1413.1051    
    105000   105000         169.59703     -280.8909      -5784.7803     -5531.9741      2078.9348     -7610.9089      574.53518      1715.1415     -2933.8683      16.335976     -1628.4696     -2253.3383     -3101.2454     -382.63809      61712.626      39.517671      39.517671      39.517671      1.3795397     -567.72107     -284.92369      9.972068     
    105500   105500         172.07536      238.48779     -5284.2453     -5498.3711      2109.3143     -7607.6854      560.15543      1715.3879     -2922.0093      16.0032       -1617.1035     -2257.0721     -3103.047      -383.56182      61564.004      39.485922      39.485922      39.485922      1.3828701     -113.07141      370.62851      457.90625    
    106000   106000         172.10782     -39.171349     -5525.4494     -5490.2889      2109.7122     -7600.0011      586.70281      1701.5724     -2940.1055      16.900466     -1608.0352     -2256.5536     -3100.4824     -383.66484      61547.474      39.482388      39.482388      39.482388      1.3832415     -322.68067      393.92191     -188.75529    
    106500   106500         169.11777      259.29597     -5303.1656     -5535.5735      2073.0599     -7608.6335      557.55504      1706.9166     -2910.2818      15.49596      -1622.1144     -2259.5805     -3096.6245     -384.22258      61458.131      39.463274      39.463274      39.463274      1.3852523     -319.87081      503.94208      593.81663    
    107000   107000         165.7074      -117.17017     -5688.5524     -5583.5663      2031.2553     -7614.8217      570.53264      1698.8161     -2931.1805      15.939396     -1604.5506     -2261.6471     -3102.7317     -384.34719      61438.205      39.459009      39.459009      39.459009      1.3857016     -57.760725      96.993909     -390.74369    
    107500   107500         171.06939     -435.60849     -5921.7726     -5531.4668      2096.9831     -7628.4499      566.35757      1736.0436     -2932.4482      16.707674     -1660.5795     -2252.3457     -3102.1853     -384.35225      61437.397      39.458836      39.458836      39.458836      1.3857198     -267.94339     -627.15026     -411.73182    
    108000   108000         170.96483     -188.77916     -5667.4387     -5498.9941      2095.7014     -7594.6955      572.7937       1754.7005     -2935.3454      16.255513     -1651.0799     -2252.2        -3099.8199     -385.95348      61182.508      39.404192      39.404192      39.404192      1.3914928     -271.37804     -442.82254      147.86309    
    108500   108500         170.6428      -404.85804     -5845.6646     -5481.6343      2091.7539     -7573.3882      587.50122      1766.5077     -2949.3979      17.340708     -1642.0534     -2252.5576     -3100.7289     -383.00408      61653.655      39.50508       39.50508       39.50508       1.3808592     -811.57416      461.23003     -864.22998    
    109000   109000         171.55242      394.12227     -5188.8514     -5543.428       2102.9041     -7646.332       556.74754      1688.5881     -2934.6761      16.065722     -1618.5072     -2253.4589     -3101.0912     -382.78862      61688.359      39.512491      39.512491      39.512491      1.3800824      1007.1581      656.02019     -480.81148    
    109500   109500         172.71033      55.800256     -5468.1276     -5518.0736      2117.0978     -7635.1714      553.0398       1718.7205     -2941.1619      17.04501      -1631.3986     -2250.7872     -3100.6291     -384.74592      61374.535      39.445373      39.445373      39.445373      1.3871391      456.81288     -35.196191     -254.21592    
    110000   110000         173.95236     -1223.2331     -6570.1486     -5471.7518      2132.3228     -7604.0745      603.42134      1691.6173     -2923.3884      16.389118     -1644.2689     -2248.0756     -3099.7693     -383.52004      61570.712      39.487356      39.487356      39.487356      1.3827194     -171.91738     -1607.0998     -1890.6821    
    110500   110500         175.30637     -727.2403      -6132.555      -5482.3566      2148.9203     -7631.2768      571.62987      1713.6484     -2923.1908      16.237903     -1658.3777     -2248.8408     -3102.3838     -385.18568      61304.464      39.430356      39.430356      39.430356      1.3887246      159.93634     -942.74162     -1398.9156    
    111000   111000         171.51069     -62.192767     -5595.9197     -5539.9783      2102.3926     -7642.3708      574.89349      1696.4464     -2948.3747      16.539213     -1620.4719     -2256.9343     -3104.469      -382.86372      61676.258      39.509907      39.509907      39.509907      1.3803532      511.71928     -342.16446     -356.13313    
    111500   111500         171.55196     -231.31004     -5758.9387     -5551.4621      2102.8984     -7654.3605      579.94638      1681.1397     -2921.7621      16.303375     -1652.5619     -2254.503      -3102.923      -383.94024      61503.326      39.472945      39.472945      39.472945      1.3842344      52.576327     -754.43746      7.9310054    
    112000   112000         171.72279      521.38101     -5068.7454     -5536.7753      2104.9925     -7641.7678      563.84423      1682.5095     -2931.445       16.159018     -1612.6593     -2256.7271     -3103.449      -383.63637      61552.042      39.483365      39.483365      39.483365      1.3831388      533.98437      983.19475      46.963906    
    112500   112500         172.72035      249.89574     -5239.5352     -5464.7961      2117.2207     -7582.0168      556.87846      1758.4532     -2935.1643      16.570715     -1615.8491     -2257.3728     -3105.5331     -382.042        61808.915      39.538213      39.538213      39.538213      1.3773906      983.57814      726.59259     -960.48349    
    113000   113000         171.93983      349.80658     -5163.1573     -5476.5885      2107.653      -7584.2415      579.15464      1740.4188     -2922.0832      16.374457     -1640.4946     -2254.662      -3102.9497     -384.34726      61438.195      39.459007      39.459007      39.459007      1.3857018      329.75557      241.06053      478.60363    
    113500   113500         171.82845      180.66575     -5337.8884     -5499.8077      2106.2877     -7606.0953      562.56702      1696.0413     -2916.2987      15.660255     -1586.8677     -2269.5615     -3107.6359     -384.25134      61453.531      39.46229       39.46229       39.46229       1.385356      -238.78023      607.43768      173.3398     
    114000   114000         170.87849     -737.29392     -6160.0662     -5495.5899      2094.643      -7590.2329      579.0141       1719.6885     -2915.5704      15.721691     -1631.6745     -2255.6583     -3101.754      -382.11958      61796.367      39.535537      39.535537      39.535537      1.3776703     -817.35577     -155.38637     -1239.1396    
    114500   114500         169.48646     -142.99155     -5729.8101     -5602.2727      2077.5793     -7679.852       578.43033      1671.9286     -2926.6198      16.199173     -1661.7062     -2256.4916     -3101.5925     -386.10984      61157.731      39.398872      39.398872      39.398872      1.3920565      773.11062     -752.21878     -449.8665     
    115000   115000         173.88771      324.06053     -5193.0809     -5482.8491      2131.5303     -7614.3794      567.67188      1697.1875     -2912.0801      15.550076     -1625.8963     -2256.0417     -3100.7707     -385.13554      61312.446      39.432067      39.432067      39.432067      1.3885439     -182.32388      528.82879      625.67668    
    115500   115500         174.0286       184.37672     -5306.4855     -5472.2075      2133.2573     -7605.4648      566.24581      1721.614      -2928.7746      15.909001     -1624.7998     -2253.482      -3102.1772     -383.14584      61630.844      39.500207      39.500207      39.500207      1.3813703      717.93024     -564.67959      399.8795     
    116000   116000         171.67673     -470.94139     -5946.0563     -5524.9475      2104.4279     -7629.3754      586.82557      1708.7521     -2928.5959      16.458852     -1657.9921     -2253.7667     -3101.0572     -385.13294      61312.859      39.432156      39.432156      39.432156      1.3885345     -629.79373     -790.70364      7.6732074    
    116500   116500         169.29046     -385.26318     -5890.9092     -5544.7297      2075.1768     -7619.9065      579.06862      1711.5134     -2929.1879      16.874536     -1639.2954     -2256.7383     -3102.1415     -383.26063      61612.386      39.496263      39.496263      39.496263      1.3817842     -699.9008      -22.772794     -433.11595    
    117000   117000         169.56025      678.25227     -4926.3997     -5534.6493      2078.4838     -7613.1331      559.90789      1708.9441     -2902.7499      16.161718     -1629.3897     -2260.5685     -3105.4387     -384.01444      61491.442      39.470403      39.470403      39.470403      1.3845019      750.34955      1226.4544      57.952819    
    117500   117500         172.96953     -497.1615      -5969.0302     -5522.9455      2120.2751     -7643.2206      555.20075      1708.3007     -2930.5706      15.849788     -1643.2253     -2248.6837     -3100.0922     -383.8117       61523.923      39.477351      39.477351      39.477351      1.383771      -651.85498      99.780516     -939.41004    
    118000   118000         168.97945     -338.041       -5811.9444     -5509.2078      2071.3644     -7580.5723      588.62593      1693.5576     -2909.6982      15.886816     -1603.4908     -2260.9137     -3104.54       -384.54089      61407.257      39.452382      39.452382      39.452382      1.3864         72.077968     -506.33651     -579.86447    
    118500   118500         168.96123      12.412814     -5549.6295     -5560.7666      2071.1411     -7631.9076      583.45401      1691.9655     -2942.6593      15.79279      -1625.2554     -2254.5536     -3100.6517     -383.82753      61521.385      39.476809      39.476809      39.476809      1.3838281     -174.55987     -412.59176      624.39007    
    119000   119000         171.30987     -248.62581     -5753.8845     -5531.5689      2099.9308     -7631.4997      556.99817      1686.9217     -2909.3351      16.291706     -1615.9868     -2264.1466     -3102.2429     -385.13624      61312.334      39.432043      39.432043      39.432043      1.3885464      121.79645     -314.17565     -553.49823    
    119500   119500         171.80417      332.51478     -5186.5296     -5483.6998      2105.99       -7589.6898      573.7354       1752.097      -2939.1658      16.257421     -1638.1794     -2253.7163     -3100.7181     -385.33977      61279.95       39.4251        39.4251        39.4251        1.3892802      722.40069      198.02252      77.121137    
    120000   120000         175.3099       164.37481     -5361.8832     -5509.431       2148.9635     -7658.3945      545.43122      1692.8411     -2926.3611      15.810926     -1637.968      -2250.1858     -3097.9628     -383.65468      61549.104      39.482736      39.482736      39.482736      1.3832049      758.00049      629.60673     -894.48278    
    120500   120500         168.93713      624.41522     -4970.6838     -5530.132       2070.8456     -7600.9776      566.40347      1711.3413     -2933.2653      16.817997     -1607.017      -2253.5499     -3101.7082     -384.37198      61434.243      39.458161      39.458161      39.458161      1.385791       723.7826       374.41247      775.05058    
    121000   121000         168.10527     -674.26804     -6207.2626     -5601.0061      2060.6486     -7661.6547      550.5222       1706.3367     -2931.2569      16.39123      -1649.463      -2252.0216     -3102.1634     -383.01368      61652.11       39.50475       39.50475       39.50475       1.3808939     -626.00406     -1152.9145     -243.88555    
    121500   121500         173.79023     -588.89602     -6043.7031     -5515.9818      2130.3353     -7646.317       568.56675      1703.6132     -2919.0956      16.195251     -1656.0552     -2254.6916     -3104.8498     -384.30152      61445.506      39.460572      39.460572      39.460572      1.3855369     -724.90105     -1139.8189      98.03186     
    122000   122000         172.66362      262.65352     -5258.9736     -5494.6992      2116.5252     -7611.2244      562.71907      1688.903      -2903.4565      15.494407     -1616.9863     -2254.5544     -3103.3437     -383.72017      61538.598      39.48049       39.48049       39.48049       1.383441      -178.37569      558.34554      407.99071    
    122500   122500         172.49613      1041.2719     -4612.0878     -5539.6141      2114.4722     -7654.0862      548.71896      1696.5857     -2916.4005      16.381146     -1640.787      -2254.4083     -3104.1762     -386.61264      61078.193      39.381785      39.381785      39.381785      1.3938693      372.54257      1610.3108      1140.9624    
    123000   123000         172.76231     -175.32572     -5620.4125     -5463.1196      2117.735      -7580.8546      572.14861      1753.4415     -2924.7694      16.45023      -1650.0601     -2247.8957     -3100.1698     -383.86163      61515.92       39.47564       39.47564       39.47564       1.383951      -172.41264      597.04646     -950.61097    
    123500   123500         172.46362     -128.02133     -5612.895      -5497.9792      2114.0737     -7612.0529      567.52619      1709.8171     -2927.418       16.168559     -1632.1346     -2247.838      -3098.174      -383.65501      61549.051      39.482725      39.482725      39.482725      1.3832061      629.43538     -306.46623     -707.03313    
    124000   124000         171.41059     -663.65078     -6139.6692     -5544.2647      2101.1655     -7645.4301      548.31708      1740.6567     -2932.665       16.6156       -1661.9087     -2253.8367     -3102.6091     -383.8536       61517.208      39.475915      39.475915      39.475915      1.383922      -153.09227     -500.42082     -1337.4392    
    124500   124500         174.6752      -69.488969     -5571.3767     -5509.3442      2141.1834     -7650.5276      561.49173      1704.463      -2925.8878      16.016915     -1644.7882     -2258.2756     -3103.5478     -385.77566      61210.709      39.410245      39.410245      39.410245      1.3908517     -470.40026     -36.581405      298.51475    
    125000   125000         174.62189     -242.30983     -5669.2403     -5451.5908      2140.5299     -7592.1206      576.92032      1712.3635     -2919.5922      15.907048     -1619.2511     -2256.3235     -3102.1447     -383.39942      61590.082      39.491497      39.491497      39.491497      1.3822846     -683.66143      524.80591     -568.07398    
    125500   125500         176.56558     -29.285965     -5505.4837     -5479.1518      2164.3558     -7643.5077      558.0043       1694.0911     -2929.262       16.409816     -1626.9719     -2253.0845     -3102.6946     -383.01501      61651.897      39.504704      39.504704      39.504704      1.3808986     -197.34388      32.980338      76.50565     
    126000   126000         173.87013      446.3071      -5077.3415     -5477.5173      2131.3147     -7608.832       566.89184      1718.6302     -2932.6369      16.693697     -1622.6689     -2256.3936     -3099.3483     -384.07949      61481.028      39.468175      39.468175      39.468175      1.3847364      436.73023     -21.474628      923.66571    
    126500   126500         168.82516     -439.53559     -5940.2949     -5545.3392      2069.4731     -7614.8123      566.61706      1728.8543     -2930.107       16.046608     -1634.0138     -2258.3273     -3103.8821     -383.25144      61613.863      39.496579      39.496579      39.496579      1.381751      -760.77892      103.98051     -661.80834    
    127000   127000         171.09987     -838.82638     -6293.5102     -5542.8339      2097.3567     -7640.1905      566.84453      1715.0695     -2930.9337      16.415938     -1647.4511     -2255.8008     -3104.3349     -384.81985      61362.743      39.442847      39.442847      39.442847      1.3874057     -477.72176     -449.04414     -1589.7132    
    127500   127500         170.02291      429.37288     -5119.2942     -5504.2767      2084.1552     -7588.4319      572.78882      1723.3675     -2916.6882      16.579135     -1626.622      -2254.5352     -3103.322      -384.08894      61479.515      39.467851      39.467851      39.467851      1.3847705      12.198972      746.47929      529.44039    
    128000   128000         168.65262     -69.097727     -5597.3104     -5535.1801      2067.3581     -7602.5382      569.70135      1728.3426     -2926.9351      16.431404     -1635.4212     -2253.7378     -3100.9195     -383.00005      61654.304      39.505218      39.505218      39.505218      1.3808447      774.76412      340.4914      -1322.5487    
    128500   128500         167.87967      368.83441     -5230.8291     -5561.6789      2057.8832     -7619.5621      568.24979      1695.1098     -2916.7218      15.944988     -1621.5935     -2257.4448     -3103.1067     -383.91822      61506.853      39.4737        39.4737        39.4737        1.384155       180.80663      307.91821      617.77839    
    129000   129000         170.36708     -490.96231     -5996.3749     -5557.6135      2088.374      -7645.9876      566.25864      1695.5686     -2920.9757      15.856003     -1639.2297     -2257.9086     -3105.5568     -385.3522       61277.972      39.424676      39.424676      39.424676      1.389325      -812.72831     -173.94753     -486.21108    
    129500   129500         174.45527      29.040761     -5421.2855     -5447.3096      2138.4875     -7585.7971      581.66392      1711.5563     -2905.9168      16.310204     -1633.8565     -2255.3375     -3100.2168     -384.30022      61445.715      39.460617      39.460617      39.460617      1.3855323      208.17567     -1102.4858      981.4324     
    130000   130000         169.79891      318.33419     -5275.878      -5560.896       2081.4094     -7642.3054      554.19082      1707.3367     -2927.4735      16.097088     -1648.1328     -2246.7389     -3097.5848     -384.63523      61392.196      39.449157      39.449157      39.449157      1.3867401      577.66871     -64.757165      442.09102    
    130500   130500         172.53745     -354.36378     -5838.6863     -5520.8268      2114.9787     -7635.8055      581.83922      1678.4724     -2919.6833      15.687626     -1642.5186     -2250.2402     -3099.3626     -383.93028      61504.921      39.473287      39.473287      39.473287      1.3841985     -353.11829     -20.094225     -689.87882    
    131000   131000         170.91847     -20.020319     -5531.3634     -5513.3744      2095.1331     -7608.5075      569.20761      1692.451      -2920.9462      16.354648     -1612.9014     -2253.0246     -3099.6485     -383.26778      61611.237      39.496018      39.496018      39.496018      1.3818099      689.04618     -741.21204     -7.8950914    
    131500   131500         168.44203      173.72274     -5428.5029     -5583.1818      2064.7767     -7647.9585      563.44652      1729.4402     -2933.1085      17.389035     -1668.5557     -2254.9254     -3101.6447     -386.77981      61051.795      39.37611       39.37611       39.37611       1.394472       276.88589      521.32011     -277.03779    
    132000   132000         168.86433      84.09137      -5413.6047     -5488.9596      2069.9532     -7558.9128      573.43698      1759.0097     -2925.2441      15.640706     -1631.4478     -2248.6882     -3101.6201     -384.30687      61444.652      39.460389      39.460389      39.460389      1.3855562     -420.31514     -93.809561      766.39881    
    132500   132500         172.03846      220.21421     -5323.1762     -5520.6409      2108.862      -7629.5029      558.35054      1714.7985     -2919.5127      16.28041      -1636.5126     -2259.366      -3103.5411     -384.05539      61484.886      39.469         39.469         39.469         1.3846496      103.01885     -25.938655      583.56244    
    133000   133000         169.50664      537.87647     -5055.0564     -5536.7097      2077.8267     -7614.5364      550.52049      1709.4925     -2922.3569      15.311802     -1611.7102     -2254.9228     -3100.8713     -384.57953      61401.089      39.451061      39.451061      39.451061      1.3865393      370.2442       855.51558      387.86963    
    133500   133500         167.42034      163.64793     -5395.9209     -5542.7395      2052.2527     -7594.9923      594.40501      1702.2721     -2919.7018      16.44292      -1637.4124     -2251.2882     -3099.7098     -383.85523      61516.946      39.475859      39.475859      39.475859      1.3839279      366.93334      674.04019     -550.02974    
    134000   134000         169.17675      136.07079     -5385.7276     -5507.8548      2073.7829     -7581.6377      596.27883      1670.2402     -2909.4807      14.964519     -1592.8008     -2258.9491     -3101.8907     -383.69885      61542.018      39.481221      39.481221      39.481221      1.3833641      619.91409      319.83686     -531.53858    
    134500   134500         172.01521      520.25554     -4997.9311     -5462.7045      2108.577      -7571.2815      582.88298      1728.6863     -2918.9902      16.513586     -1614.7843     -2262.883      -3102.7068     -385.49038      61256.008      39.419965      39.419965      39.419965      1.3898232      299.99188      503.88455      756.89021    
    135000   135000         172.34334      849.92181     -4761.5132     -5524.2558      2112.5993     -7636.8551      554.76939      1694.147      -2922.6961      15.797894     -1616.8644     -2258.2759     -3103.7329     -383.74181      61535.129      39.479748      39.479748      39.479748      1.383519       592.50305      1071.483       885.77939    
    135500   135500         169.91801     -339.35218     -5825.8317     -5522.0174      2082.8693     -7604.8867      594.76622      1719.9981     -2930.6244      16.73719      -1645.0021     -2258.5715     -3102.1901     -384.66304      61387.758      39.448206      39.448206      39.448206      1.3868403     -34.347679     -10.647373     -973.0615     
    136000   136000         171.03399     -1052.7663     -6464.811      -5518.6833      2096.5491     -7615.2324      592.15921      1700.6945     -2928.0534      16.580437     -1649.0455     -2249.8627     -3097.7049     -383.19544      61622.867      39.498503      39.498503      39.498503      1.3815492     -2067.0431     -785.13272     -306.1232     
    136500   136500         168.26783     -326.66943     -5837.63       -5545.9562      2062.6413     -7608.5975      580.11077      1725.4597     -2936.1181      16.332079     -1637.0961     -2256.3641     -3100.9218     -385.69964      61222.773      39.412834      39.412834      39.412834      1.3905776     -253.59723      246.99914     -973.4102     
    137000   137000         172.04624     -143.36084     -5651.3407     -5522.7165      2108.9573     -7631.6738      546.82296      1721.247      -2929.6499      16.34456      -1630.2043     -2255.2956     -3100.9386     -383.83618      61520          39.476512      39.476512      39.476512      1.3838592      403.38004     -586.92253     -246.54002    
    137500   137500         173.28835     -19.40017      -5534.4726     -5517.1311      2124.1832     -7641.3143      555.92066      1678.7368     -2912.3286      15.463906     -1616.6957     -2257.3625     -3105.0489     -385.26113      61292.458      39.427782      39.427782      39.427782      1.3889967     -600.92622      110.35524      432.37046    
    138000   138000         172.66755      61.211255     -5462.959      -5517.6983      2116.5734     -7634.2717      568.16246      1699.2455     -2911.1627      15.971259     -1650.6399     -2254.1224     -3101.726      -385.09763      61318.481      39.433361      39.433361      39.433361      1.3884072      368.59478     -363.33925      178.37823    
    138500   138500         171.7872       713.52023     -4898.4819     -5534.7343      2105.782      -7640.5163      528.48188      1695.7606     -2918.6978      15.632749     -1608.508      -2253.8809     -3099.3047     -386.20241      61143.072      39.395724      39.395724      39.395724      1.3923903      152.09634      1137.1957      851.26869    
    139000   139000         171.59541     -1254.2847     -6630.3062     -5503.6232      2103.431      -7607.0542      586.06331      1723.8279     -2913.2646      16.132084     -1676.7876     -2243.9017     -3099.1236     -383.38269      61592.769      39.492071      39.492071      39.492071      1.3822243     -1288.231      -1358.3883     -1116.2348    
    139500   139500         171.68487      75.894918     -5507.9352     -5575.8135      2104.5276     -7680.3411      560.02185      1667.5883     -2924.3367      15.704979     -1634.3836     -2262.1302     -3102.8058     -385.05218      61325.719      39.434913      39.434913      39.434913      1.3882433     -465.2286       645.36472      47.548631    
    140000   140000         169.52704      213.16345     -5343.9597     -5535.7791      2078.0768     -7613.8559      540.67709      1731.8928     -2927.4198      16.133143     -1614.7415     -2256.8747     -3103.523      -382.69988      61702.663      39.515544      39.515544      39.515544      1.3797625      538.86206      461.26934     -360.64105    
    140500   140500         170.95454      140.00104     -5450.9767     -5576.9459      2095.5752     -7672.5211      545.91485      1722.676      -2955.1196      16.888912     -1651.7042     -2251.0299     -3100.1471     -382.74107      61696.022      39.514127      39.514127      39.514127      1.379911       338.46625     -31.716016      113.25287    
    141000   141000         170.06204      61.431247     -5475.1823     -5530.1844      2084.6349     -7614.8192      561.1549       1706.7358     -2921.0496      16.08507      -1616.3477     -2260.1875     -3101.2102     -384.63479      61392.267      39.449172      39.449172      39.449172      1.3867385     -154.22482      623.31955     -284.80099    
    141500   141500         174.29173      244.83707     -5299.7525     -5519.9233      2136.4827     -7656.406       541.88768      1711.7118     -2928.9657      16.562269     -1642.2101     -2253.5935     -3101.7985     -382.96183      61660.457      39.506533      39.506533      39.506533      1.3807069      21.455138      666.24393      46.812141    
    142000   142000         171.51279     -369.06617     -5865.127      -5534.3596      2102.4183     -7636.7779      570.20957      1699.3731     -2934.4587      15.799502     -1636.4263     -2251.5178     -3099.7572     -384.25508      61452.933      39.462162      39.462162      39.462162      1.3853695     -230.66263      91.675617     -968.21151    
    142500   142500         173.196        89.807792     -5377.9382     -5458.4938      2123.0512     -7581.545       576.66903      1726.3192     -2936.4596      15.695091     -1597.2988     -2265.2192     -3101.2508     -383.93387      61504.345      39.473164      39.473164      39.473164      1.3842115     -212.14341      272.78015      208.78664    
    143000   143000         170.34336      375.82509     -5171.0625     -5508.7691      2088.0833     -7596.8524      574.93394      1703.3857     -2925.1018      15.749114     -1610.6564     -2253.5669     -3101.596      -383.25192      61613.785      39.496562      39.496562      39.496562      1.3817528      493.69546     -510.37107      1144.1509    
    143500   143500         171.87528     -140.01471     -5667.9307     -5542.5321      2106.8617     -7649.3938      569.78103      1701.2428     -2923.9928      16.392095     -1652.6258     -2257.4127     -3102.7783     -384.52025      61410.555      39.453089      39.453089      39.453089      1.3863255      599.60053     -959.22518     -60.419493    
    144000   144000         173.32712      251.99098     -5310.5619     -5536.8791      2124.6585     -7661.5376      576.28456      1697.7934     -2946.8995      16.675294     -1651.0314     -2250.8467     -3103.5133     -383.44729      61582.393      39.489853      39.489853      39.489853      1.3824572      277.0118       1315.2035     -836.24238    
    144500   144500         171.10533     -225.14931     -5723.0696     -5521.744       2097.4236     -7619.1676      579.71215      1709.1317     -2931.2338      16.386441     -1633.1356     -2259.674      -3100.3545     -385.13216      61312.983      39.432182      39.432182      39.432182      1.3885317     -545.64643     -141.33191      11.530402    
    145000   145000         173.19363     -49.700281     -5536.4991     -5491.6993      2123.0222     -7614.7215      575.19011      1716.7962     -2931.8933      15.531186     -1639.4553     -2250.3929     -3100.4974     -382.05007      61807.61       39.537935      39.537935      39.537935      1.3774197      546.46187     -623.17603     -72.386681    
    145500   145500         172.17816      263.03288     -5239.0959     -5475.1018      2110.5745     -7585.6763      566.55978      1724.6023     -2932.8626      16.265198     -1599.1902     -2255.588      -3105.4626     -383.81798      61522.917      39.477136      39.477136      39.477136      1.3837936      1219.6877      385.74607     -816.33514    
    146000   146000         170.26192      365.96395     -5220.8586     -5550.1208      2087.085      -7637.2059      552.53674      1686.1386     -2919.1206      15.852793     -1604.9623     -2263.7866     -3103.8645     -382.76703      61691.839      39.513234      39.513234      39.513234      1.3800046     -109.49595      410.80157      796.58624    
    146500   146500         171.4971       89.438308     -5420.8897     -5500.7964      2102.226      -7603.0224      577.13343      1713.3541     -2918.558       15.799539     -1626.7822     -2262.068      -3101.9013     -385.45895      61261.003      39.421036      39.421036      39.421036      1.3897099      277.54264      108.08869     -117.31641    
    147000   147000         170.33503     -222.41976     -5697.0886     -5496.5661      2087.9812     -7584.5473      584.75881      1758.8202     -2961.3953      16.668258     -1626.4509     -2255.4041     -3101.5442     -381.98673      61817.858      39.54012       39.54012       39.54012       1.3771914     -41.755087     -407.99035     -217.51386    
    147500   147500         176.01985     -321.24322     -5770.6025     -5482.4969      2157.6662     -7640.1631      598.62397      1683.3937     -2927.645       16.060589     -1650.714      -2258.5588     -3101.3236     -383.99034      61495.302      39.471229      39.471229      39.471229      1.384415       213.88132     -955.66164     -221.94934    
    148000   148000         173.58339     -111.85781     -5572.5374     -5471.8979      2127.7999     -7599.6978      562.09756      1705.4985     -2921.6825      15.997722     -1609.9529     -2253.4301     -3098.2261     -382.76856      61691.592      39.513181      39.513181      39.513181      1.3800101      610.36151     -953.75096      7.8160156    
    148500   148500         169.80459      165.69245     -5438.3655     -5586.5573      2081.4791     -7668.0364      556.37103      1654.072      -2926.6714      14.985573     -1607.7989     -2255.8319     -3103.1626     -385.04961      61326.128      39.435         39.435         39.435         1.3882341      376.18528      585.52024     -464.62817    
    149000   149000         169.33021     -161.1133      -5714.8443     -5570.3642      2075.664      -7646.0282      537.76799      1720.1684     -2945.3721      16.34694      -1620.9923     -2254.6605     -3099.2867     -384.02681      61489.462      39.469979      39.469979      39.469979      1.3845465     -217.24908      954.40116     -1220.492     
    149500   149500         169.94252     -766.42276     -6234.1802     -5544.6736      2083.1698     -7627.8434      561.59055      1711.0099     -2921.1361      15.904832     -1644.4551     -2250.9973     -3099.7602     -382.79662      61687.069      39.512215      39.512215      39.512215      1.3801113     -876.13314     -1187.847      -235.28818    
    150000   150000         170.16896     -637.97341     -6089.2054     -5516.9083      2085.9455     -7602.8539      591.14879      1703.9759     -2919.4785      16.34081      -1641.6864     -2252.9811     -3100.1733     -383.90091      61509.627      39.474293      39.474293      39.474293      1.3840926     -395.85481     -490.06412     -1028.0013    
    150500   150500         167.97175      99.079505     -5457.2497     -5546.4106      2059.0119     -7605.4225      568.39084      1703.4123     -2925.1565      16.063124     -1599.7252     -2264.3415     -3104.0654     -382.69045      61704.182      39.515869      39.515869      39.515869      1.3797285      182.06174     -231.93321      347.10999    
    151000   151000         173.19651      1164.0456     -4445.0964     -5482.6988      2123.0575     -7605.7563      548.73506      1738.2942     -2931.9211      16.191226     -1606.6281     -2266.9403     -3103.4872     -386.34665      61120.244      39.39082       39.39082       39.39082       1.3929103      2307.8783      348.99031      835.26826    
    151500   151500         172.73901      892.76167     -4687.4805     -5489.1745      2117.4493     -7606.6238      560.20917      1710.8497     -2932.7913      16.179475     -1604.6145     -2255.1601     -3101.2964     -383.49967      61573.981      39.488055      39.488055      39.488055      1.382646       329.376        1728.4075      620.50148    
    152000   152000         172.75162      436.08436     -5092.8822     -5483.6406      2117.6039     -7601.2445      544.15282      1723.4558     -2917.5724      15.937588     -1605.4206     -2258.6173     -3103.1805     -384.32647      61441.517      39.459718      39.459718      39.459718      1.3856269      974.61013     -51.763603      385.40657    
    152500   152500         172.07148      175.25269     -5354.9914     -5511.5563      2109.2668     -7620.8231      553.92429      1726.8419     -2932.7361      16.21714      -1621.3304     -2259.8158     -3103.9241     -385.48593      61256.715      39.420116      39.420116      39.420116      1.3898071      172.43216      485.80335     -132.47745    
    153000   153000         169.6268       93.796153     -5479.0843     -5563.3281      2079.2997     -7642.6277      545.42001      1739.3216     -2948.8232      16.739057     -1644.6656     -2250.0647     -3100.5549     -383.42957      61585.239      39.490462      39.490462      39.490462      1.3823933     -891.74645      597.26809      575.86682    
    153500   153500         169.6848      -55.172407     -5632.8297     -5583.3858      2080.0106     -7663.3964      562.64946      1708.7285     -2935.5557      16.431866     -1652.1382     -2260.2287     -3103.2836     -384.27961      61449.01       39.461322      39.461322      39.461322      1.385458      -206.93742      367.31078     -325.89058    
    154000   154000         169.91103      132.93013     -5407.051      -5526.7123      2082.7838     -7609.4961      572.57875      1713.307      -2934.896       15.953249     -1618.6845     -2254.9692     -3102.7854     -382.56741      61724.028      39.520105      39.520105      39.520105      1.3792849      2000.5281     -766.64834     -835.08937    
    154500   154500         170.17509     -23.018497     -5530.3002     -5509.7195      2086.0207     -7595.7402      592.48934      1714.3167     -2944.6807      16.120361     -1622.0989     -2251.6636     -3100.2234     -385.17277      61306.519      39.430797      39.430797      39.430797      1.3886781     -1211.0922      505.19614      636.84057    
    155000   155000         172.5017       427.89412     -5124.845      -5508.247       2114.5404     -7622.7875      572.7862       1691.2129     -2917.2812      15.367656     -1621.6539     -2259.8237     -3103.3954     -384.34392      61438.729      39.459121      39.459121      39.459121      1.3856898      194.84278      117.50975      971.32982    
    155500   155500         172.03028      280.40782     -5304.0089     -5555.2039      2108.7618     -7663.9656      547.65566      1707.5466     -2950.6566      16.217173     -1620.663      -2262.2267     -3101.8388     -384.43003      61424.966      39.456175      39.456175      39.456175      1.3860003      496.27935      805.51518     -460.57106    
    156000   156000         170.49271      513.75223     -5056.4611     -5516.1612      2089.914      -7606.0752      564.09673      1710.6858     -2922.2732      15.903204     -1612.5103     -2260.2796     -3101.6979     -384.87277      61354.306      39.441039      39.441039      39.441039      1.3875965      74.125626      1212.5035      254.62758    
    156500   156500         176.61485     -118.45713     -5533.4579     -5427.097       2164.9597     -7592.0567      565.76404      1745.0407     -2918.917       15.974267     -1644.5192     -2253.261      -3102.1385     -383.5457       61566.592      39.486475      39.486475      39.486475      1.382812       4.0684082     -634.82548      275.38569    
    157000   157000         173.82133      307.32407     -5227.8814     -5503.2959      2130.7165     -7634.0125      570.16623      1718.2769     -2930.6397      16.281242     -1652.611      -2253.9199     -3101.5663     -384.28006      61448.938      39.461306      39.461306      39.461306      1.3854596      664.22743      452.41465     -194.66988    
    157500   157500         170.50315     -512.83708     -6006.386      -5545.8943      2090.042      -7635.9363      573.4399       1695.6146     -2921.2356      15.752758     -1651.9929     -2246.1593     -3101.3557     -383.52679      61569.627      39.487124      39.487124      39.487124      1.3827438      331.3209      -964.6611      -905.17105    
    158000   158000         169.64743     -536.18462     -6023.2178     -5541.7603      2079.5525     -7621.3128      582.44368      1715.389      -2937.0526      16.850528     -1646.8483     -2252.5493     -3099.5458     -383.52576      61569.793      39.48716       39.48716       39.48716       1.3827401     -431.4835      -45.551588     -1131.5188    
    158500   158500         170.66476     -609.26231     -6115.972      -5570.708       2092.0231     -7662.7311      582.40061      1654.1198     -2918.9152      15.085715     -1638.1857     -2255.8467     -3101.3897     -384.80047      61365.833      39.443509      39.443509      39.443509      1.3873358      209.02644     -1127.9768     -908.83658    
    159000   159000         173.58285      304.07053     -5243.0271     -5515.9616      2127.7933     -7643.7548      543.61871      1690.7312     -2921.4108      15.76511      -1611.3514     -2257.7476     -3103.3599     -383.66674      61547.169      39.482323      39.482323      39.482323      1.3832483      1257.1205      15.572359     -360.48122    
    159500   159500         170.54991      587.059       -5010.9802     -5537.1088      2090.6152     -7627.724       553.91203      1720.8927     -2944.0778      16.346336     -1605.6903     -2261.6498     -3107.4572     -384.26247      61451.751      39.461909      39.461909      39.461909      1.3853961      94.615278      442.26237      1224.2994    
    160000   160000         170.49735      426.48256     -5181.1598     -5564.2806      2089.9709     -7654.2515      540.76896      1680.0891     -2918.4366      16.09544      -1611.6987     -2258.7719     -3102.2978     -383.35727      61596.854      39.492944      39.492944      39.492944      1.3821326      399.03246      144.08596      736.32926    
    160500   160500         170.9414       349.18798     -5216.0758     -5529.1332      2095.4141     -7624.5474      573.94734      1713.2717     -2937.0859      16.254666     -1639.1277     -2250.3272     -3101.4803     -384.12574      61473.624      39.46659       39.46659       39.46659       1.3849032      841.16548      13.235618      193.16283    
    161000   161000         173.82655      296.94053     -5219.6467     -5485.9965      2130.7805     -7616.777       552.77698      1731.214      -2937.0071      16.732374     -1626.6075     -2254.612      -3099.2737     -383.93286      61504.509      39.473198      39.473198      39.473198      1.3842078     -349.60733      1419.2844     -178.85552    
    161500   161500         172.07942     -878.91833     -6256.0009     -5466.3037      2109.3641     -7575.6678      610.08386      1727.5027     -2936.7651      16.376062     -1640.463      -2250.3333     -3102.069      -383.28873      61607.868      39.495298      39.495298      39.495298      1.3818855     -1302.5574     -871.54271     -462.6549     
    162000   162000         166.32026     -340.3427      -5865.2214     -5559.8624      2038.7678     -7598.6302      569.08427      1709.7556     -2911.6414      15.688936     -1628.1682     -2251.3222     -3102.0272     -383.83433      61520.296      39.476576      39.476576      39.476576      1.3838526      45.944994     -105.1371      -961.83599    
    162500   162500         172.48317     -1108.7539     -6516.2042     -5525.5227      2114.3133     -7639.836       600.86066      1696.1378     -2934.1225      16.517495     -1658.9249     -2255.2903     -3105.0142     -385.42443      61266.49       39.422213      39.422213      39.422213      1.3895854     -2308.5066     -967.82411     -49.931004    
    163000   163000         174.40946      222.57389     -5337.3417     -5536.8121      2137.9259     -7674.738       565.42585      1684.633      -2928.1752      16.482217     -1651.3459     -2258.8746     -3102.8834     -384.26763      61450.925      39.461732      39.461732      39.461732      1.3854148      419.81228      201.86095      46.048449    
    163500   163500         168.35609      528.45204     -5114.2858     -5584.9837      2063.7232     -7648.7069      540.26839      1683.8261     -2909.8198      15.810396     -1618.8012     -2254.7666     -3105.2241     -386.63522      61074.626      39.381018      39.381018      39.381018      1.3939507      1465.5509     -89.236526      209.0418     
    164000   164000         172.97091     -783.18216     -6236.9033     -5536.4131      2120.292      -7656.7051      588.08347      1680.81       -2934.3509      16.0859       -1655.5587     -2251.4738     -3100.3012     -385.0338       61328.646      39.43554       39.43554       39.43554       1.3881771     -574.83929     -961.50853     -813.19867    
    164500   164500         169.03047      196.99306     -5391.7745     -5568.6127      2071.9898     -7640.6025      552.26266      1706.1571     -2926.9053      16.3606       -1618.4705     -2266.1914     -3103.8158     -383.63022      61553.027      39.483575      39.483575      39.483575      1.3831167      231.84819      302.12186      57.009136    
    165000   165000         167.24894     -83.949558     -5651.8275     -5576.6167      2050.1517     -7626.7684      568.27551      1708.3525     -2933.491       16.500139     -1628.4365     -2255.0804     -3102.8887     -384.39372      61430.769      39.457417      39.457417      39.457417      1.3858693      18.978332      408.0156      -678.84261    
    165500   165500         175.47446     -631.87157     -6068.1477     -5501.185       2150.9807     -7652.1657      569.2913       1660.0185     -2924.6119      15.237911     -1616.1901     -2254.3875     -3101.524      -383.80661      61524.739      39.477526      39.477526      39.477526      1.3837526     -583.49471     -1416.7837      104.6637     
    166000   166000         171.25695     -175.96576     -5690.5149     -5532.9204      2099.2821     -7632.2025      573.7456       1690.3301     -2922.6916      15.597979     -1632.1464     -2256.057      -3100.9812     -384.52556      61409.706      39.452907      39.452907      39.452907      1.3863447      17.038265      649.57593     -1194.5115    
    166500   166500         169.40427      1081.4275     -4649.7803     -5610.593       2076.5719     -7687.1649      534.92972      1664.3788     -2922.651       16.171431     -1623.4439     -2254.6073     -3101.9427     -387.61164      60920.776      39.347923      39.347923      39.347923      1.397471       1230.1491      989.19258      1024.9409    
    167000   167000         169.33909     -546.11526     -6047.7556     -5558.3679      2075.7729     -7634.1408      574.04953      1711.2556     -2929.4767      16.592904     -1652.763      -2250.5783     -3103.2208     -384.29907      61445.898      39.460656      39.460656      39.460656      1.3855281      97.237854      120.80587     -1856.3895    
    167500   167500         173.69124     -950.11671     -6358.2416     -5503.0635      2129.1218     -7632.1854      578.2065       1683.4328     -2914.2421      15.864599     -1644.3911     -2250.5914     -3100.4647     -382.61194      61716.845      39.518572      39.518572      39.518572      1.3794454     -1598.8057      532.61537     -1784.1598    
    168000   168000         173.15952      295.44449     -5258.9793     -5524.0161      2122.604      -7646.6201      556.68204      1681.5407     -2930.967       15.741244     -1622.5298     -2250.1109     -3096.9764     -383.89088      61511.234      39.474637      39.474637      39.474637      1.3840564      338.59505     -41.006918      588.74533    
    168500   168500         170.0186       455.77109     -5101.5295     -5509.7311      2084.1023     -7593.8334      546.36952      1710.6717     -2929.9766      15.451951     -1575.4132     -2260.1877     -3100.7491     -384.51232      61411.82       39.45336       39.45336       39.45336       1.386297       420.1643       735.24088      211.9081     
    169000   169000         165.93921     -998.56355     -6531.8454     -5634.3086      2034.0969     -7668.4054      564.40114      1674.2268     -2919.6208      15.768204     -1647.6085     -2254.7327     -3100.8396     -383.14356      61631.212      39.500286      39.500286      39.500286      1.3813621     -938.6534      -752.90505     -1304.1322    
    169500   169500         170.52559      167.61599     -5350.921      -5501.0104      2090.3171     -7591.3275      586.6394       1688.8303     -2907.5851      15.884606     -1622.8998     -2251.5406     -3100.6563     -384.59492      61398.631      39.450535      39.450535      39.450535      1.3865947      83.435523      463.50025     -44.087802    
    170000   170000         170.67774     -14.58726      -5525.0855     -5511.9804      2092.1822     -7604.1626      555.33287      1710.7496     -2933.8191      15.996759     -1603.0547     -2248.799      -3100.5691     -383.33075      61601.116      39.493855      39.493855      39.493855      1.382037       659.31824     -977.90789      274.82787    
    170500   170500         170.71413     -142.48565     -5653.7042     -5525.4756      2092.6282     -7618.1038      562.55764      1715.6239     -2915.7122      16.756043     -1638.9273     -2254.4067     -3103.9952     -382.66996      61707.487      39.516574      39.516574      39.516574      1.3796546     -193.10295      855.69953     -1090.0535    
    171000   171000         169.07513      650.42712     -4943.1918     -5523.262       2072.5373     -7595.7993      556.98192      1720.6389     -2925.6522      16.144395     -1597.2496     -2262.9497     -3103.713      -386.15016      61151.344      39.3975        39.3975        39.3975        1.3922019     -223.8271       1226.0559      949.0526     
    171500   171500         169.90269      86.055668     -5463.5126     -5540.9037      2082.6816     -7623.5852      560.52687      1717.933      -2926.9663      15.992448     -1638.7834     -2253.7991     -3098.4888     -382.93671      61664.503      39.507397      39.507397      39.507397      1.3806163      590.86586      23.010717     -355.70957    
    172000   172000         169.7556      -329.33394     -5873.5186     -5576.911       2080.8785     -7657.7895      535.79578      1647.1199     -2898.0419      15.275869     -1605.1151     -2252.1734     -3100.6506     -382.37754      61754.678      39.526645      39.526645      39.526645      1.3786003     -745.85263     -689.03814      446.88895    
    172500   172500         168.4204       800.5359      -4865.6456     -5582.9086      2064.5115     -7647.42        527.1392       1681.0419     -2940.8393      16.253773     -1562.8278     -2264.0778     -3104.11       -384.36207      61435.827      39.4585        39.4585        39.4585        1.3857552      1863.7241      871.47        -333.58638    
    173000   173000         172.17483      224.57477     -5283.6394     -5486.1237      2110.5336     -7596.6573      569.7788       1699.6496     -2920.0226      15.613241     -1607.048      -2254.601      -3100.0274     -381.95115      61823.618      39.541348      39.541348      39.541348      1.3770631      636.38446     -336.1917       373.53156    
    173500   173500         172.12933      154.50958     -5370.8096     -5509.3601      2109.9759     -7619.3359      558.0803       1690.1796     -2915.8391      15.545814     -1619.9461     -2247.5689     -3099.7876     -384.04799      61486.07       39.469253      39.469253      39.469253      1.3846229      579.10487     -61.86561      -53.710503    
    174000   174000         169.86157      585.11614     -5014.3251     -5538.3998      2082.1775     -7620.5773      566.5243       1710.7321     -2934.4301      16.451385     -1617.5803     -2259.4327     -3102.842      -384.49168      61415.117      39.454065      39.454065      39.454065      1.3862225      548.85687      1178.5223      27.969231    
    174500   174500         169.23563      358.91501     -5262.5641     -5585.302       2074.5046     -7659.8066      544.61346      1694.976      -2947.6228      16.380931     -1615.6339     -2252.6478     -3099.8725     -382.98316      61657.023      39.505799      39.505799      39.505799      1.3807838      122.55471      761.73833      192.45199    
    175000   175000         169.41233     -70.947365     -5628.5106     -5564.4596      2076.6706     -7641.1302      542.10058      1713.6182     -2932.9374      16.746236     -1626.2763     -2255.5519     -3098.8296     -381.4592       61903.347      39.558339      39.558339      39.558339      1.3752894      1.0032404      361.6854      -575.53073    
    175500   175500         170.66968      291.53115     -5229.6785     -5490.0646      2092.0834     -7582.148       578.62896      1721.5752     -2932.2154      16.116381     -1605.6334     -2257.7891     -3102.8306     -385.57182      61243.069      39.417189      39.417189      39.417189      1.3901168     -89.873696      161.39334      803.07381    
    176000   176000         171.5822       225.85943     -5317.1974     -5519.5204      2103.2691     -7622.7894      563.60317      1715.4673     -2936.1632      16.109285     -1627.7954     -2253.5805     -3100.4301     -384.44231      61423.004      39.455754      39.455754      39.455754      1.3860446      229.8264      -257.04433      704.79623    
    176500   176500         171.98834      413.62436     -5115.3906     -5486.8465      2108.2476     -7595.0941      590.63168      1682.4615     -2921.6096      15.022188     -1602.541      -2257.3581     -3101.7007     -383.47492      61577.956      39.488905      39.488905      39.488905      1.3825568      354.01538      356.88314      529.97457    
    177000   177000         168.31724      211.82575     -5455.1943     -5645.3382      2063.2469     -7708.5851      546.44847      1651.5666     -2928.3239      15.929558     -1637.1623     -2256.8942     -3100.1494     -383.6494       61549.951      39.482917      39.482917      39.482917      1.3831858     -188.78725      548.84919      275.41532    
    177500   177500         168.51686      557.48396     -5057.8798     -5557.6035      2065.6939     -7623.2973      548.74977      1720.9682     -2932.047       15.686154     -1621.4083     -2253.7954     -3101.4508     -384.18516      61464.117      39.464555      39.464555      39.464555      1.3851174      217.30415      1321.4921      133.65558    
    178000   178000         172.0699       221.93328     -5340.6878     -5539.5254      2109.2473     -7648.7728      552.87315      1701.1709     -2920.878       16.217687     -1638.4401     -2257.5424     -3102.174      -384.3811       61432.785      39.457849      39.457849      39.457849      1.3858239     -5.5089072      343.82603      327.48272    
    178500   178500         170.9201       173.64758     -5364.6301     -5520.9643      2095.153      -7616.1173      582.67841      1653.4186     -2920.7154      15.629634     -1589.898      -2254.3481     -3102.8824     -382.51897      61731.845      39.521773      39.521773      39.521773      1.3791102      72.772037      767.77709     -319.6064     
    179000   179000         172.96481      500.49657     -5042.0395     -5489.8237      2120.2172     -7610.0409      572.64636      1693.3408     -2928.2799      15.511152     -1594.6976     -2265.0741     -3103.4877     -384.91995      61346.786      39.439428      39.439428      39.439428      1.3877666      705.90694      747.21082      48.371963    
    179500   179500         172.24719      399.48069     -5119.4387     -5476.4572      2111.4207     -7587.8779      578.08228      1716.5982     -2916.8209      16.686084     -1627.3559     -2254.7298     -3100.3378     -385.33917      61280.045      39.42512       39.42512       39.42512       1.389278       772.0236      -39.486501      465.90497    
    180000   180000         169.05758      56.705739     -5489.207      -5540.3133      2072.3221     -7612.6354      565.32234      1701.7051     -2932.0228      15.902404     -1615.4605     -2250.2217     -3097.8602     -382.11213      61797.571      39.535794      39.535794      39.535794      1.3776435     -433.80411      889.73125     -285.80993    
    180500   180500         170.47236     -270.10726     -5786.174      -5544.2684      2089.6646     -7633.9329      568.80118      1702.6218     -2930.5546      16.096356     -1642.0572     -2248.8076     -3100.0329     -384.52831      61409.268      39.452813      39.452813      39.452813      1.3863546     -124.35639     -208.73882     -477.22657    
    181000   181000         170.55013      130.36935     -5407.9251     -5525.2624      2090.6179     -7615.8803      576.75635      1727.4007     -2942.5456      16.886107     -1637.344      -2253.5747     -3103.4592     -382.62885      61714.116      39.517989      39.517989      39.517989      1.3795064     -418.93458      1047.1481     -237.10548    
    181500   181500         168.16597      244.3611      -5307.3419     -5526.7976      2061.3926     -7588.1903      579.70867      1697.6376     -2917.7976      15.462315     -1602.7975     -2257.4524     -3102.9512     -383.46294      61579.88       39.489316      39.489316      39.489316      1.3825136      330.53006     -89.332568      491.88581    
    182000   182000         172.74426     -96.880125     -5628.75       -5541.9037      2117.5137     -7659.4174      558.53777      1698.6852     -2930.4924      16.089335     -1638.169      -2259.4655     -3104.6028     -384.16832      61466.811      39.465132      39.465132      39.465132      1.3850567      863.96762     -1152.557      -2.0510451    
    182500   182500         172.08826     -76.831232     -5536.6234     -5467.3871      2109.4724     -7576.8595      587.38674      1717.7512     -2919.4907      15.823236     -1627.8579     -2248.6958     -3101.7763     -382.1571       61790.3        39.534244      39.534244      39.534244      1.3778056      147.9506       154.807       -533.2513     
    183000   183000         171.26525     -624.21167     -6046.334      -5487.5002      2099.3839     -7586.8841      613.14998      1719.0054     -2925.002       16.33604      -1659.7747     -2250.0434     -3100.5555     -384.66914      61386.785      39.447998      39.447998      39.447998      1.3868623     -655.97097      373.94544     -1590.6095    
    183500   183500         170.34085      673.93983     -4887.2582     -5489.6287      2088.0525     -7577.6812      569.86258      1726.2653     -2920.6543      15.87534      -1615.2258     -2253.5992     -3100.2052     -385.29695      61286.76       39.42656       39.42656       39.42656       1.3891258     -33.707869      973.11033      1082.417     
    184000   184000         172.81328      853.00265     -4766.5298     -5532.3428      2118.3598     -7650.7025      537.23442      1720.6728     -2936.7855      16.948992     -1631.1799     -2254.849      -3102.7443     -383.5887       61559.691      39.485         39.485         39.485         1.382967       2004.5834     -84.602263      639.02675    
    184500   184500         171.56499     -684.37093     -6166.9531     -5553.647       2103.0582     -7656.7052      573.65798      1687.3074     -2934.2106      16.187747     -1635.5704     -2257.7848     -3106.2925     -384.28407      61448.296      39.461169      39.461169      39.461169      1.385474      -590.84909     -1121.3415     -340.92216    
    185000   185000         164.51655     -556.35441     -6054.9263     -5553.3465      2016.6578     -7570.0043      584.42524      1739.0856     -2927.8299      17.063322     -1630.3393     -2251.2033     -3101.2059     -381.98792      61817.666      39.540079      39.540079      39.540079      1.3771956     -859.7992      -367.12149     -442.14253    
    185500   185500         169.24319      958.98285     -4654.1334     -5512.6946      2074.5973     -7587.2919      561.93596      1717.7837     -2931.8772      15.967372     -1592.8206     -2257.1701     -3101.111      -384.6606       61388.147      39.448289      39.448289      39.448289      1.3868316      634.73427      2187.6366      54.577682    
    186000   186000         171.80475      802.20898     -4816.3954     -5534.2006      2105.9971     -7640.1977      549.50629      1692.7787     -2919.2052      15.726484     -1624.9903     -2250.7587     -3103.255      -384.87446      61354.036      39.440981      39.440981      39.440981      1.3876026      573.73029      1268.6542      564.24245    
    186500   186500         169.78739     -363.1163      -5850.5879     -5524.7741      2081.2682     -7606.0423      581.58886      1717.4743     -2923.8215      16.30303      -1649.2999     -2246.8965     -3101.3906     -383.80828      61524.471      39.477469      39.477469      39.477469      1.3837587     -515.09176     -648.65957      74.402428    
    187000   187000         170.21542      32.379116     -5516.5006     -5545.6035      2086.515      -7632.1185      580.65304      1697.0025     -2942.0731      16.355828     -1629.3488     -2253.3229     -3101.3851     -383.14765      61630.554      39.500145      39.500145      39.500145      1.3813768      53.957644      324.36091     -281.18121    
    187500   187500         170.61439      775.29916     -4841.3999     -5536.6265      2091.4056     -7628.0321      547.32359      1704.754      -2921.0081      16.024789     -1617.4095     -2256.1709     -3101.5459     -384.04407      61486.697      39.469388      39.469388      39.469388      1.3846088      1039.8642      228.74324      1057.29      
    188000   188000         169.75633      325.54552     -5268.6391     -5559.9488      2080.8874     -7640.8362      581.76943      1666.1927     -2925.9258      15.882096     -1618.045      -2260.4645     -3100.2451     -384.85315      61357.434      39.44171       39.44171       39.44171       1.3875257      83.619456      106.44442      786.57269    
    188500   188500         172.50279     -550.78269     -6067.7841     -5574.2555      2114.5538     -7688.8092      561.06677      1661.1088     -2915.4659      15.529782     -1661.3063     -2249.6068     -3100.1356     -384.33157      61440.702      39.459543      39.459543      39.459543      1.3856453     -401.49079     -455.79759     -795.05969    
    189000   189000         172.34694     -119.57462     -5670.2977     -5563.0484      2112.6433     -7675.6917      537.68422      1704.0288     -2934.1175      17.021513     -1633.3427     -2263.5474     -3103.4185     -383.95693      61500.653      39.472374      39.472374      39.472374      1.3842946      258.68726      128.78428     -746.19541    
    189500   189500         173.36887     -657.49074     -6120.3692     -5532.8276      2125.1703     -7657.9979      580.9012       1650.514      -2923.5528      14.568343     -1627.783      -2250.8778     -3101.7678     -385.37998      61273.556      39.423728      39.423728      39.423728      1.3894251     -1096.0721     -882.84923      6.4490676    
    190000   190000         175.23395     -132.41508     -5539.7472     -5421.0754      2148.0326     -7569.108       574.15757      1745.4874     -2921.1248      16.119493     -1622.8333     -2259.3025     -3101.6119     -384.26279      61451.7        39.461898      39.461898      39.461898      1.3853973     -84.690641      116.62377     -429.17837    
    190500   190500         167.43462      139.70017     -5449.3079     -5574.463       2052.4277     -7626.8907      583.34855      1678.7243     -2923.245       16.21636      -1620.8073     -2260.7365     -3100.391      -384.40258      61429.353      39.457114      39.457114      39.457114      1.3859013     -579.25283      325.1115       673.24183    
    191000   191000         170.41048      720.06609     -4911.4214     -5557.7759      2088.9061     -7646.682       574.26171      1684.9844     -2939.0439      16.461178     -1622.9835     -2255.7129     -3104.649      -383.65396      61549.219      39.482761      39.482761      39.482761      1.3832023      1159.5137      1133.2127     -132.52817    
    191500   191500         173.62331     -238.07389     -5750.5277     -5538.1837      2128.2893     -7666.473       547.16276      1695.0333     -2912.3804      15.773304     -1660.9547     -2251.9655     -3099.1418     -386.10899      61157.866      39.398901      39.398901      39.398901      1.3920535     -1016.0721      478.35896     -176.5085     
    192000   192000         169.71882     -164.20065     -5670.701      -5523.8133      2080.4277     -7604.241       573.63252      1726.3497     -2926.9162      16.085601     -1634.3733     -2256.8901     -3102.1291     -384.97071      61338.697      39.437694      39.437694      39.437694      1.3879496      214.36091     -408.3485      -298.61435    
    192500   192500         171.70353     -296.41387     -5719.0546     -5454.6237      2104.7564     -7559.3801      595.50383      1738.955      -2935.6097      16.224105     -1634.3998     -2243.6434     -3096.4101     -386.033        61169.904      39.401486      39.401486      39.401486      1.3917795     -416.63804      881.91648     -1354.5201    
    193000   193000         170.12674     -180.56361     -5674.8928     -5513.3765      2085.4279     -7598.8044      574.39985      1721.4108     -2916.7498      15.995816     -1645.0365     -2248.9483     -3099.8763     -384.99224      61335.267      39.436959      39.436959      39.436959      1.3880272     -860.58945      741.29926     -422.40065    
    193500   193500         171.95992     -516.98017     -6018.2787     -5556.2128      2107.8992     -7664.112       581.14814      1717.8929     -2944.6691      16.287899     -1678.3471     -2254.9204     -3101.5044     -385.30804      61284.995      39.426182      39.426182      39.426182      1.3891658     -1412.3819     -320.69387      182.13529    
    194000   194000         172.10194      696.67828     -4875.9813     -5500.1992      2109.6401     -7609.8393      544.3329       1719.1747     -2915.1651      16.247437     -1614.7604     -2257.2912     -3102.3776     -384.3565       61436.717      39.45869       39.45869       39.45869       1.3857352      1800.4265      282.04348      7.5648781    
    194500   194500         175.12286      5.0636142     -5526.2654     -5530.7973      2146.6708     -7677.4681      574.4747       1687.4012     -2933.6285      16.566854     -1663.6631     -2254.9142     -3103.7051     -384.78576      61368.18       39.444012      39.444012      39.444012      1.3872828      261.30955      76.151509     -322.27021    
    195000   195000         169.20747     -500.26388     -6018.2223     -5571.6707      2074.1594     -7645.8301      575.50187      1681.898      -2909.7792      15.684146     -1648.4394     -2257.6858     -3103.0099     -385.803        61206.371      39.409314      39.409314      39.409314      1.3909503     -332.18004     -286.71315     -881.89844    
    195500   195500         169.41284     -71.082035     -5604.6298     -5540.9143      2076.6769     -7617.5912      569.62912      1702.5468     -2928.0778      15.819305     -1614.4981     -2259.0712     -3103.9393     -384.19611      61462.365      39.46418       39.46418       39.46418       1.3851569      183.85995     -639.22951      242.12345    
    196000   196000         176.68372      119.67267     -5371.0487     -5478.5773      2165.8039     -7644.3813      543.82809      1689.5145     -2924.6844      15.833285     -1606.951      -2259.6361     -3102.2857     -383.27377      61610.274      39.495812      39.495812      39.495812      1.3818315      227.26168      624.39717     -492.64083    
    196500   196500         171.82654      283.4887      -5257.8548     -5511.7525      2106.2642     -7618.0167      578.54766      1687.6277     -2907.4142      15.354924     -1634.2487     -2253.9104     -3103.9736     -384.51662      61411.133      39.453212      39.453212      39.453212      1.3863125     -283.39224      559.01765      574.84067    
    197000   197000         167.46713      753.36343     -4907.9183     -5581.3797      2052.8262     -7634.2059      542.57041      1738.9024     -2939.7223      16.671359     -1633.6829     -2258.4048     -3100.54       -385.2387       61296.027      39.428547      39.428547      39.428547      1.3889158      497.17924      690.18068      1072.7304    
    197500   197500         167.11911      18.19346      -5529.309      -5545.5518      2048.5602     -7594.112       576.17138      1721.3789     -2920.5388      16.370754     -1634.2542     -2251.3471     -3101.893      -385.73725      61216.804      39.411553      39.411553      39.411553      1.3907132     -206.43918      243.25531      17.764249    
    198000   198000         173.02893      672.72442     -4899.6651     -5502.6113      2121.0033     -7623.6146      554.23724      1698.1244     -2911.2628      15.635927     -1617.4359     -2259.3491     -3103.5643     -384.23488      61456.164      39.462853      39.462853      39.462853      1.3852967      1397.1692     -138.39752      759.40157    
    198500   198500         172.22059      7.4956723     -5490.6545     -5497.3458      2111.0945     -7608.4403      582.96667      1698.7576     -2915.3105      15.40047      -1621.9828     -2263.8527     -3104.4191     -385.77741      61210.431      39.410186      39.410186      39.410186      1.390858      -317.42509      159.44684      180.46526    
    199000   199000         171.08478      116.69941     -5409.1508     -5513.6938      2097.1717     -7610.8655      541.99731      1759.4137     -2936.6771      16.642913     -1627.1807     -2260.6629     -3104.3988     -384.42516      61425.745      39.456341      39.456341      39.456341      1.3859827      752.50548     -434.99966      32.592405    
    199500   199500         170.82561     -257.4374      -5788.4367     -5557.6089      2093.9948     -7651.6037      585.16833      1669.285      -2937.8039      15.717462     -1627.783      -2253.6266     -3102.561      -384.08003      61480.941      39.468156      39.468156      39.468156      1.3847384     -753.96005     -1146.3319      1127.9797    
    200000   200000         168.39693     -12.212328     -5552.2438     -5541.2995      2064.2239     -7605.5233      574.29074      1710.273      -2930.7788      16.30542      -1620.2705     -2252.4024     -3102.9408     -384.27961      61449.011      39.461322      39.461322      39.461322      1.3854579     -120.76767      194.33551     -110.20482    
Loop time of 587.509 on 1 procs for 200000 steps with 4940 atoms

Performance: 29.412 ns/day, 0.816 hours/ns, 340.420 timesteps/s, 1.682 Matom-step/s
100.0% CPU use with 1 MPI tasks x 1 OpenMP threads

MPI task timing breakdown:
Section |  min time  |  avg time  |  max time  |%varavg| %total
---------------------------------------------------------------
Pair    | 227.79     | 227.79     | 227.79     |   0.0 | 38.77
Bond    | 71.996     | 71.996     | 71.996     |   0.0 | 12.25
Kspace  | 155.46     | 155.46     | 155.46     |   0.0 | 26.46
Neigh   | 16.351     | 16.351     | 16.351     |   0.0 |  2.78
Comm    | 2.7209     | 2.7209     | 2.7209     |   0.0 |  0.46
Output  | 0.042751   | 0.042751   | 0.042751   |   0.0 |  0.01
Modify  | 96.359     | 96.359     | 96.359     |   0.0 | 16.40
Other   |            | 16.79      |            |       |  2.86

Nlocal:           4940 ave        4940 max        4940 min
Histogram: 1 0 0 0 0 0 0 0 0 0
Nghost:          14563 ave       14563 max       14563 min
Histogram: 1 0 0 0 0 0 0 0 0 0
Neighs:              0 ave           0 max           0 min
Histogram: 1 0 0 0 0 0 0 0 0 0
FullNghs:  2.51624e+06 ave 2.51624e+06 max 2.51624e+06 min
Histogram: 1 0 0 0 0 0 0 0 0 0

Total # of neighbors = 2516238
Ave neighs/atom = 509.35992
Ave special neighs/atom = 5.9797571
Neighbor list builds = 2661
Dangerous builds = 0
WARNING: No fixes with time integration, atoms won't move
For more information see https://docs.lammps.org/err0028 (src/verlet.cpp:60)
PPPM Kokkos initialization ...
  using 12-bit tables for long-range coulomb
  G vector (1/distance) = 0.2970486
  grid = 27 27 27
  stencil order = 5
  estimated absolute RMS force accuracy = 0.00034635729
  estimated relative force accuracy = 1.0430447e-06
  using double precision cuFFT
  3d grid and FFT values/proc = 39304 19683
Generated 6 of 6 mixed pair_coeff terms from sixthpower/sixthpower mixing rule
Setting up Verlet run ...
  Unit style    : real
  Current step  : 200000
  Time step     : 1
Per MPI rank memory allocation (min/avg/max) = 29.29 | 29.29 | 29.29 Mbytes
   Step          Time           Temp          Press         Enthalpy        TotEng         KinEng         PotEng         E_bond        E_angle        E_dihed        E_impro         E_vdwl         E_coul         E_long         E_tail         Volume           Lx             Ly             Lz          Density          Pxx            Pyy            Pzz      
    200000   200000         140.21144      2420.5556     -3372.0684     -5541.2996      2064.2239     -7605.5234      574.29076      1710.273      -2930.7788      16.30542      -1620.2705     -2251.7289     -3103.6144     -384.27961      61449.011      39.461322      39.461322      39.461322      1.3854579      2423.3373      2568.2151      2270.1142    
Loop time of 5.5723e-05 on 1 procs for 0 steps with 4940 atoms

100.5% CPU use with 1 MPI tasks x 1 OpenMP threads

MPI task timing breakdown:
Section |  min time  |  avg time  |  max time  |%varavg| %total
---------------------------------------------------------------
Pair    | 0          | 0          | 0          |   0.0 |  0.00
Bond    | 0          | 0          | 0          |   0.0 |  0.00
Kspace  | 0          | 0          | 0          |   0.0 |  0.00
Neigh   | 0          | 0          | 0          |   0.0 |  0.00
Comm    | 0          | 0          | 0          |   0.0 |  0.00
Output  | 0          | 0          | 0          |   0.0 |  0.00
Modify  | 0          | 0          | 0          |   0.0 |  0.00
Other   |            | 5.572e-05  |            |       |100.00

Nlocal:           4940 ave        4940 max        4940 min
Histogram: 1 0 0 0 0 0 0 0 0 0
Nghost:          14521 ave       14521 max       14521 min
Histogram: 1 0 0 0 0 0 0 0 0 0
Neighs:              0 ave           0 max           0 min
Histogram: 1 0 0 0 0 0 0 0 0 0
FullNghs:  2.51583e+06 ave 2.51583e+06 max 2.51583e+06 min
Histogram: 1 0 0 0 0 0 0 0 0 0

Total # of neighbors = 2515830
Ave neighs/atom = 509.27733
Ave special neighs/atom = 5.9797571
Neighbor list builds = 0
Dangerous builds = 0
System init for write_data ...
PPPM Kokkos initialization ...
  using 12-bit tables for long-range coulomb
  G vector (1/distance) = 0.2970486
  grid = 27 27 27
  stencil order = 5
  estimated absolute RMS force accuracy = 0.00034635729
  estimated relative force accuracy = 1.0430447e-06
  using double precision cuFFT
  3d grid and FFT values/proc = 39304 19683
Generated 6 of 6 mixed pair_coeff terms from sixthpower/sixthpower mixing rule
STAGE COMPLETE: Tg step T=171.0K P=1.0atm steps=200000
