Authorization required, but no authorization protocol specified

Authorization required, but no authorization protocol specified

Authorization required, but no authorization protocol specified

Authorization required, but no authorization protocol specified

LAMMPS (22 Jul 2025 - Update 3)
KOKKOS mode with Kokkos version 4.6.2 is enabled
  will use up to 1 GPU(s) per node
  using 1 OpenMP thread(s) per MPI task
Reading data file ...
  orthogonal box = (5.2432482 5.2432482 5.2432482) to (45.803304 45.803304 45.803304)
  1 by 1 by 1 MPI processor grid
  reading atoms ...
  6320 atoms
  reading velocities ...
  6320 velocities
  scanning bonds ...
  4 = max bonds/atom
  scanning angles ...
  12 = max angles/atom
  scanning dihedrals ...
  21 = max dihedrals/atom
  scanning impropers ...
  8 = max impropers/atom
  orthogonal box = (5.2432482 5.2432482 5.2432482) to (45.803304 45.803304 45.803304)
  1 by 1 by 1 MPI processor grid
  reading bonds ...
  6310 bonds
  reading angles ...
  11200 angles
  reading dihedrals ...
  13970 dihedrals
  reading impropers ...
  6300 impropers
Finding 1-2 1-3 1-4 neighbors ...
  special bond factors lj:    0        0        1       
  special bond factors coul:  0        0        1       
     4 = max # of 1-2 neighbors
     6 = max # of 1-3 neighbors
    10 = max # of special neighbors
  special bonds CPU = 0.003 seconds
  read_data CPU = 0.254 seconds
Finding SHAKE clusters ...
     700 = # of size 2 clusters
      10 = # of size 3 clusters
     700 = # of size 4 clusters
       0 = # of frozen angles
  find clusters CPU = 0.002 seconds
PPPM Kokkos initialization ...
  using 12-bit tables for long-range coulomb
  G vector (1/distance) = 0.33546316
  grid = 45 45 45
  stencil order = 5
  estimated absolute RMS force accuracy = 0.00040234775
  estimated relative force accuracy = 1.2116583e-06
  using double precision cuFFT
  3d grid and FFT values/proc = 140608 91125
Generated 21 of 21 mixed pair_coeff terms from sixthpower/sixthpower mixing rule
Neighbor list info ...
  update: every = 1 steps, delay = 0 steps, check = yes
  max neighbors/atom: 4000, page size: 100000
  master list distance cutoff = 11.5
  ghost atom cutoff = 11.5
  binsize = 11.5, bins = 4 4 4
  1 neighbor lists, perpetual/occasional/extra = 1 0 0
  (1) pair lj/class2/coul/long/kk, perpetual
      attributes: full, newton off, kokkos_device
      pair build: full/bin/kk/device
      stencil: full/bin/3d
      bin: kk/device
Setting up Verlet run ...
  Unit style    : real
  Current step  : 0
  Time step     : 1
Per MPI rank memory allocation (min/avg/max) = 44.32 | 44.32 | 44.32 Mbytes
   Step          Time           Temp          Press         Enthalpy        TotEng         KinEng         PotEng         E_bond        E_angle        E_dihed        E_impro         E_vdwl         E_coul         E_long         E_tail         Volume           Lx             Ly             Lz          Density          Pxx            Pyy            Pzz      
         0   0              202.14019      113.8484       18140.602      18029.812      3241.0708      14788.741      1731.2003      4560.3878     -5952.4091      143.95623     -3822.7803      61891.97      -43763.583     -555.28206      66726.081      40.560055      40.560055      40.560055      1.2558685     -388.71882     -457.19087      1187.4549    
       500   500            178.94099      860.31572      18081.384      17252.8        2869.1         14383.7        1580.9399      4351.6912     -5988.9294      133.87522     -3854.0352      61933.09      -43772.932     -561.05646      66039.335      40.420427      40.420427      40.420427      1.2689283      600.61359      1164.9617      815.37191    
      1000   1000           180.60441     -1058.7254      16338.029      17367.116      2895.7708      14471.345      1668.5186      4347.1186     -5954.3414      128.82378     -3842.0245      61894.127     -43770.876     -555.92521      66648.885      40.544408      40.544408      40.544408      1.2573231     -912.18768     -1153.0766     -1110.912     
      1500   1500           182.05981      148.94808      17521.097      17377.058      2919.1064      14457.952      1656.3117      4318.9793     -5954.0255      124.02784     -3821.6209      61901.52      -43767.24      -558.77868      66308.535      40.475275      40.475275      40.475275      1.2637767     -185.16158      697.71183     -65.705993    
      2000   2000           180.94439      216.58275      17552.239      17342.381      2901.2221      14441.158      1609.6437      4346.8415     -5946.5516      123.37911     -3813.9707      61896.289     -43774.472     -557.67717      66439.506      40.501906      40.501906      40.501906      1.2612854      602.11032      21.18886       26.449075    
      2500   2500           181.88658      1029.6913      18406.144      17410.085      2916.329       14493.756      1695.0917      4305.0502     -5980.677       125.49175     -3761.2796      61884.394     -43774.315     -558.60788      66328.81       40.4794        40.4794        40.4794        1.2633904      898.51975      2009.5261      181.02795    
      3000   3000           179.42309      103.20996      17477.908      17377.799      2876.8298      14500.969      1649.3496      4347.6655     -5915.6895      114.13254     -3856.6636      61937.109     -43774.934     -557.10344      66507.929      40.515805      40.515805      40.515805      1.2599878      170.15841     -1346.3354      1485.8068    
      3500   3500           178.64773     -278.54193      17072.224      17341.875      2864.3979      14477.477      1628.613       4379.4662     -5938.8551      135.67786     -3854.2242      61898.075     -43771.276     -558.17846      66379.838      40.489778      40.489778      40.489778      1.2624192      579.47357     -28.0096       -1387.0898    
      4000   4000           181.82771      411.2459       17749.492      17351.184      2915.3851      14435.799      1599.9028      4344.3883     -5934.6263      118.0129      -3871.3389      61950.805     -43771.345     -557.91405      66411.297      40.496173      40.496173      40.496173      1.2618212      613.83369     -323.57396      943.47798    
      4500   4500           180.72712      615.91846      18019.055      17422.133      2897.7383      14524.395      1640.3822      4309.0486     -5967.6159      129.17496     -3787.2131      61971.261     -43770.643     -557.55922      66453.561      40.504762      40.504762      40.504762      1.2610187      1745.5257      393.38799     -291.15831    
      5000   5000           181.68297      622.6165       17970.067      17367.383      2913.0642      14454.318      1620.6152      4318.8198     -5933.3006      118.43243     -3824.831       61929.014     -43774.432     -558.23346      66373.298      40.488448      40.488448      40.488448      1.2625436     -209.89406     -111.46503      2189.2086    
      5500   5500           178.89371      627.98179      17939.487      17332.908      2868.3419      14464.566      1592.1217      4328.1048     -5887.3778      120.15596     -3822.421       61903.38      -43769.397     -559.42903      66231.45       40.459585      40.459585      40.459585      1.2652476      1497.9755      574.59165     -188.62178    
      6000   6000           178.19388      9.8097307      17321.46       17311.972      2857.1209      14454.851      1634.6041      4350.3129     -5919.5993      124.25463     -3871.4208      61913.181     -43776.481     -558.6686       66321.6        40.477933      40.477933      40.477933      1.2635277      743.90667     -422.43045     -292.04703    
      6500   6500           179.33943     -228.64494      17067.283      17289.327      2875.4884      14413.839      1599.2322      4285.8179     -5937.4953      118.3863      -3857.2585      61974.063     -43768.906     -556.42579      66588.926      40.532246      40.532246      40.532246      1.2584552     -62.948715      483.50289     -1106.489     
      7000   7000           180.59813      223.67757      17530.676      17314.498      2895.6701      14418.828      1624.2786      4322.1387     -5941.9155      113.39758     -3875.6182      61948.298     -43771.751     -559.10785      66269.496      40.46733       40.46733       40.46733       1.2645212      61.541133      243.71398      365.77759    
      7500   7500           180.58296      319.6468       17652.869      17344.103      2895.427       14448.676      1596.1026      4344.7776     -5927.8303      121.60573     -3842.0283      61933.147     -43777.098     -559.40508      66234.286      40.460162      40.460162      40.460162      1.2651934      1599.0633      295.80635     -935.92928    
      8000   8000           180.48456      35.455573      17328.291      17293.99       2893.8492      14400.141      1627.8008      4271.058      -5955.4468      122.69382     -3836.1316      61940.537     -43770.371     -558.54875      66335.832      40.480829      40.480829      40.480829      1.2632566     -1151.0903      1579.1155     -321.65852    
      8500   8500           178.28622      554.08068      17790.457      17256.028      2858.6016      14397.426      1633.6989      4369.2326     -5960.2804      118.57355     -3874.0509      61882.633     -43772.381     -560.23223      66136.495      40.44024       40.44024       40.44024       1.2670641      85.582474      838.93835      737.72121    
      9000   9000           178.24479     -122.60714      17180.394      17299.066      2857.9373      14441.128      1594.3653      4343.2899     -5911.0178      117.30902     -3839.9635      61911.785     -43774.64      -558.28345      66367.355      40.48724       40.48724       40.48724       1.2626566     -401.77737     -310.00564      343.96159    
      9500   9500           181.89929      699.00657      18024.413      17350.139      2916.5327      14433.606      1611.6391      4287.7043     -5919.4188      129.85791     -3824.4651      61915.51      -43767.221     -560.18351      66142.246      40.441412      40.441412      40.441412      1.266954       937.2496       983.59545      176.17467    
     10000   10000          182.08383     -271.60849      17088.874      17351.603      2919.4916      14432.111      1588.7014      4356.3877     -5938.1591      117.32041     -3819.8601      61905.195     -43777.474     -558.62535      66326.735      40.478978      40.478978      40.478978      1.2634299     -13.460832      383.83701     -1185.2017    
     10500   10500          181.27038     -158.02488      17192.482      17345.59       2906.449       14439.141      1695.7931      4293.5541     -5956.4582      129.28886     -3845.165       61890.032     -43767.903     -557.71518      66434.979      40.500986      40.500986      40.500986      1.2613714      11.503687     -604.3166       118.73826    
     11000   11000          177.83239      630.90942      17848.501      17239.123      2851.325       14387.798      1625.7902      4275.3719     -5959.8981      117.08851     -3863.1319      61956.186     -43763.609     -559.45474      66228.406      40.458965      40.458965      40.458965      1.2653057      1184.5873     -75.612432      783.75336    
     11500   11500          180.57991      398.57447      17795.454      17411.152      2895.378       14515.774      1634.3208      4327.2807     -5910.067       127.12404     -3820.6203      61925.306     -43767.571     -560.42979      66113.181      40.435488      40.435488      40.435488      1.267511       1121.2387     -297.13801      371.62268    
     12000   12000          181.77896     -578.58986      16778.469      17336.947      2914.6034      14422.343      1654.0121      4311.8242     -5934.6984      114.09925     -3873.9584      61924.135     -43773.07      -559.82248      66184.901      40.450104      40.450104      40.450104      1.2661374      484.24962     -387.38662     -1832.6326    
     12500   12500          177.70571      192.29003      17506.784      17320.457      2849.2937      14471.164      1592.1283      4379.726      -5927.055       141.2913      -3871.1046      61932.286     -43776.108     -557.65642      66441.978      40.502409      40.502409      40.502409      1.2612385      945.76672     -1365.3215      996.42492    
     13000   13000          178.12078     -485.07542      16813.081      17283.695      2855.9489      14427.746      1624.6812      4329.476      -5938.1949      118.66116     -3890.596       61949.731     -43766.013     -556.96681      66524.244      40.519118      40.519118      40.519118      1.2596788     -95.982415     -1125.5082     -233.73563    
     13500   13500          177.14348      843.90593      18075.533      17260.95       2840.2791      14420.67       1548.5223      4361.1354     -5936.1246      137.51901     -3861.4593      61948.06      -43776.983     -559.81388      66185.918      40.450311      40.450311      40.450311      1.266118       1171.9625      959.9926       399.76269    
     14000   14000          183.17303     -305.11632      17059.775      17354.701      2936.9555      14417.745      1614.1443      4320.8185     -5933.8612      124.21017     -3861.2018      61926.012     -43772.376     -559.03315      66278.352      40.469133      40.469133      40.469133      1.2643522     -568.77233     -511.03803      164.4614     
     14500   14500          184.1596      -324.7136       17047.482      17361.648      2952.7741      14408.874      1589.0651      4321.0865     -5914.3111      133.19407     -3863.7378      61918.439     -43774.861     -558.50465      66341.069      40.481894      40.481894      40.481894      1.2631569      63.197961     -700.97091     -336.36786    
     15000   15000          183.48491      1504.3268      18851.052      17397.498      2941.9562      14455.542      1591.6195      4339.6152     -5970.3684      132.59516     -3817.437       61949.708     -43770.191     -559.23721      66254.168      40.46421       40.46421       40.46421       1.2648137      1192.6003      1125.5796      2194.8004    
     15500   15500          180.97496     -198.10764      17177.539      17369.835      2901.7121      14468.123      1645.7098      4337.7376     -5943.5449      133.85321     -3881.8337      61942.443     -43766.242     -556.69477      66556.752      40.525717      40.525717      40.525717      1.2590636      211.71884     -573.58427     -232.4575     
     16000   16000          180.58032     -30.16067       17284.719      17313.831      2895.3846      14418.446      1642.6042      4341.425      -5932.5058      127.8909      -3907.7026      61913.59      -43766.856     -559.82329      66184.806      40.450085      40.450085      40.450085      1.2661393      784.87892      224.06633     -1099.4273    
     16500   16500          179.09004     -86.944364      17211.327      17295.647      2871.4898      14424.157      1625.542       4327.5587     -5952.3942      113.82477     -3812.5876      61892.362     -43770.149     -557.18572      66498.107      40.513811      40.513811      40.513811      1.2601739      526.76767     -726.66178     -60.938984    
     17000   17000          177.35804      721.2642       17956.617      17260.843      2843.7193      14417.124      1646.1371      4286.8124     -5948.6209      123.05486     -3848.5888      61925.317     -43766.987     -560.15931      66145.104      40.441995      40.441995      40.441995      1.2668992      1472.3938     -200.74324      892.14204    
     17500   17500          183.70763      203.66183      17578.301      17381.043      2945.5273      14435.516      1625.4645      4329.267      -5927.538       120.86239     -3856.3133      61919.82      -43776.047     -557.90393      66412.502      40.496418      40.496418      40.496418      1.2617983      284.69011     -1407.7542      1734.0496    
     18000   18000          180.49319     -431.68483      16901.262      17317.773      2893.9875      14423.785      1673.4762      4266.9918     -5921.9222      114.63748     -3866.5068      61928.767     -43771.658     -560.04783      66158.27       40.444678      40.444678      40.444678      1.2666471      49.850102     -648.83781     -696.06677    
     18500   18500          178.98544     -161.00051      17171.129      17326.584      2869.8126      14456.771      1638.7596      4254.5181     -5927.44        131.49803     -3833.3791      61960.985     -43768.17      -559.63938      66206.556      40.454515      40.454515      40.454515      1.2657233      1259.3561     -956.04502     -786.31259    
     19000   19000          180.75779      32.082765      17392.828      17361.779      2898.2301      14463.549      1679.4256      4328.4612     -5978.2849      118.0639      -3839.2212      61927.816     -43772.712     -558.35052      66359.382      40.485618      40.485618      40.485618      1.2628083      191.92268      801.9818      -897.65618    
     19500   19500          179.92783      626.13724      17907.474      17303.066      2884.9228      14418.143      1604.7539      4335.8251     -5936.0859      112.44165     -3830.5598      61903.029     -43771.261     -559.78836      66188.936      40.450926      40.450926      40.450926      1.2660603      1250.7446     -139.10229      766.76942    
     20000   20000          180.53869     -978.59384      16316.636      17264.063      2894.7171      14369.345      1670.7373      4301.1619     -5978.9378      118.14302     -3889.5008      61913.718     -43765.976     -558.13867      66384.571      40.49074       40.49074       40.49074       1.2623292     -903.87646     -1744.3546     -287.55044    
     20500   20500          177.93117      563.19173      17892.329      17346.733      2852.9087      14493.824      1634.0305      4355.9332     -5892.6842      122.77575     -3882.4996      61928.536     -43772.268     -557.78879      66426.211      40.499205      40.499205      40.499205      1.2615379      886.26541      478.40711      324.90268    
     21000   21000          180.45105      28.17981       17393.245      17366.091      2893.312       14472.779      1599.5522      4335.5125     -5916.9314      121.29658     -3837.9112      61941.167     -43769.907     -560.7709       66072.965      40.427287      40.427287      40.427287      1.2682824      909.85621     -371.27009     -454.0467     
     21500   21500          176.10038      82.937512      17287.688      17207.249      2823.5543      14383.695      1622.9835      4356.4899     -5976.1783      123.93641     -3868.9034      61896.318     -43770.951     -557.14502      66502.965      40.514797      40.514797      40.514797      1.2600819      413.78528     -138.21087     -26.761872    
     22000   22000          180.38064      296.16506      17667.594      17381.61       2892.183       14489.427      1685.2159      4346.8001     -5964.9151      128.87652     -3838.9228      61901.674     -43769.301     -559.60069      66211.133      40.455447      40.455447      40.455447      1.2656358      936.55089     -439.44416      391.38845    
     22500   22500          179.66937     -607.46322      16749.658      17336.644      2880.7787      14455.866      1620.212       4314.606      -5912.0478      125.00358     -3873.1669      61951.948     -43770.689     -559.21284      66257.055      40.464798      40.464798      40.464798      1.2647586     -382.34586     -574.96205     -865.08176    
     23000   23000          179.44001     -320.48215      17039.313      17349.713      2877.1012      14472.612      1604.7389      4354.7925     -5933.3604      123.99997     -3830.0543      61920.386     -43767.89      -557.91333      66411.383      40.496191      40.496191      40.496191      1.2618195      930.47581     -1393.9366     -497.98569    
     23500   23500          179.59717      1206.9008      18496.641      17330.305      2879.621       14450.684      1628.3673      4332.2826     -5925.6984      116.67825     -3861.5119      61933.456     -43772.89      -559.15598      66263.793      40.46617       40.46617       40.46617       1.26463        1184.9063      992.31546      1443.4805    
     24000   24000          177.82389      169.98793      17495.355      17331.02       2851.1886      14479.831      1594.6802      4344.899      -5924.4494      128.12966     -3809.1113      61917.835     -43772.152     -558.94879      66288.355      40.471169      40.471169      40.471169      1.2641614      528.77293     -528.95149      510.14233    
     24500   24500          178.4059      -567.74973      16787.292      17338.547      2860.5205      14478.026      1613.9833      4357.7814     -5921.1197      127.13735     -3837.3832      61915.637     -43778.01      -556.53152      66576.275      40.529679      40.529679      40.529679      1.2586943      353.28456     -594.57351     -1461.9602    
     25000   25000          180.37813     -30.763763      17376.369      17406.182      2892.1427      14514.04       1644.9213      4368.9665     -5945.978       124.71624     -3798.2057      61889.795     -43770.176     -557.59493      66449.306      40.503898      40.503898      40.503898      1.2610994     -264.33426     -642.86173      814.9047     
     25500   25500          182.7571       392.68873      17766.99       17386.623      2930.2867      14456.337      1659.1098      4300.5335     -5938.443       113.6308      -3851.0738      61937.408     -43764.829     -557.86706      66416.891      40.49731       40.49731       40.49731       1.2617149     -4.1985891      550.54851      631.71626    
     26000   26000          181.59547      1473.5109      18812.055      17381.792      2911.6613      14470.131      1598.635       4323.1548     -5925.2836      122.82262     -3803.7415      61926.708     -43772.164     -556.70184      66555.907      40.525545      40.525545      40.525545      1.2590795      3018.4742      334.39443      1067.6639    
     26500   26500          178.86705      27.095418      17236.742      17210.53       2867.9144      14342.616      1666.8056      4249.5339     -5954.4858      125.3992      -3856.0093      61879.281     -43767.909     -558.58163      66331.927      40.480034      40.480034      40.480034      1.263331      -276.11704     -135.51688      492.92017    
     27000   27000          180.80233     -189.46596      17172.14       17355.871      2898.9443      14456.927      1617.8177      4339.5991     -5937.087       127.67256     -3822.8092      61907.48      -43775.747     -557.22817      66493.042      40.512782      40.512782      40.512782      1.2602699      527.97298     -522.62751     -573.74336    
     27500   27500          179.33398     -1382.0399      16014.123      17352.504      2875.4011      14477.103      1640.3627      4369.5412     -5940.6939      132.37339     -3882.4118      61925.613     -43767.681     -557.98933      66402.338      40.494352      40.494352      40.494352      1.2619914      1023.1059     -3361.7522     -1807.4733    
     28000   28000          184.68245      288.61623      17682.893      17403.062      2961.1573      14441.904      1598.5739      4297.6353     -5942.4364      144.48964     -3818.2539      61933.596     -43771.7       -557.32545      66481.436      40.510425      40.510425      40.510425      1.2604899     -31.900026      498.22874      399.51998    
     28500   28500          180.97068      23.143088      17353.358      17330.992      2901.6436      14429.348      1595.7081      4287.0809     -5933.1687      136.73971     -3864.2819      61974.067     -43766.797     -559.12747      66267.172      40.466857      40.466857      40.466857      1.2645655      787.33099     -616.73181     -101.16991    
     29000   29000          180.51154     -566.93198      16700.952      17252.06       2894.2818      14357.778      1645.7694      4295.4415     -5990.5385      119.77281     -3840.0877      61894.976     -43767.556     -555.87815      66654.528      40.545552      40.545552      40.545552      1.2572166      870.44917     -2036.1584     -535.08673    
     29500   29500          182.70437     -178.83992      17168.912      17342.358      2929.4412      14412.917      1637.9733      4331.0309     -5978.272       134.98194     -3857.3766      61910.443     -43765.864     -557.16578      66500.488      40.514294      40.514294      40.514294      1.2601288      841.22995     -1434.2022      56.4525      
     30000   30000          178.86146      448.38586      17756.975      17322.686      2867.8247      14454.861      1662.6137      4321.6583     -5939.4026      137.79332     -3830.4576      61878.412     -43775.756     -557.90255      66412.667      40.496452      40.496452      40.496452      1.2617952      35.085461     -67.802015      1377.8741    
     30500   30500          178.45243     -863.96432      16469.919      17309.922      2861.2665      14448.656      1661.1082      4317.9287     -5939.2519      118.03757     -3870.3812      61931.114     -43769.899     -555.77628      66666.745      40.548029      40.548029      40.548029      1.2569862      461.64713     -1197.1709     -1856.3692    
     31000   31000          177.70084      552.68353      17803.29       17268.601      2849.2158      14419.386      1621.8697      4314.3623     -5917.9256      126.40886     -3867.7706      61915.116     -43772.675     -558.54868      66335.84       40.48083       40.48083       40.48083       1.2632565      462.08215      558.62221      637.34624    
     31500   31500          180.45454     -817.74685      16535.521      17328.371      2893.368       14435.004      1669.5487      4314.3521     -5930.5247      120.42644     -3855.8209      61885.107     -43768.085     -557.33063      66480.818      40.510299      40.510299      40.510299      1.2605017     -95.797528     -1531.5936     -825.84938    
     32000   32000          178.93298     -666.4685       16684.874      17333.098      2868.9716      14464.127      1639.5064      4333.0493     -5929.1208      129.02923     -3869.6288      61930.262     -43768.971     -555.57067      66691.418      40.553031      40.553031      40.553031      1.2565212     -1107.9765     -554.20536     -337.22365    
     32500   32500          177.72779     -172.25804      17117.621      17284.644      2849.6478      14434.996      1622.7939      4313.067      -5940.8592      138.88774     -3849.9276      61923.582     -43772.548     -557.30075      66484.382      40.511023      40.511023      40.511023      1.2604341      1171.2441     -1005.7747     -682.24353    
     33000   33000          177.08363      22.386866      17266.485      17244.783      2839.3194      14405.463      1608.5274      4294.2279     -5928.4864      125.02263     -3833.2035      61910.795     -43771.419     -557.41605      66470.629      40.50823       40.50823       40.50823       1.2606949     -221.79583      690.5287      -401.57227    
     33500   33500          179.7175       447.66424      17781.077      17346.628      2881.5504      14465.078      1614.0706      4314.7678     -5959.3195      117.55931     -3781.3235      61929.669     -43770.346     -556.80019      66544.15       40.523159      40.523159      40.523159      1.259302       886.14181      83.999911      372.85102    
     34000   34000          180.63708      369.77616      17743.825      17387.139      2896.2948      14490.844      1600.2204      4305.3871     -5893.7756      125.56594     -3806.0723      61925.707     -43766.189     -560.19348      66141.07       40.441172      40.441172      40.441172      1.2669765      1062.0495     -582.80274      630.08175    
     34500   34500          180.32943     -54.577602      17274.598      17327.484      2891.362       14436.122      1590.4019      4315.8488     -5901.3666      113.06607     -3847.3068      61942.973     -43777.494     -557.64975      66442.773      40.50257       40.50257       40.50257       1.2612234      17.245933     -705.34741      524.36867    
     35000   35000          178.74936      461.99933      17748.495      17300.121      2866.0274      14434.093      1574.8938      4319.6853     -5934.4491      123.40373     -3835.6652      61957.463     -43771.238     -556.78263      66546.249      40.523585      40.523585      40.523585      1.2592623      1284.973      -1270.3998      1371.4248    
     35500   35500          177.62312     -1915.9682      15427.939      17291.995      2847.9696      14444.025      1631.0292      4323.909      -5891.2059      128.24017     -3878.2885      61903.356     -43773.014     -555.41094      66710.598      40.556918      40.556918      40.556918      1.2561599     -1227.4512     -2410.2657     -2110.1877    
     36000   36000          180.30569      676.88991      18006.86       17349.974      2890.9813      14458.993      1629.3794      4338.3664     -5932.0996      121.83026     -3866.2679      61937.112     -43769.328     -556.81802      66542.019      40.522727      40.522727      40.522727      1.2593423      982.12526      690.03911      358.50536    
     36500   36500          177.67816     -779.43681      16606.774      17364.43       2848.852       14515.578      1672.982       4375.4681     -5973.3462      115.68977     -3823.5427      61915.292     -43766.966     -555.8965       66652.328      40.545106      40.545106      40.545106      1.2572581     -1326.6326     -1378.7763      367.09855    
     37000   37000          181.1664      -139.30556      17221.088      17355.888      2904.7817      14451.106      1602.1623      4353.8256     -5918.6472      120.88205     -3838.877       61907.723     -43775.962     -558.42515      66350.514      40.483815      40.483815      40.483815      1.2629771     -910.22177     -161.76605      654.07113    
     37500   37500          180.57234      145.43227      17440.612      17299.542      2895.2567      14404.285      1577.2796      4326.6151     -5935.9467      127.85742     -3826.46        61907.953     -43773.013     -557.07147      66511.745      40.51658       40.51658       40.51658       1.2599155     -503.98764      937.62092      2.6635182    
     38000   38000          179.41087      427.96401      17738.75       17323.814      2876.6339      14447.181      1649.5554      4352.7095     -5965.7968      111.82476     -3846.6434      61916.963     -43771.432     -557.3292       66480.988      40.510334      40.510334      40.510334      1.2604984      645.4805       37.253494      601.15803    
     38500   38500          181.04459     -679.01895      16706.391      17367.661      2902.8287      14464.832      1669.3605      4296.6887     -5926.4876      118.43244     -3815.9281      61896.291     -43773.525     -554.86601      66776.114      40.570191      40.570191      40.570191      1.2549275      775.95782     -1965.1832     -847.83143    
     39000   39000          180.63903     -237.57726      17116.731      17346.32       2896.326       14449.994      1606.5666      4344.9104     -5950.6936      132.20933     -3833.5414      61915.518     -43764.976     -559.16289      66262.973      40.466003      40.466003      40.466003      1.2646456     -684.51017      348.3531      -376.57471    
     39500   39500          178.43429     -506.40567      16817.606      17308.916      2860.9757      14447.94       1612.0286      4414.359      -5914.4365      109.00809     -3899.6339      61905.263     -43778.649     -556.96533      66524.42       40.519154      40.519154      40.519154      1.2596755     -814.4111      -808.26442      103.4585     
     40000   40000          178.25211     -576.97398      16762.186      17322.644      2858.0546      14464.59       1626.725       4359.7903     -5933.14        132.5599      -3873.6795      61914.514     -43762.18      -556.28588      66605.673      40.535644      40.535644      40.535644      1.2581388      115.74486     -810.24546     -1036.4213    
     40500   40500          178.34857      1077.8772      18295.201      17252.815      2859.6013      14393.214      1576.3296      4284.2957     -5926.0722      126.48706     -3825.0884      61931.445     -43774.182     -558.7609       66310.645      40.475704      40.475704      40.475704      1.2637365      1668.0512      837.67938      727.90097    
     41000   41000          179.32456     -453.36872      16862.529      17301.183      2875.2501      14425.933      1637.2639      4311.8755     -5917.1132      111.02785     -3887.2535      61936.636     -43766.504     -558.48968      66342.848      40.482256      40.482256      40.482256      1.2631231      367.68744     -918.84213     -808.95147    
     41500   41500          181.2735      -319.06556      17032.469      17342.529      2906.4989      14436.03       1592.6655      4376.0119     -5920.4073      125.26423     -3858.4794      61886.265     -43765.29      -556.05621      66633.184      40.541224      40.541224      40.541224      1.2576193     -707.54269      324.79476     -574.44876    
     42000   42000          177.06986     -275.778        17053.811      17320.524      2839.0987      14481.426      1604.1147      4352.115      -5910.6134      118.91474     -3854.3109      61945.094     -43773.889     -558.72805      66314.543      40.476498      40.476498      40.476498      1.2636622      514.22647     -678.94001     -662.62046    
     42500   42500          181.46239      171.28445      17530.898      17364.822      2909.5275      14455.294      1625.3606      4331.1254     -5945.3417      118.90948     -3868.6554      61967.131     -43773.235     -557.30746      66483.581      40.51086       40.51086       40.51086       1.2604493      1782.9202     -1482.7782      213.71136    
     43000   43000          180.667        100.08491      17440.415      17343.516      2896.7744      14446.742      1571.5402      4332.1512     -5910.2706      131.29347     -3837.2808      61933.108     -43773.799     -558.13128      66385.449      40.490919      40.490919      40.490919      1.2623125      236.11413     -37.332308      101.4729     
     43500   43500          181.74066     -266.81272      17101.188      17359.744      2913.9893      14445.755      1579.7073      4368.1215     -5954.2975      136.37021     -3843.7162      61926.738     -43767.169     -557.61915      66446.42       40.503311      40.503311      40.503311      1.2611542      72.187519      511.94886     -1384.5745    
     44000   44000          180.28416     -534.67734      16851.021      17367.979      2890.6361      14477.343      1664.5486      4314.1373     -5899.4237      130.01421     -3886.7534      61924.416     -43769.597     -558.88405      66296.034      40.472732      40.472732      40.472732      1.264015      -642.83067      203.88328     -1165.0846    
     44500   44500          178.42257     -1231.3709      16123.459      17318.764      2860.7877      14457.976      1680.5104      4351.3592     -5936.4569      113.21907     -3889.5042      61907.591     -43768.742     -556.66671      66560.107      40.526398      40.526398      40.526398      1.2590001     -1012.2548     -712.3903      -1969.4675    
     45000   45000          181.19845     -1131.6193      16260.741      17360.201      2905.2955      14454.906      1718.2796      4357.4444     -5984.4852      122.7086      -3870.5594      61880.034     -43768.516     -556.16774      66619.822      40.538514      40.538514      40.538514      1.2578716     -1327.1181     -923.35471     -1144.385     
     45500   45500          178.43156      599.29528      17967.382      17388.503      2860.932       14527.571      1650.3022      4373.4443     -5935.1572      124.04227     -3844.0775      61930.808     -43771.791     -559.42053      66232.456      40.45979       40.45979       40.45979       1.2652284      555.31353      400.19062      842.38168    
     46000   46000          180.93237      143.90985      17515.514      17376.111      2901.0293      14475.081      1600.4327      4336.3666     -5902.1165      127.11239     -3824.1354      61909.183     -43771.762     -557.83128      66421.151      40.498176      40.498176      40.498176      1.261634       1545.8688     -742.69325     -371.44601    
     46500   46500          181.55742      127.34249      17449.797      17326.852      2911.0512      14415.801      1631.9061      4288.2076     -5917.4401      125.84329     -3879.6269      61938.983     -43772.072     -559.6929       66200.225      40.453225      40.453225      40.453225      1.2658444     -157.78115      866.6628      -326.85419    
     47000   47000          178.83797     -787.07371      16533.961      17295.768      2867.4482      14428.319      1647.2008      4359.8042     -5947.8434      132.48353     -3908.0807      61913.665     -43768.91      -558.28453      66367.226      40.487214      40.487214      40.487214      1.2626591      268.17299     -1557.2173     -1072.1768    
     47500   47500          180.91044     -93.889615      17239.715      17330.558      2900.6778      14429.881      1665.2762      4341.531      -5943.5895      122.36543     -3870.6477      61887.837     -43772.891     -558.47925      66344.087      40.482508      40.482508      40.482508      1.2630995      882.06759     -959.90231     -203.83413    
     48000   48000          181.43195     -391.56727      16966.809      17345.389      2909.0394      14436.35       1643.0956      4303.7908     -5908.2168      123.70034     -3878.4546      61922.291     -43769.856     -558.8993       66294.225      40.472363      40.472363      40.472363      1.2640495     -474.67902     -240.90345     -459.11933    
     48500   48500          179.44766      325.21398      17685.972      17371.258      2877.2238      14494.034      1622.1099      4338.6343     -5935.6585      137.93328     -3848.6107      61950.715     -43771.09      -558.38984      66354.71       40.484668      40.484668      40.484668      1.2628973      781.15494     -285.11366      479.60066    
     49000   49000          181.3623       157.30604      17497.573      17345.327      2907.9228      14437.404      1676.4577      4312.0213     -5946.5983      133.37975     -3880.5447      61916.117     -43773.429     -558.32141      66362.842      40.486322      40.486322      40.486322      1.2627425      1360.1124     -1265.9321      377.73791    
     49500   49500          180.1412      -720.52795      16647.442      17346.197      2888.3439      14457.853      1698.1747      4341.7947     -5968.8172      136.94654     -3871.1312      61894.009     -43773.123     -557.19977      66496.431      40.51347       40.51347       40.51347       1.2602057      231.30679     -1778.1176     -614.77301    
     50000   50000          182.48494      152.24307      17529.99       17382.579      2925.9229      14456.657      1656.6525      4305.9413     -5932.4679      127.67675     -3847.9064      61911.698     -43764.938     -558.07686      66391.923      40.492235      40.492235      40.492235      1.2621894     -217.1408       31.343993      642.52602    
     50500   50500          183.3771      -547.42748      16852.712      17382.692      2940.2276      14442.465      1692.8054      4245.0847     -5938.118       133.21127     -3826.4063      61906.411     -43770.523     -558.15159      66383.033      40.490428      40.490428      40.490428      1.2623584     -502.91623     -1153.797       14.430798    
     51000   51000          178.28591     -64.207574      17243.379      17305.181      2858.5965      14446.584      1633.3137      4321.8508     -5917.2019      125.85742     -3878.4701      61930.629     -43769.394     -561.39704      65999.272      40.412252      40.412252      40.412252      1.2696986      109.14153      810.34369     -1112.1079    
     51500   51500          179.01755      15.702784      17334.255      17319.04       2870.3275      14448.712      1653.2206      4290.5016     -5979.9518      113.38088     -3832.854       61971.001     -43766.586     -557.67186      66440.139      40.502035      40.502035      40.502035      1.2612734      561.16533     -1217.1795      703.1225     
     52000   52000          182.54014      1100.2692      18420.563      17357.344      2926.8079      14430.536      1544.2669      4276.2724     -5900.9515      123.77737     -3772.9174      61927.437     -43767.348     -559.19243      66259.474      40.46529       40.46529       40.46529       1.2647124      1475.1993      725.53489      1100.0734    
     52500   52500          182.07845      130.57925      17513.054      17386.64       2919.4053      14467.235      1638.6757      4340.5445     -5953.3943      124.44471     -3831.3003      61922.299     -43774.034     -558.16754      66381.136      40.490042      40.490042      40.490042      1.2623945      423.98454     -290.69388      258.4471     
     53000   53000          181.3595       345.00476      17672.429      17338.354      2907.8778      14430.477      1606.9503      4324.6091     -5920.1183      120.2721      -3838.0677      61912.458     -43775.627     -558.04099      66396.19       40.493103      40.493103      40.493103      1.2621083      773.34372     -520.79606      782.46663    
     53500   53500          178.025        645.94735      17877.957      17254.074      2854.4133      14399.661      1567.2843      4349.9497     -5941.9424      118.57345     -3849.8816      61925.254     -43769.577     -559.47334      66226.205      40.458517      40.458517      40.458517      1.2653478      1134.1643     -81.357016      885.03477    
     54000   54000          178.9904       550.11095      17826.133      17292.666      2869.8923      14422.774      1611.9731      4349.739      -5933.7891      118.78489     -3877.5358      61927.927     -43774.326     -557.22102      66493.894      40.512955      40.512955      40.512955      1.2602538      766.5105      -369.51122      1253.3336    
     54500   54500          180.58527     -506.36874      16853.245      17341.95       2895.4641      14446.486      1610.2314      4373.0079     -5943.4732      130.95041     -3871.4938      61915.817     -43768.554     -559.89395      66176.453      40.448383      40.448383      40.448383      1.2662991     -166.74486     -365.9527      -986.40867    
     55000   55000          181.71414     -32.192926      17300.717      17331.851      2913.5641      14418.287      1618.4443      4329.5225     -5937.4756      119.2435      -3863.2248      61926.147     -43774.37      -558.7373       66313.445      40.476274      40.476274      40.476274      1.2636831      1129.0083     -13.024779     -1212.5623    
     55500   55500          179.51593     -153.51806      17241.41       17390.216      2878.3185      14511.898      1688.3474      4356.7531     -5924.3913      121.42118     -3845.2263      61881.006     -43766.012     -557.4703       66464.161      40.506916      40.506916      40.506916      1.2608176      1043.9071     -541.43637     -963.02489    
     56000   56000          178.04468     -465.43414      16873.18       17324.931      2854.7288      14470.203      1623.5554      4345.9512     -5926.6554      132.91062     -3848.7552      61916.427     -43773.231     -556.72861      66552.706      40.524896      40.524896      40.524896      1.2591401      825.13507     -1037.6475     -1183.79      
     56500   56500          178.0523      -125.33535      17192.487      17313.71       2854.851       14458.859      1641.6839      4361.7418     -5931.884       138.4764      -3906.2794      61927.301     -43772.181     -558.69573      66318.38       40.477278      40.477278      40.477278      1.2635891      995.01044     -713.38705     -657.62943    
     57000   57000          180.34462     -1291.6699      16088.152      17340.356      2891.6055      14448.751      1588.8627      4399.229      -5919.7484      124.89062     -3882.826       61902.869     -43764.526     -557.3932       66473.354      40.508783      40.508783      40.508783      1.2606432     -254.11814     -2272.6824     -1348.209     
     57500   57500          183.01959     -491.69374      16919.562      17395.671      2934.4953      14461.176      1642.6942      4377.3205     -5969.4595      134.45429     -3876.0251      61919.478     -43767.286     -558.04999      66395.119      40.492885      40.492885      40.492885      1.2621286      66.296394     -457.6937      -1083.6839    
     58000   58000          181.05359      205.29116      17570.859      17372.512      2902.9729      14469.539      1626.3857      4334.6877     -5940.2485      124.49129     -3858.1305      61950.956     -43768.603     -559.28192      66248.871      40.463132      40.463132      40.463132      1.2649148      423.67605     -196.09615      388.29358    
     58500   58500          178.7606      -1358.1587      16006.452      17328.822      2866.2076      14462.615      1689.5821      4347.6412     -5973.5228      127.98461     -3881.4694      61926.301     -43773.902     -554.98664      66761.599      40.567251      40.567251      40.567251      1.2552003     -647.3922      -1864.4648     -1562.6191    
     59000   59000          179.4549       1380.0401      18634.871      17301.789      2877.3399      14424.449      1658.0507      4275.6835     -5954.3351      129.31981     -3816.7086      61907.612     -43775.173     -559.39681      66235.265      40.460362      40.460362      40.460362      1.2651747      3271.3536     -446.89869      1315.6655    
     59500   59500          178.93332      602.38807      17948.567      17365.547      2868.9769      14496.57       1634.8173      4364.2779     -5954.6494      139.30485     -3859.7365      61945.688     -43773.132     -558.31326      66363.811      40.486519      40.486519      40.486519      1.2627241      1498.7693     -110.24559      418.64054    
     60000   60000          184.27918     -102.49788      17286.434      17385.322      2954.6913      14430.63       1671.3002      4328.9637     -5983.2076      127.13791     -3843.8388      61898.733     -43768.458     -560.09041      66153.241      40.443653      40.443653      40.443653      1.2667434      459.93546     -833.52591      66.096812    
     60500   60500          180.87095     -430.6124       16935.728      17353.826      2900.0445      14453.782      1632.4048      4314.0044     -5947.4388      131.87822     -3818.9826      61912.481     -43770.565     -556.53621      66575.714      40.529565      40.529565      40.529565      1.258705       917.47036     -945.98092     -1263.3266    
     61000   61000          179.74424      303.96163      17607.053      17312.253      2881.9792      14430.274      1566.6496      4373.8198     -5919.1374      115.25938     -3859.5366      61924.964     -43771.745     -557.15601      66501.654      40.514531      40.514531      40.514531      1.2601067      1812.2045     -1147.2658      246.9462     
     61500   61500          178.94342     -188.66514      17124.975      17308.206      2869.1389      14439.067      1627.6621      4334.1656     -5950.5988      129.87332     -3847.6809      61915.787     -43770.142     -556.38965      66593.251      40.533124      40.533124      40.533124      1.2583735      625.60949     -1039.5768     -152.02814    
     62000   62000          176.80813      138.45308      17399.672      17265.211      2834.9021      14430.309      1621.4871      4290.3567     -5957.1935      114.29796     -3816.946       61950.887     -43772.58      -556.40849      66590.997      40.532666      40.532666      40.532666      1.2584161      545.99149      81.525924     -212.15818    
     62500   62500          181.99653      500.10078      17863.49       17379.089      2918.0919      14460.998      1599.1649      4316.5509     -5941.4461      124.06423     -3809.4993      61940.529     -43768.366     -557.87662      66415.753      40.497079      40.497079      40.497079      1.2617365      2056.0115     -669.90691      114.19772    
     63000   63000          181.72787      92.715509      17468.206      17378.22       2913.7842      14464.436      1676.6079      4305.7818     -5952.4259      120.8369      -3872.0927      61955.098     -43769.37      -556.75059      66550.079      40.524363      40.524363      40.524363      1.2591898      114.08423     -674.07163      838.13393    
     63500   63500          179.7066      -1.8975322      17357.55       17359.39       2881.3757      14478.014      1593.6858      4390.6194     -5927.6842      121.71694     -3838.9415      61905.904     -43767.286     -557.24157      66491.443      40.512457      40.512457      40.512457      1.2603002      1528.0248     -871.97129     -661.74606    
     64000   64000          178.24406     -448.15238      16866.831      17301.428      2857.9256      14443.502      1614.1866      4336.7138     -5899.6515      119.90842     -3867.1285      61909.521     -43770.048     -557.2174       66494.326      40.513043      40.513043      40.513043      1.2602456     -999.06934     -867.77005      522.38223    
     64500   64500          175.84968      338.63787      17568.915      17240.859      2819.5346      14421.325      1601.1666      4286.7612     -5901.4849      130.39883     -3851.8602      61925.118     -43768.775     -557.79213      66425.813      40.499124      40.499124      40.499124      1.2615454      962.59319     -2.3363525      55.656787    
     65000   65000          176.9997       855.90706      18089.898      17266.63       2837.9738      14428.657      1611.6414      4291.2743     -5888.5201      129.05947     -3854.6183      61911.072     -43771.252     -561.78569      65953.613      40.40293       40.40293       40.40293       1.2705776      1228.2678     -471.90231      1811.3557    
     65500   65500          181.44409      474.37148      17823.961      17364.286      2909.2341      14455.051      1573.7412      4361.9107     -5930.9993      127.54952     -3834.7925      61922.455     -43764.813     -557.63767      66444.212      40.502863      40.502863      40.502863      1.2611961      67.278861      319.92677      1035.9088    
     66000   66000          178.80647     -897.04166      16515.117      17385.407      2866.9431      14518.464      1656.3547      4376.9809     -5939.2205      123.96278     -3857.6443      61927.079     -43769.048     -556.97266      66523.545      40.518976      40.518976      40.518976      1.259692      -882.94718     -1086.2792     -721.89858    
     66500   66500          176.75383     -647.07935      16615.361      17242.402      2834.0315      14408.37       1588.3915      4330.2102     -5909.4852      132.56658     -3880.9744      61918.73      -43771.069     -557.63072      66445.04       40.503031      40.503031      40.503031      1.2611804     -508.99288     -1074.5261     -357.71911    
     67000   67000          178.6727      -476.53651      16896.891      17359.035      2864.7983      14494.236      1591.9073      4356.6231     -5900.9482      121.24861     -3842.4305      61937.303     -43769.467     -557.19078      66497.504      40.513688      40.513688      40.513688      1.2601854      242.81157     -1805.7055      133.2844     
     67500   67500          178.58113     -919.80927      16461.034      17351.692      2863.3301      14488.362      1679.0464      4322.2179     -5943.1078      145.26754     -3847.022       61895.566     -43763.606     -558.0486       66395.285      40.492919      40.492919      40.492919      1.2621255     -955.27823     -897.28712     -906.86247    
     68000   68000          181.99701     -531.87504      16866.768      17382.286      2918.0995      14464.187      1662.5157      4339.033      -5970.3804      136.70337     -3837.9019      61907.595     -43773.378     -557.50748      66459.729      40.506015      40.506015      40.506015      1.2609016      873.89337     -1483.4984     -986.02005    
     68500   68500          182.20249     -363.13916      16988.24       17341.183      2921.3942      14419.789      1657.2548      4312.2466     -5972.2789      111.1638      -3855.9446      61929.605     -43762.257     -555.97289      66643.17       40.543249      40.543249      40.543249      1.2574309      582.90842     -793.49705     -878.82884    
     69000   69000          177.61215      389.15237      17655.13       17278.885      2847.7937      14431.092      1635.3314      4359.4139     -5956.7677      126.68299     -3832.0853      61868.879     -43770.363     -558.90053      66294.079      40.472334      40.472334      40.472334      1.2640523      1105.6151      132.26746     -70.425434    
     69500   69500          175.16417     -161.05743      17098.241      17254.391      2808.5433      14445.847      1642.1145      4346.3833     -5980.8092      127.70268     -3832.3958      61909.602     -43766.75      -557.34733      66478.825      40.509894      40.509894      40.509894      1.2605394     -326.85011     -485.85316      329.53097    
     70000   70000          177.89951     -209.94376      17109.475      17312.477      2852.4011      14460.076      1698.8244      4344.9764     -5963.4807      122.58105     -3868.1402      61892.792     -43767.477     -558.83879      66301.402      40.473824      40.473824      40.473824      1.2639126      988.94004     -31.137793     -1587.6335    
     70500   70500          180.11641      135.35929      17499.858      17368.56       2887.9463      14480.614      1618.5788      4344.5994     -5925.5198      124.09594     -3833.7905      61922.213     -43769.563     -557.08007      66510.719      40.516372      40.516372      40.516372      1.259935       34.067205      232.31495      139.69573    
     71000   71000          181.79577     -1146.8699      16278.218      17391.889      2914.873       14477.016      1647.0685      4399.5368     -5929.3287      109.12899     -3888.4938      61912.249     -43773.144     -556.47059      66583.565      40.531158      40.531158      40.531158      1.2585565     -884.17478     -1142.7997     -1413.6352    
     71500   71500          173.66842      527.66366      17725.039      17215.796      2784.5608      14431.235      1629.8439      4337.2247     -5948.4706      121.66937     -3868.3144      61935.857     -43776.574     -559.90893      66174.683      40.448022      40.448022      40.448022      1.2663329      2077.3452     -714.32515      219.97094    
     72000   72000          181.51461     -357.67237      16963.612      17311.745      2910.3649      14401.38       1572.3646      4368.2931     -5959.7663      121.15302     -3840.0875      61907.575     -43768.152     -555.16988      66739.564      40.562787      40.562787      40.562787      1.2556147     -510.85218     -298.40829     -263.75664    
     72500   72500          180.56647     -79.656836      17225.437      17302.79       2895.1626      14407.628      1605.5298      4286.1468     -5926.9988      122.23322     -3847.4513      61939.495     -43771.327     -556.45257      66585.721      40.531596      40.531596      40.531596      1.2585158     -221.33767     -730.98546      713.35263    
     73000   73000          178.76086     -284.76599      17009.159      17285.745      2866.2118      14419.534      1619.722       4333.3678     -5944.9781      123.15861     -3868.3954      61926.889     -43770.23      -556.34178      66598.982      40.534286      40.534286      40.534286      1.2582652      271.30693     -1169.5619      43.957016    
     73500   73500          175.92418      22.762637      17276.632      17254.441      2820.729       14433.712      1667.9298      4290.0152     -5974.2303      129.20428     -3844.0364      61933.262     -43768.432     -554.27878      66846.86       40.584513      40.584513      40.584513      1.2535994      919.70778     -856.86305      5.4431791    
     74000   74000          180.39872      155.5379       17430.601      17279.811      2892.4729      14387.338      1607.8364      4262.803      -5929.5558      125.55325     -3832.1485      61918.499     -43765.649     -557.37545      66475.472      40.509213      40.509213      40.509213      1.260603       774.0806      -1378.2844      1070.8175    
     74500   74500          179.5099      -123.51443      17236.497      17356.301      2878.2218      14478.079      1644.5143      4297.5309     -5938.3611      126.61623     -3810.7974      61932.905     -43774.329     -557.09788      66508.592      40.51594       40.51594       40.51594       1.2599753      784.05138     -1098.4215     -56.17318     
     75000   75000          179.33502      297.31283      17640.62       17352.885      2875.4177      14477.468      1592.8026      4361.4267     -5948.7351      130.57854     -3843.2804      61948.75      -43764.075     -558.34997      66359.448      40.485632      40.485632      40.485632      1.2628071      503.03621      665.69892     -276.79664    
     75500   75500          181.10363      474.65931      17798.781      17338.637      2903.7752      14434.862      1654.9271      4271.9701     -5957.7568      113.77821     -3840.3505      61963.37      -43771.076     -557.40902      66471.468      40.5084        40.5084        40.5084        1.2606789      819.60504     -776.30542      1380.6783    
     76000   76000          181.80628      741.21699      18067.873      17349.834      2915.0414      14434.793      1649.742       4281.2103     -5964.7422      132.46985     -3828.8048      61931.554     -43766.637     -557.80472      66424.314      40.498819      40.498819      40.498819      1.2615739      1368.6809      48.686963      806.28313    
     76500   76500          182.09169     -160.49132      17207.998      17364.317      2919.6176      14444.699      1690.5589      4305.5655     -5985.1767      119.62286     -3856.3082      61924.873     -43754.436     -554.78591      66785.755      40.572143      40.572143      40.572143      1.2547463      174.64427     -551.83388     -104.28433    
     77000   77000          183.53294     -144.04787      17259.02       17398.523      2942.7262      14455.797      1599.0238      4314.1174     -5916.3989      133.82976     -3819.9453      61913.194     -43768.023     -557.96676      66405.023      40.494898      40.494898      40.494898      1.2619404     -374.65319     -1100.0292      1042.5388    
     77500   77500          180.7849      -267.70738      17093.2        17351.365      2898.6649      14452.7        1607.9786      4378.5847     -5902.9119      117.92075     -3907.9484      61928.805     -43769.729     -560.33574      66124.278      40.43775       40.43775       40.43775       1.2672982      622.63512     -663.78333     -761.97394    
     78000   78000          181.3294      -186.18966      17171.26       17351.935      2907.3953      14444.539      1636.4013      4329.4094     -5969.2781      122.79734     -3839.2876      61930.881     -43766.384     -556.85664      66537.404      40.52179       40.52179       40.52179       1.2594297      1280.5461     -111.7479      -1727.3672    
     78500   78500          176.91869     -169.54514      17109.271      17274.085      2836.6748      14437.41       1593.3453      4328.0212     -5957.6952      122.13684     -3790.313       61905.062     -43763.147     -555.87203      66655.262      40.545701      40.545701      40.545701      1.2572028     -539.97127     -97.443498      128.77935    
     79000   79000          178.25327      939.58108      18160.906      17254.617      2858.0732      14396.544      1639.2471      4247.7952     -5950.9883      134.74149     -3836.5403      61927.272     -43764.983     -560.21252      66138.822      40.440714      40.440714      40.440714      1.2670196      1178.6165      968.79558      671.33113    
     79500   79500          181.51317     -1193.3657      16231.422      17393.693      2910.3418      14483.352      1621.5524      4322.4706     -5927.8551      119.95571     -3831.8655      61948.119     -43769.026     -554.81867      66781.812      40.571344      40.571344      40.571344      1.2548204      401.09004     -2555.7278     -1425.4592    
     80000   80000          179.65999     -432.93195      16902.581      17321.937      2880.6282      14441.309      1647.405       4310.8962     -5938.3282      117.44421     -3843.0485      61915.46      -43768.52      -557.85521      66418.302      40.497597      40.497597      40.497597      1.2616881     -785.03418     -313.46147     -200.30019    
     80500   80500          177.27504      631.10661      17904.293      17293.884      2842.3886      14451.495      1685.1513      4363.8088     -5992.3271      118.82355     -3860.0552      61907.497     -43771.404     -558.6847       66319.689      40.477545      40.477545      40.477545      1.2635641      94.470365      365.52609      1433.3234    
     81000   81000          177.03906      473.30946      17736.819      17277.09       2838.6048      14438.485      1647.6388      4321.0135     -5976.392       112.72575     -3824.5052      61934.862     -43776.857     -556.32473      66601.023      40.5347        40.5347        40.5347        1.2582266      1255.5707     -421.71174      586.06937    
     81500   81500          180.61642      28.988306      17289.969      17261.85       2895.9635      14365.887      1623.162       4283.9202     -5964.1788      117.83007     -3845.0743      61927.004     -43776.776     -557.08466      66510.171      40.51626       40.51626       40.51626       1.2599454     -381.42049      1027.7014     -559.31597    
     82000   82000          178.58452      380.59036      17693.862      17325.833      2863.3843      14462.449      1593.6677      4352.7039     -5907.9409      118.47102     -3802.9811      61879.771     -43771.242     -558.80691      66305.186      40.474594      40.474594      40.474594      1.2638405      1745.0841     -1224.5207      621.20768    
     82500   82500          180.57348      14.317831      17371.523      17357.618      2895.275       14462.343      1641.3337      4345.9737     -5942.9187      129.63956     -3854.9428      61918.581     -43775.323     -556.38476      66593.837      40.533242      40.533242      40.533242      1.2583624      1167.8317     -234.65318     -890.22504    
     83000   83000          180.45766     -434.77867      16955.749      17376.471      2893.418       14483.053      1661.3256      4353.6476     -5930.7496      118.95792     -3853.7768      61900.731     -43767.083     -558.41728      66351.449      40.484005      40.484005      40.484005      1.2629593     -89.596835     -690.28589     -524.45327    
     83500   83500          186.12311     -416.56594      17046.776      17448.801      2984.2565      14464.545      1573.6241      4358.828      -5891.565       126.05922     -3879.1521      61941.862     -43765.112     -559.90613      66175.014      40.44809       40.44809       40.44809       1.2663266      370.84576     -599.00056     -1021.543     
     84000   84000          178.07625     -598.68139      16717.411      17298.792      2855.2349      14443.557      1639.4069      4308.5947     -5937.8395      118.84895     -3833.7697      61915.526     -43767.21      -556.44156      66587.039      40.531863      40.531863      40.531863      1.2584909     -859.28331     -1136.9851      200.22425    
     84500   84500          179.72042      49.062661      17332.595      17285.104      2881.5972      14403.507      1639.0584      4331.545      -5954.2388      126.85142     -3872.8945      61904.937     -43771.751     -558.23733      66372.838      40.488355      40.488355      40.488355      1.2625523     -218.59543     -594.23984      960.02325    
     85000   85000          178.64882      912.98773      18207.364      17327.183      2864.4154      14462.767      1582.8011      4376.9584     -5919.6434      125.61412     -3862.1575      61924.36      -43765.166     -560.50291      66104.556      40.433729      40.433729      40.433729      1.2676763      929.46284      791.48671      1018.0136    
     85500   85500          178.85937     -472.00155      16859.318      17316.715      2867.7913      14448.924      1657.2204      4320.0423     -5946.0271      124.80927     -3872.8893      61928.429     -43762.66      -557.61583      66446.815      40.503391      40.503391      40.503391      1.2611467     -329.38793     -1384.5096      297.89282    
     86000   86000          182.0364       788.92583      18106.622      17344.262      2918.7311      14425.531      1643.3521      4288.2038     -5918.2664      123.09315     -3846.4934      61909.513     -43773.871     -559.19221      66259.5        40.465296      40.465296      40.465296      1.264712       990.18307      1180.5986      195.9958     
     86500   86500          179.3209       367.16793      17694.441      17339.141      2875.1913      14463.95       1620.9145      4313.3808     -5935.2256      126.35509     -3829.9293      61931.725     -43763.271     -558.41156      66352.129      40.484143      40.484143      40.484143      1.2629464      655.7408      -500.95294      946.71591    
     87000   87000          177.84284     -396.41865      16921.463      17303.912      2851.4925      14452.419      1594.5221      4311.3956     -5877.4076      136.92001     -3871.7491      61928.089     -43769.351     -560.10059      66152.038      40.443408      40.443408      40.443408      1.2667664     -694.60971     -954.4737       459.82745    
     87500   87500          181.11619     -598.90363      16787.598      17367.614      2903.9767      14463.638      1623.438       4289.9482     -5870.1758      126.4995      -3900.8221      61968.31      -43773.56      -557.95847      66406.01       40.495099      40.495099      40.495099      1.2619216     -331.48076     -1187.2666     -277.9635     
     88000   88000          181.49364     -412.86618      16956.482      17355.474      2910.0285      14445.446      1617.2203      4381.2075     -5930.5423      140.25623     -3920.8951      61927.821     -43769.622     -559.15244      66264.212      40.466255      40.466255      40.466255      1.264622       444.88508     -1541.2513     -142.23233    
     88500   88500          178.23185     -43.58944       17236.502      17278.674      2857.7298      14420.945      1603.5781      4271.2454     -5900.1668      130.30336     -3835.5244      61918.764     -43767.255     -558.51342      66340.028      40.481682      40.481682      40.481682      1.2631767      201.92382     -717.24737      384.55523    
     89000   89000          177.60903      327.26864      17591.68       17276.666      2847.7437      14428.922      1571.1035      4386.6864     -5920.101       141.31167     -3896.1295      61916.259     -43770.208     -561.38305      66000.917      40.412587      40.412587      40.412587      1.2696669      613.64338      409.57807     -41.415537    
     89500   89500          179.97916      327.45108      17708.402      17390.839      2885.7457      14505.093      1665.6821      4372.7875     -5932.2421      119.79126     -3842.8003      61897.08      -43775.205     -557.18781      66497.858      40.51376       40.51376       40.51376       1.2601786      175.40493     -737.34262      1544.2909    
     90000   90000          179.53034     -273.76646      17093.239      17358.44       2878.5494      14479.891      1683.2645      4286.3259     -5958.1285      123.00292     -3808.7976      61925.177     -43770.953     -557.81409      66423.198      40.498592      40.498592      40.498592      1.2615951      268.05089     -1154.3923      65.042038    
     90500   90500          177.00836      428.42966      17754.043      17339.492      2838.1126      14501.38       1636.0884      4364.6155     -5896.6271      128.32407     -3863.8616      61904.379     -43771.538     -558.45391      66347.097      40.48312       40.48312       40.48312       1.2630422      96.555345     -967.08338      2155.817     
     91000   91000          177.79108      303.33142      17652.93       17357.865      2850.6625      14507.202      1624.7098      4318.0171     -5921.5632      149.45208     -3831.6863      61939.805     -43771.533     -555.50053      66699.839      40.554738      40.554738      40.554738      1.2563626      1044.8437     -466.28846      331.43898    
     91500   91500          179.64421     -507.64171      16781.885      17272.745      2880.3752      14392.37       1654.9314      4312.7117     -5946.8398      123.87457     -3893.7406      61911.932     -43770.5       -558.83634      66301.694      40.473883      40.473883      40.473883      1.2639071     -448.79489     -1462.7556      388.62542    
     92000   92000          179.33089     -793.52689      16538.448      17304.245      2875.3516      14428.893      1631.0013      4325.5355     -5909.0287      115.76159     -3861.2848      61897.896     -43770.987     -559.92898      66172.313      40.447539      40.447539      40.447539      1.2663783      329.42762     -563.13531     -2146.873     
     92500   92500          179.09838     -223.9124       17151.1        17367.219      2871.6235      14495.596      1630.0701      4332.0302     -5906.533       141.30512     -3841.7399      61911.059     -43770.596     -559.84646      66182.066      40.449526      40.449526      40.449526      1.2661917      155.77451     -805.7561      -21.755614    
     93000   93000          181.40665      215.71264      17601.04       17391.277      2908.6338      14482.643      1667.48        4293.1354     -5952.9653      114.33387     -3792.4239      61917.714     -43764.631     -555.68756      66677.39       40.550187      40.550187      40.550187      1.2567856      700.32331     -478.18764      425.00225    
     93500   93500          178.74917      593.57456      17896.753      17325.162      2866.0244      14459.138      1646.6433      4355.8187     -5927.6455      114.56477     -3886.183       61925.49      -43769.551     -561.14482      66028.936      40.418305      40.418305      40.418305      1.2691281      461.90896      398.9483       919.86642    
     94000   94000          179.29735     -655.06381      16709.908      17343.26       2874.8138      14468.446      1675.0558      4322.3149     -5921.4394      118.39274     -3874.5647      61915.493     -43766.806     -558.88639      66295.756      40.472675      40.472675      40.472675      1.2640203     -395.47581     -628.34216     -941.37347    
     94500   94500          180.34141     -511.57939      16838.379      17334.089      2891.554       14442.535      1642.4641      4281.6135     -5919.3457      112.32425     -3831.8453      61927.731     -43770.407     -557.66186      66441.331      40.502277      40.502277      40.502277      1.2612508     -60.573135     -2141.2193      667.05431    
     95000   95000          179.65466      1004.9608      18245.831      17274.323      2880.5427      14393.781      1656.7889      4324.9865     -5978.1987      129.19424     -3885.1278      61911.515     -43765.378     -558.96953      66285.896      40.470668      40.470668      40.470668      1.2642083      1992.4846      490.14601      532.25188    
     95500   95500          178.15113      527.52078      17827.195      17317.125      2856.4355      14460.689      1627.6431      4321.7778     -5940.6578      121.22224     -3858.7025      61955.321     -43765.915     -558.84901      66300.19       40.473577      40.473577      40.473577      1.2639358      162.26409      629.95813      790.34013    
     96000   96000          183.58717     -388.13378      17028.429      17403.611      2943.5957      14460.015      1602.3092      4358.9484     -5936.1914      111.83209     -3837.7428      61926.556     -43765.695     -559.01681      66280.289      40.469527      40.469527      40.469527      1.2643153     -922.89421     -554.93589      313.42874    
     96500   96500          183.24458      461.66932      17844.419      17398.133      2938.1028      14460.03       1567.0997      4361.787      -5932.5861      126.18881     -3827.4727      61936.039     -43771.026     -558.98898      66283.589      40.470199      40.470199      40.470199      1.2642523      1476.2646     -296.17972      204.9231     
     97000   97000          182.9181      -55.194189      17318.568      17371.963      2932.8681      14439.095      1638.1459      4311.7056     -5914.1904      118.72942     -3864.4071      61920.538     -43771.427     -558.56663      66333.708      40.480396      40.480396      40.480396      1.2632971      1265.8476     -1653.3408      221.91062    
     97500   97500          175.39419      1038.2147      18312.654      17310.331      2812.2313      14498.099      1642.4298      4396.8059     -5944.4591      126.60119     -3858.6904      61907.02      -43771.608     -559.71177      66197.993      40.452771      40.452771      40.452771      1.265887       656.91471      616.69172      1841.0377    
     98000   98000          180.32447      999.59699      18357.5        17390.101      2891.2824      14498.819      1674.7176      4348.2046     -5959.2183      122.80834     -3831.5953      61908.155     -43764.252     -558.34736      66359.758      40.485695      40.485695      40.485695      1.2628012      1518.5654      250.64141      1229.5842    
     98500   98500          181.44674     -459.91086      16970.479      17415.428      2909.2766      14506.151      1699.8366      4362.4512     -5955.6942      123.51962     -3857.3332      61903.025     -43769.654     -558.53266      66337.743      40.481217      40.481217      40.481217      1.2632203     -584.00285     -1208.6743      412.9446     
     99000   99000          178.67154      1056.6498      18365.865      17348.843      2864.7797      14484.064      1624.7257      4313.5581     -5947.0966      119.09339     -3775.1569      61919.283     -43770.343     -561.41784      65996.826      40.411752      40.411752      40.411752      1.2697456      1391.8151      1360.1876      417.94673    
     99500   99500          179.83745     -545.75752      16848.908      17377.682      2883.4735      14494.208      1637.7951      4305.1415     -5877.5439      128.75683     -3860.3075      61923.764     -43763.398     -557.71849      66434.584      40.500906      40.500906      40.500906      1.2613789     -136.77912     -943.23805     -557.25538    
    100000   100000         177.89066      24.64023       17339.717      17315.955      2852.2591      14463.696      1651.8868      4355.5482     -5920.6635      117.12601     -3862.8895      61894.63      -43771.942     -560.32588      66125.441      40.437987      40.437987      40.437987      1.2672759     -326.29349     -394.75933      794.97351    
    100500   100500         180.7593      -70.858387      17263.423      17331.789      2898.2543      14433.535      1614.5346      4332.3978     -5916.2677      126.49609     -3904.4323      61950.537     -43769.731     -560.06632      66156.086      40.444233      40.444233      40.444233      1.2666889     -416.46951      468.66593     -264.77157    
    101000   101000         180.76205      482.75898      17784.583      17317.588      2898.2984      14419.289      1631.9648      4303.5306     -5962.6613      133.70142     -3820.2364      61901.674     -43768.684     -558.60275      66329.418      40.479524      40.479524      40.479524      1.2633788      947.48983     -564.05952      1064.8466    
    101500   101500         182.2858       319.44348      17709.371      17399.816      2922.7299      14477.086      1597.4006      4338.9513     -5918.4815      120.76148     -3851.6581      61954.95      -43764.837     -557.6242       66445.817      40.503189      40.503189      40.503189      1.2611656      573.02014     -323.25091      708.56121    
    102000   102000         181.70745      363.00581      17771.82       17420.121      2913.4567      14506.665      1652.0414      4375.0512     -5942.6124      115.74181     -3876.6661      61948.352     -43765.243     -557.73479      66432.642      40.500512      40.500512      40.500512      1.2614157      1034.527      -477.81964      532.31007    
    102500   102500         182.1992      -674.91809      16714.494      17365.523      2921.3415      14444.181      1582.3047      4338.2599     -5933.6478      118.32004     -3843.2187      61950.514     -43768.351     -560.19099      66141.364      40.441232      40.441232      40.441232      1.2669709     -64.274381     -1187.9892     -772.49066    
    103000   103000         177.54326      403.82886      17689.759      17297.533      2846.689       14450.844      1644.1712      4334.6409     -5951.0223      123.90765     -3850.6649      61916.191     -43766.38      -556.3477       66598.273      40.534142      40.534142      40.534142      1.2582786      450.09712     -414.87872      1176.2682    
    103500   103500         178.14175      559.03193      17814.022      17275.468      2856.2851      14419.183      1605.9514      4291.7618     -5915.744       118.92092     -3855.2737      61941.062     -43767.495     -560.90954      66056.634      40.423956      40.423956      40.423956      1.268596       440.54611      2203.8832     -967.33354    
    104000   104000         178.17863      78.518156      17353.061      17276.935      2856.8765      14420.059      1619.8111      4343.9346     -5961.3424      121.88883     -3853.0512      61918.884     -43770.066     -557.34311      66479.329      40.509997      40.509997      40.509997      1.2605299     -589.94037      370.96658      454.52826    
    104500   104500         180.67449      6.5110565      17325.091      17318.786      2896.8945      14421.892      1646.0749      4301.9062     -5920.9843      125.5387      -3883.5918      61921.558     -43768.61      -558.09577      66389.673      40.491778      40.491778      40.491778      1.2622322      240.94812     -692.6305       471.21555    
    105000   105000         179.60088      602.70272      17971.421      17385.873      2879.6804      14506.192      1608.3332      4378.9662     -5948.2717      122.26014     -3810.0759      61923.798     -43768.818     -556.19283      66616.817      40.537904      40.537904      40.537904      1.2579283      733.65237      332.46306      741.99272    
    105500   105500         178.17956      795.0371       18160.091      17391.693      2856.8914      14534.801      1644.8149      4328.5463     -5922.2203      126.61419     -3840.8725      61964.124     -43766.205     -559.09588      66270.915      40.467619      40.467619      40.467619      1.2644941      558.60335      1247.0132      579.49474    
    106000   106000         182.12852     -1652.0622      15813.847      17416.041      2920.2082      14495.833      1637.0423      4388.7708     -5899.7169      129.64752     -3893.0828      61904.582     -43771.411     -557.18135      66498.628      40.513917      40.513917      40.513917      1.2601641     -1319.4832     -2239.1182     -1397.5852    
    106500   106500         177.05641      235.89979      17528.982      17301.259      2838.883       14462.376      1626.7806      4339.2021     -5902.7614      122.89344     -3856.2041      61899.709     -43767.243     -559.76597      66191.583      40.451465      40.451465      40.451465      1.2660096      711.64772     -919.6304       915.68205    
    107000   107000         179.27724     -667.49904      16663.866      17310.329      2874.4914      14435.837      1588.5795      4328.3009     -5912.675       127.15106     -3831.3935      61906.122     -43770.248     -557.94624      66407.465      40.495395      40.495395      40.495395      1.261894       324.43806     -438.30212     -1888.6331    
    107500   107500         179.78168     -714.18728      16619.353      17309.647      2882.5794      14427.067      1653.478       4321.3427     -5956.9732      121.55167     -3842.9657      61898.24      -43767.606     -559.06657      66274.389      40.468326      40.468326      40.468326      1.2644278     -140.31032     -1508.9841     -493.26744    
    108000   108000         178.29031      500.52514      17825.947      17341.82       2858.6671      14483.153      1661.8833      4322.7153     -5950.0764      141.686       -3836.222       61916.56      -43773.393     -558.66546      66321.973      40.478009      40.478009      40.478009      1.2635206      1208.847      -674.35516      967.08359    
    108500   108500         182.08279     -182.66556      17219.778      17397.62       2919.4748      14478.145      1601.1106      4263.9077     -5903.9008      128.91228     -3797.5403      61954         -43768.344     -555.01953      66757.644      40.56645       40.56645       40.56645       1.2552747      575.23424     -1155.926       32.695041    
    109000   109000         180.298       -86.650847      17262.752      17346.378      2890.858       14455.52       1597.2907      4346.1051     -5931.3756      123.33643     -3875.6518      61959.828     -43764.012     -559.90887      66174.69       40.448024      40.448024      40.448024      1.2663328      294.28817     -434.55937     -119.68134    
    109500   109500         176.98056      185.72876      17474.328      17294.532      2837.6669      14456.865      1625.4627      4296.3438     -5921.221       141.39827     -3852.1263      61936.668     -43769.66      -558.1921       66378.216      40.489448      40.489448      40.489448      1.26245        225.96624      1014.0515     -682.83145    
    110000   110000         180.77658      819.30855      18177.798      17379.801      2898.5314      14481.27       1620.385       4318.8528     -5982.7445      127.09319     -3771.899       61939.621     -43770.039     -554.79364      66784.824      40.571954      40.571954      40.571954      1.2547638      1021.0891      1425.4211      11.415442    
    110500   110500         183.99081      156.94091      17548.903      17397.197      2950.0676      14447.13       1637.6659      4317.0682     -5942.5842      122.89131     -3858.6516      61935.024     -43764.284     -559.01         66281.097      40.469692      40.469692      40.469692      1.2642999      1407.4178     -404.02614     -532.56894    
    111000   111000         182.14225     -454.96788      16892.205      17332.675      2920.4282      14412.247      1596.6437      4299.3973     -5913.3889      129.59274     -3847.4903      61913.917     -43766.425     -558.14787      66383.476      40.490518      40.490518      40.490518      1.26235        272.4968      -1330.0822     -307.31823    
    111500   111500         180.3953      -481.81285      16854.117      17322.349      2892.4181      14429.931      1651.4863      4279.6311     -5957.621       120.79967     -3838.5288      61935.235     -43761.072     -556.03503      66635.723      40.541739      40.541739      40.541739      1.2575714     -623.72438     -790.46289     -31.251294    
    112000   112000         179.29809      88.307469      17323.399      17237.811      2874.8257      14362.985      1582.206       4305.6141     -5932.5815      111.26412     -3847.3367      61921.711     -43777.892     -557.53349      66456.628      40.505385      40.505385      40.505385      1.2609605      341.97322     -385.08671      308.0359     
    112500   112500         178.65942      357.78303      17621.174      17274.592      2864.5854      14410.007      1581.7216      4319.9092     -5944.1729      124.93254     -3848.9914      61949.177     -43772.569     -557.82678      66421.687      40.498285      40.498285      40.498285      1.2616238      418.90397     -318.67532      973.12043    
    113000   113000         182.85617     -311.89006      17057.029      17359.691      2931.8751      14427.816      1567.5923      4288.3213     -5907.7199      129.1445      -3802.638       61924.043     -43770.927     -556.83755      66539.686      40.522253      40.522253      40.522253      1.2593865      584.05073     -851.56578     -668.15513    
    113500   113500         181.04816      435.47093      17807.261      17385.21       2902.8859      14482.324      1621.3517      4324.0708     -5932.6066      126.48713     -3810.3064      61925.124     -43771.797     -557.54475      66455.285      40.505112      40.505112      40.505112      1.2609859      158.19002      336.19577      812.02702    
    114000   114000         180.71769      26.009449      17384.203      17359.05       2897.5872      14461.463      1674.735       4332.5569     -5931.1701      136.56242     -3866.7448      61889.147     -43773.623     -558.77224      66309.3        40.475431      40.475431      40.475431      1.2637621      661.61518     -559.0588      -24.528036    
    114500   114500         179.20768      398.95892      17703.27       17316.613      2873.3761      14443.237      1568.8718      4321.9369     -5924.493       128.25452     -3836.0017      61957.431     -43772.763     -557.55373      66454.216      40.504895      40.504895      40.504895      1.2610062     -2.0540177      352.4038       846.52697    
    115000   115000         179.31902     -1015.7793      16333.175      17317.37       2875.1613      14442.208      1632.9452      4321.9061     -5922.8244      117.55418     -3851.7405      61921.681     -43777.313     -557.70371      66436.344      40.501264      40.501264      40.501264      1.2613455     -1013.7019     -1810.0861     -223.54987    
    115500   115500         179.32091      317.47853      17676.521      17369.712      2875.1916      14494.52       1677.9532      4343.5014     -5946.6922      132.76472     -3862.1508      61919.935     -43770.791     -559.15295      66264.152      40.466243      40.466243      40.466243      1.2646232     -404.60482      89.962296      1267.0781    
    116000   116000         182.84722      164.22482      17526.348      17367.238      2931.7317      14435.506      1680.5556      4317.8798     -6006.6883      125.54654     -3833.9666      61916.594     -43764.415     -557.73501      66432.616      40.500506      40.500506      40.500506      1.2614162      985.65104     -658.95502      165.97845    
    116500   116500         183.57102     -691.83245      16742.589      17412.95       2943.3369      14469.613      1653.3964      4323.8552     -5916.9208      138.45427     -3870.8364      61914.826     -43773.162     -557.67006      66440.353      40.502078      40.502078      40.502078      1.2612693     -401.51605     -534.42287     -1139.5584    
    117000   117000         182.45374      132.2355       17511.551      17383.369      2925.4226      14457.946      1650.8393      4318.1404     -5926.8209      145.90197     -3861.4078      61900.717     -43769.424     -557.45018      66466.56       40.507403      40.507403      40.507403      1.2607721      2030.8174     -1150.524      -483.58686    
    117500   117500         182.64315      271.81046      17597.755      17335.172      2928.4597      14406.712      1673.3357      4297.7316     -5957.6005      119.41717     -3839.0049      61886.525     -43773.692     -559.35093      66240.697      40.461468      40.461468      40.461468      1.2650709      1211.3446      612.60799     -1008.5212    
    118000   118000         178.16786      590.18972      17871.636      17300.47       2856.7038      14443.766      1614.3938      4276.5521     -5928.1029      127.9629      -3800.7523      61926.631     -43772.919     -558.36         66358.256      40.485389      40.485389      40.485389      1.2628298      909.02756      693.40157      168.14002    
    118500   118500         176.8462      -330.90803      16999.639      17321.555      2835.5125      14486.043      1635.1438      4364.2154     -5951.6989      126.127       -3850.1103      61929.633     -43767.267     -555.45604      66705.182      40.55582       40.55582       40.55582       1.2562619     -862.8176       236.01769     -365.92419    
    119000   119000         179.805        385.19335      17662.358      17289.741      2882.9533      14406.788      1581.9491      4300.9712     -5934.7709      104.57441     -3810.5252      61934.444     -43769.856     -558.60098      66329.629      40.479567      40.479567      40.479567      1.2633748      530.22172     -171.31371      796.67206    
    119500   119500         178.37345     -369.27881      16957.694      17315.498      2860.0001      14455.498      1622.5296      4370.3229     -5935.1345      131.17985     -3880.8262      61920.434     -43773.007     -557.69139      66437.812      40.501562      40.501562      40.501562      1.2613176      1134.4262     -2197.9955     -44.267125    
    120000   120000         177.05248     -279.30008      17045.275      17316.672      2838.82        14477.852      1654.546       4344.3311     -5953.15        119.8185      -3848.608       61933.084     -43772.17      -556.09852      66628.114      40.540196      40.540196      40.540196      1.257715      -1094.9368     -549.97221      807.00877    
    120500   120500         181.05652      408.29332      17804.464      17408.99       2903.02        14505.97       1597.1077      4340.0785     -5911.104       121.36988     -3799.0776      61934.013     -43776.418     -557.8783       66415.553      40.497039      40.497039      40.497039      1.2617403      868.94675     -536.26811      892.20133    
    121000   121000         180.94809     -290.12588      17156.14       17437.132      2901.2815      14535.851      1680.0592      4324.0786     -5937.5758      125.36748     -3797.2611      61908.553     -43767.371     -557.928        66409.637      40.495836      40.495836      40.495836      1.2618527      41.340851     -796.15285     -115.56562    
    121500   121500         178.93919      506.46187      17834.622      17344.735      2869.0711      14475.663      1611.6555      4273.7176     -5863.7676      118.6193      -3818.1966      61926.735     -43773.1       -558.64401      66324.52       40.478527      40.478527      40.478527      1.2634721      1118.1203     -1009.2934      1410.5587    
    122000   122000         177.74146      38.395261      17378.45       17341.264      2849.867       14491.397      1620.1197      4360.9953     -5947.8042      129.37541     -3851.9004      61937.865     -43757.254     -557.9364       66408.637      40.495633      40.495633      40.495633      1.2618717      635.86676      291.59447     -812.27545    
    122500   122500         179.78114     -516.67519      16806.189      17308.72       2882.5708      14426.149      1601.1677      4290.1563     -5943.7528      125.28057     -3792.7111      61910.967     -43764.959     -555.57154      66691.314      40.55301       40.55301       40.55301       1.2565232     -1625.3179     -778.65231      853.94465    
    123000   123000         176.76904      236.15711      17510.961      17283.02       2834.2754      14448.745      1653.0467      4355.6453     -5967.0806      123.12754     -3840.3272      61894.021     -43769.688     -559.8391       66182.937      40.449704      40.449704      40.449704      1.266175       1006.5278      39.343208     -337.39965    
    123500   123500         182.80335     -387.67168      16994.92       17369.541      2931.0282      14438.513      1657.6895      4289.313      -5946.5623      127.02094     -3821.4146      61902.508     -43770.041     -559.18649      66260.176      40.465433      40.465433      40.465433      1.264699       313.07838     -453.14958     -1022.9438    
    124000   124000         181.09703      893.67134      18252.049      17386.69       2903.6694      14483.021      1566.5114      4360.7376     -5890.2862      130.56841     -3870.8012      61957.405     -43771.114     -558.04194      66396.078      40.49308       40.49308       40.49308       1.2621104      1470.4739      652.95371      557.58639    
    124500   124500         179.32999      388.34812      17722.851      17347.865      2875.3372      14472.528      1600.7246      4319.4789     -5894.0815      123.32496     -3870.095       61962.907     -43769.731     -559.61705      66209.198      40.455053      40.455053      40.455053      1.2656728      135.9489      -755.04429      1784.1398    
    125000   125000         179.64184      906.54026      18203.254      17325.579      2880.3373      14445.242      1636.8717      4294.412      -5936.0187      124.25344     -3852.3765      61945.405     -43767.305     -558.13398      66385.129      40.490854      40.490854      40.490854      1.2623186      2246.148      -83.615034      557.0878     
    125500   125500         180.14518      4.2840795      17321.876      17317.73       2888.4078      14429.322      1604.1394      4248.1975     -5907.5137      142.48198     -3845.2283      61958.894     -43771.649     -558.29696      66365.748      40.486913      40.486913      40.486913      1.2626872     -411.14331     -204.57283      628.56838    
    126000   126000         178.53391      357.34274      17608.928      17263.44       2862.5729      14400.867      1634.6035      4320.1071     -5963.3407      120.91307     -3865.4426      61925.571     -43771.544     -558.90419      66293.645      40.472245      40.472245      40.472245      1.2640605      870.15897     -141.18489      343.05415    
    126500   126500         180.00488      18.03654       17335.212      17317.738      2886.1582      14431.58       1654.3272      4345.4694     -6008.5803      119.89098     -3834.6968      61919.421     -43764.252     -557.74976      66430.859      40.500149      40.500149      40.500149      1.2614496      280.96583      260.49061     -487.34682    
    127000   127000         180.53376      942.90675      18284.493      17370.166      2894.6381      14475.528      1629.0104      4338.4727     -5971.376       128.78611     -3782.6723      61906.17      -43772.863     -557.25299      66490.079      40.51218       40.51218       40.51218       1.2603261      1544.2746      234.1393       1050.3064    
    127500   127500         179.42778      351.49229      17671.027      17332.072      2876.9051      14455.167      1618.2356      4304.5156     -5928.1601      136.87837     -3844.6996      61936.665     -43768.268     -560.35025      66122.565      40.437401      40.437401      40.437401      1.2673311      52.853544     -1236.3041      2237.9275    
    128000   128000         181.3513       52.634314      17445.612      17394.559      2907.7464      14486.813      1598.6096      4350.7832     -5880.9057      119.39638     -3834.3498      61903.767     -43770.488     -557.10153      66508.157      40.515851      40.515851      40.515851      1.2599835      55.429281     -341.16863      443.64229    
    128500   128500         182.28448     -23.683622      17341.093      17363.969      2922.7087      14441.26       1646.6463      4356.9306     -5958.0662      129.36772     -3857.3235      61897.243     -43773.537     -559.4267       66231.725      40.459641      40.459641      40.459641      1.2652423      1055.1443     -748.36205     -377.83311    
    129000   129000         178.49097      20.604025      17369.6        17349.693      2861.8845      14487.808      1589.6799      4332.7539     -5893.6479      120.20582     -3831.0062      61941.055     -43771.232     -559.27371      66249.843      40.46333       40.46333       40.46333       1.2648963      568.74525      48.727141     -555.66031    
    129500   129500         177.85596      323.41925      17638.24       17324.155      2851.7028      14472.452      1642.5218      4362.7195     -5987.5777      134.46693     -3823.7623      61907.695     -43763.611     -556.42195      66589.386      40.532339      40.532339      40.532339      1.2584465      1127.8031      13.245698     -170.79107    
    130000   130000         180.49026     -138.93505      17187.179      17321.354      2893.9405      14427.413      1596.1459      4371.3961     -5962.5272      125.69406     -3853.3142      61919.595     -43769.576     -559.53495      66218.912      40.457032      40.457032      40.457032      1.2654871     -32.785179     -86.013132     -298.00685    
    130500   130500         178.86483     -92.360591      17209.994      17299.073      2867.8788      14431.194      1592.0791      4371.2178     -5926.6482      122.53277     -3865.8237      61909.288     -43771.451     -560.26665      66132.432      40.439412      40.439412      40.439412      1.267142      -67.200988     -1007.3993      797.51851    
    131000   131000         182.48264     -370.01057      17012.784      17371.794      2925.8861      14445.908      1620.7076      4277.0544     -5909.0171      123.70625     -3845.417       61950.947     -43772.073     -556.91983      66529.855      40.520257      40.520257      40.520257      1.2595726      1137.5049     -1460.159      -787.37771    
    131500   131500         181.67747      221.42511      17635.411      17422.025      2912.976       14509.049      1717.8031      4266.0147     -5934.2575      134.63609     -3824.9408      61916.785     -43766.992     -560.71755      66079.251      40.428569      40.428569      40.428569      1.2681618      629.74334     -822.49714      857.02914    
    132000   132000         182.13391      345.96472      17697.176      17363.683      2920.2946      14443.388      1590.7504      4360.0058     -5912.2951      123.28721     -3855.3873      61899.609     -43762.582     -560.56961      66096.69       40.432125      40.432125      40.432125      1.2678272      171.99964     -94.739666      960.63418    
    132500   132500         181.43499      1019.427       18343.119      17354.95       2909.0883      14445.862      1583.2465      4348.8167     -5954.6222      128.54473     -3855.291       61963.278     -43768.111     -557.45555      66465.92       40.507273      40.507273      40.507273      1.2607842      1713.7616      1550.0821     -205.56275    
    133000   133000         178.7865      -91.057956      17213.16       17301.542      2866.6229      14434.92       1630.1844      4321.5941     -5950.3538      115.43567     -3851.487       61938.689     -43769.143     -556.72         66553.736      40.525105      40.525105      40.525105      1.2591206      327.72872     -861.82537      260.92279    
    133500   133500         182.92244     -363.35084      16994.787      17346.614      2932.9377      14413.676      1617.4658      4307.7152     -5929.4179      119.50656     -3849.1034      61915.095     -43767.585     -558.06162      66393.736      40.492604      40.492604      40.492604      1.2621549      946.60138     -1152.0487     -884.60521    
    134000   134000         183.16326      953.34186      18316.593      17397.192      2936.7989      14460.393      1656.885       4318.1926     -5938.5276      121.11855     -3845.9845      61919.132     -43770.423     -560.3104       66127.268      40.438359      40.438359      40.438359      1.2672409      855.68843      458.47134      1545.8658    
    134500   134500         180.12461      848.00891      18183.5        17360.718      2888.0779      14472.64       1620.1934      4387.5339     -5993.2028      131.18615     -3799.5263      61905.81      -43779.354     -556.9306       66528.569      40.519996      40.519996      40.519996      1.2595969      1326.0523     -411.18314      1629.1575    
    135000   135000         182.07956      544.88324      17902.408      17374.111      2919.4231      14454.688      1653.8557      4258.7755     -5963.1249      131.31104     -3827.2949      61970.689     -43769.523     -557.32835      66481.089      40.510354      40.510354      40.510354      1.2604965     -215.52302      1261.5025      588.67028    
    135500   135500         179.45784      223.15814      17560.943      17345.003      2877.387       14467.616      1611.6308      4360.3223     -5934.0993      116.09448     -3858.2685      61940.029     -43768.093     -558.42517      66350.512      40.483814      40.483814      40.483814      1.2629772      429.64009      275.18684     -35.352523    
    136000   136000         179.18849      929.87535      18214.675      17315.97       2873.0683      14442.902      1590.2631      4295.6263     -5931.4508      122.79863     -3788.0742      61918.27      -43764.532     -559.10419      66269.931      40.467419      40.467419      40.467419      1.2645129      1209.7801      381.00903      1198.837     
    136500   136500         178.58498      62.77465       17349.847      17289.189      2863.3917      14425.797      1562.0678      4321.8659     -5918.1123      117.25317     -3834.1494      61946.869     -43769.997     -559.21783      66256.464      40.464678      40.464678      40.464678      1.2647699      1059.8714     -997.74234      126.19494    
    137000   137000         180.75961      644.2095       17956.247      17332.636      2898.2594      14434.377      1634.1836      4331.2291     -5918.4106      122.66243     -3911.3943      61941.517     -43765.411     -558.21117      66375.949      40.488987      40.488987      40.488987      1.2624932      1188.4729      527.43179      216.7238     
    137500   137500         180.27387      491.43453      17871.192      17394.918      2890.471       14504.447      1664.3852      4340.7148     -5942.7733      137.71932     -3836.091       61904.369     -43763.877     -557.56305      66453.105      40.504669      40.504669      40.504669      1.2610273      965.37233     -580.39648      1089.3277    
    138000   138000         178.75685     -1139.1197      16210.665      17321.502      2866.1475      14455.355      1631.9708      4280.9255     -5895.4991      123.97111     -3831.8149      61917.129     -43771.328     -554.12027      66865.982      40.588382      40.588382      40.588382      1.2532409     -787.32584     -1030.1523     -1599.8809    
    138500   138500         175.369        56.457278      17296.35       17241.66       2811.8276      14429.832      1656.7222      4311.1703     -5941.2962      131.69182     -3849.8898      61899.201     -43777.767     -557.82502      66421.896      40.498328      40.498328      40.498328      1.2616198     -116.60148     -90.12891       376.10222    
    139000   139000         179.00733      374.4294       17676.861      17314.148      2870.1637      14443.984      1659.4558      4273.3898     -5929.4636      136.52795     -3824.1773      61900.978     -43772.726     -557.81672      66422.885      40.498529      40.498529      40.498529      1.261601       661.06951      282.67267      179.546      
    139500   139500         179.70521     -71.029273      17266.869      17335.595      2881.3532      14454.242      1607.231       4345.8841     -5895.7294      127.52098     -3861.2334      61903.492     -43772.924     -558.47453      66344.648      40.482622      40.482622      40.482622      1.2630888      1291.3259     -991.32334     -513.09037    
    140000   140000         182.18571      1087.6531      18407.264      17355.451      2921.1251      14434.326      1621.0202      4336.5183     -5959.8436      119.8497      -3844.5786      61927.764     -43766.405     -558.77493      66308.98       40.475366      40.475366      40.475366      1.2637682      1416.641       544.20467      1302.1138    
    140500   140500         179.80616     -512.10752      16844.208      17338.103      2882.9719      14455.131      1650.2005      4318.8211     -5922.2211      126.30866     -3849.2809      61902.877     -43771.574     -560.28884      66129.812      40.438878      40.438878      40.438878      1.2671922     -461.43823     -547.73855     -527.14577    
    141000   141000         178.22057     -405.12336      16893.807      17288.703      2857.5489      14431.154      1666.275       4320.9655     -5978.7114      110.79252     -3826.359       61907.151     -43768.96      -554.35765      66837.349      40.582588      40.582588      40.582588      1.2537777      245.84099     -926.08812     -535.12295    
    141500   141500         175.2652      -140.69634      17112.494      17248.899      2810.1631      14438.736      1607.1027      4346.6629     -5928.2728      108.08072     -3844.804       61921.659     -43771.692     -557.36416      66476.818      40.509487      40.509487      40.509487      1.2605775      379.75964      401.77074     -1203.6194    
    142000   142000         180.56231      29.182883      17383.967      17355.652      2895.0958      14460.556      1647.3186      4288.6114     -5928.6715      133.25724     -3823.4007      61915.085     -43771.644     -556.92372      66529.39       40.520163      40.520163      40.520163      1.2595814      347.31453     -963.86576      704.09987    
    142500   142500         180.40486     -1096.6182      16305.198      17369.937      2892.5714      14477.365      1640.7543      4284.4315     -5925.5651      120.34938     -3785.1675      61913.196     -43770.633     -556.54139      66575.094      40.529439      40.529439      40.529439      1.2587167     -1038.3243     -664.17699     -1587.3535    
    143000   143000         180.35129      426.11828      17735.67       17322.061      2891.7124      14430.349      1601.7351      4341.048      -5929.6822      119.58135     -3851.1438      61922.677     -43773.867     -556.70547      66555.473      40.525457      40.525457      40.525457      1.2590877      1698.8284     -810.08626      389.61268    
    143500   143500         178.41474     -40.001844      17282.231      17321.048      2860.6622      14460.385      1641.3793      4312.398      -5919.617       121.16453     -3824.4432      61899.997     -43770.493     -556.86835      66536.006      40.521506      40.521506      40.521506      1.2594561      547.98097     -520.1957      -147.7908     
    144000   144000         182.32442      190.79625      17548.469      17364.079      2923.3491      14440.73       1587.732       4285.9689     -5891.0731      119.63765     -3812.3789      61916.876     -43766.032     -559.13648      66266.104      40.46664       40.46664       40.46664       1.2645859      1075.3913     -96.962222     -406.04036    
    144500   144500         180.86953      1681.3048      19010.456      17385.003      2900.0217      14484.981      1658.5678      4346.1343     -5969.4548      118.17885     -3796.5874      61899.528     -43771.386     -558.92948      66290.645      40.471635      40.471635      40.471635      1.2641177      3253.6722      1331.9192      458.32304    
    145000   145000         183.50601      764.54602      18159.932      17418.315      2942.2946      14476.02       1605.166       4333.6675     -5929.8437      119.74853     -3815.5503      61935.957     -43773.125     -557.06935      66511.999      40.516632      40.516632      40.516632      1.2599107      1754.0249     -213.43286      753.04607    
    145500   145500         178.42027      531.43481      17830.11       17314.634      2860.7509      14453.884      1643.7693      4317.9031     -5957.3973      117.592       -3821.1425      61919.201     -43766.042     -557.09252      66509.233      40.51607       40.51607       40.51607       1.2599631      847.85683      0.24881915     746.19879    
    146000   146000         180.9271      -22.506544      17252.988      17274.844      2900.9448      14373.899      1608.1622      4291.7116     -5989.7337      114.92362     -3826.3309      61943.384     -43768.218     -556.46792      66583.884      40.531223      40.531223      40.531223      1.2585505      454.00523     -1353.4592      831.93429    
    146500   146500         179.05213     -425.99653      16885.315      17296.666      2870.8819      14425.784      1632.2637      4330.5089     -5950.8494      115.1801      -3855.7361      61920.68      -43766.263     -559.60248      66210.922      40.455404      40.455404      40.455404      1.2656398      857.71156     -1466.485      -669.21617    
    147000   147000         180.32454      648.78156      17951.94       17324.04       2891.2835      14432.757      1628.6308      4306.8447     -5979.9951      126.16562     -3825.1937      61944.067     -43767.763     -558.33243      66361.532      40.486056      40.486056      40.486056      1.2627674      700.92616      170.34853      1075.07      
    147500   147500         183.93215      780.701        18160.077      17404.042      2949.1272      14454.914      1691.7792      4333.3693     -5981.2534      117.01279     -3837.4686      61902.952     -43771.477     -557.99172      66402.053      40.494294      40.494294      40.494294      1.2619968      1183.711       476.62659      681.76541    
    148000   148000         182.65305     -1140.395       16315.885      17417.577      2928.6184      14488.959      1675.739       4380.9901     -5941.7236      124.87409     -3865.6563      61884.063     -43769.328     -559.34564      66241.324      40.461595      40.461595      40.461595      1.265059      -856.99953     -620.01275     -1944.1727    
    148500   148500         184.22061     -277.80235      17104.909      17374.211      2953.7523      14420.459      1630.1373      4373.1283     -5983.1034      125.79143     -3848.8479      61897.787     -43774.434     -557.41829      66470.363      40.508176      40.508176      40.508176      1.2606999      1021.0343     -1688.5551     -165.8862     
    149000   149000         181.95495     -307.81739      17045.354      17344.286      2917.4251      14426.861      1633.2621      4317.847      -5924.7843      107.89137     -3830.3959      61893.207     -43770.166     -556.42368      66589.179      40.532297      40.532297      40.532297      1.2584504      180.83763     -839.21773     -265.07208    
    149500   149500         172.67249      273.70264      17423.616      17158.215      2768.5922      14389.623      1557.5644      4316.4789     -5909.6061      130.75109     -3850.3107      61914.234     -43769.489     -557.26468      66488.685      40.511897      40.511897      40.511897      1.2603525      382.29217     -1044.7279      1483.5437    
    150000   150000         180.37789     -87.982273      17279.527      17364.921      2892.1389      14472.782      1680.8517      4295.519      -5956.7311      118.49373     -3816.5031      61923.518     -43772.366     -556.74383      66550.888      40.524527      40.524527      40.524527      1.2591745      168.74101     -221.03875     -211.64908    
    150500   150500         180.3161      -643.06887      16693.444      17315.873      2891.1481      14424.725      1714.0648      4332.2317     -5985.4748      123.49685     -3895.7316      61899.782     -43763.645     -558.28075      66367.676      40.487305      40.487305      40.487305      1.2626505     -500.0167      -623.23725     -805.95267    
    151000   151000         175.01101      558.70013      17788.594      17248.235      2806.0875      14442.148      1617.1226      4354.4341     -5956.1449      138.59696     -3856.926       61925.363     -43780.298     -558.70374      66317.429      40.477085      40.477085      40.477085      1.2636072      1004.8858     -100.77975      771.99431    
    151500   151500         178.56547     -522.71585      16810.74       17318.47       2863.0789      14455.391      1602.6577      4287.5171     -5900.2936      121.30198     -3845.0732      61952.686     -43763.404     -556.3117       66602.582      40.535017      40.535017      40.535017      1.2581972     -737.49647     -986.47698      155.82589    
    152000   152000         181.20329      482.10731      17840.671      17373.872      2905.3731      14468.499      1669.0263      4345.2751     -5958.4013      123.14045     -3895.3021      61951.552     -43766.792     -558.08296      66391.197      40.492088      40.492088      40.492088      1.2622032      1239.0846     -157.31741      364.55473    
    152500   152500         179.58092      268.84647      17591.149      17330.823      2879.3604      14451.462      1646.1245      4312.5914     -5954.208       122.80093     -3807.9055      61906.255     -43774.196     -558.04845      66395.303      40.492922      40.492922      40.492922      1.2621251      1052.6969     -814.57936      568.42188    
    153000   153000         180.95609      1018.0819      18304.27       17317.058      2901.4097      14415.648      1620.6448      4301.0957     -5983.1759      124.612       -3765.3101      61886.799     -43769.017     -557.25962      66489.289      40.51202       40.51202       40.51202       1.2603411      2194.4944     -26.454899      886.20605    
    153500   153500         179.70557     -493.02999      16847.129      17323.33       2881.3591      14441.971      1640.1012      4267.0659     -5930.1031      141.63711     -3852.7747      61941.26      -43765.215     -559.45914      66227.885      40.458859      40.458859      40.458859      1.2653157     -179.45032     -817.07208     -482.56758    
    154000   154000         178.54777     -96.306373      17241.38       17334.688      2862.7952      14471.892      1677.9639      4330.3763     -5998.533       113.70055     -3842.8007      61954.328     -43763.143     -557.72821      66433.426      40.500671      40.500671      40.500671      1.2614009      579.95612     -428.83961     -440.03563    
    154500   154500         181.90612      373.9302       17728.719      17367.049      2916.6422      14450.407      1633.6674      4296.5108     -5952.1073      134.06758     -3837.5875      61942.83      -43766.973     -558.68139      66320.082      40.477625      40.477625      40.477625      1.2635566      724.77261     -743.01422      1140.0322    
    155000   155000         179.46409      284.6766       17620.383      17344.302      2877.4872      14466.815      1628.3235      4325.3462     -5969.6586      115.53365     -3811.3752      61948.474     -43769.828     -557.18722      66497.929      40.513774      40.513774      40.513774      1.2601773      1355.6728     -885.34192      383.69894    
    155500   155500         175.11405      334.49817      17549.859      17225.389      2807.7396      14417.649      1629.424       4303.3319     -5940.549       130.91385     -3851.7838      61920.196     -43773.884     -557.06352      66512.695      40.516773      40.516773      40.516773      1.2598975      1724.3183      370.88757     -1091.7114    
    156000   156000         178.54775     -107.72399      17197.47       17301.596      2862.7948      14438.801      1689.8247      4292.2329     -5965.0585      126.75552     -3867.0422      61931.316     -43769.227     -559.03325      66278.34       40.469131      40.469131      40.469131      1.2643524      247.8288      -1510.6989      939.69815    
    156500   156500         180.08906      1060.8351      18381.368      17355.752      2887.5079      14468.244      1633.4585      4315.3486     -5922.0951      124.64842     -3813.8303      61896.868     -43766.154     -558.91798      66292.009      40.471912      40.471912      40.471912      1.2640917      2261.7733     -355.83098      1276.5631    
    157000   157000         182.95242     -512.8085       16896.755      17394.494      2933.4183      14461.076      1709.996       4267.3076     -5962.1066      119.30817     -3810.1421      61904.548     -43767.836     -556.72194      66553.503      40.525058      40.525058      40.525058      1.259125      -330.29923     -1326.5623      118.43599    
    157500   157500         183.06434     -177.70832      17186.635      17359.035      2935.2129      14423.822      1604.0137      4342.4766     -5938.6586      115.04423     -3871.3513      61939.595     -43767.297     -556.99866      66520.44       40.518346      40.518346      40.518346      1.2597508      726.72154     -869.5259      -390.32062    
    158000   158000         177.65247      773.13048      18071.281      17321.903      2848.4401      14473.463      1628.518       4333.3891     -5954.097       122.21879     -3824.8323      61937.834     -43769.568     -557.48966      66461.852      40.506447      40.506447      40.506447      1.2608613      1219.4889     -1177.0982      2277.0008    
    158500   158500         180.1132      -463.64013      16929.334      17378.846      2887.8949      14490.951      1647.0465      4382.5337     -5928.068       121.92136     -3869.5707      61904.039     -43766.951     -557.34579      66479.009      40.509932      40.509932      40.509932      1.2605359     -455.11518     -663.16197     -272.64325    
    159000   159000         180.95273      706.37892      18052.782      17367.761      2901.3558      14466.405      1614.608       4394.9267     -5982.6181      124.78454     -3845.2953      61930.758     -43770.759     -557.21004      66495.205      40.513221      40.513221      40.513221      1.2602289      1792.7234      539.52531     -213.11199    
    159500   159500         178.90216     -1136.6045      16235.491      17343.098      2868.4774      14474.62       1663.6351      4349.7056     -5952.5928      139.17156     -3841.7813      61886.933     -43770.451     -554.50965      66819.028      40.57888       40.57888       40.57888       1.2541215     -1469.6382     -901.95649     -1038.2187    
    160000   160000         178.22105     -522.85559      16811.899      17320.069      2857.5567      14462.512      1609.2064      4368.7935     -5936.6959      134.82588     -3855.7017      61912.925     -43770.841     -555.97834      66642.517      40.543117      40.543117      40.543117      1.2574432     -91.484795     -1054.7658     -422.31617    
    160500   160500         181.07279     -459.3874       16898.806      17344.924      2903.2807      14441.643      1612.2279      4316.8898     -5921.1523      123.00998     -3846.3955      61924.798     -43767.734     -556.43515      66587.806      40.532019      40.532019      40.532019      1.2584764     -299.29406     -76.594379     -1002.2738    
    161000   161000         180.02846     -64.434816      17336.507      17399.166      2886.5363      14512.63       1651.8217      4376.9501     -5937.5418      140.46332     -3835.04        61894.261     -43778.285     -555.67295      66679.143      40.550543      40.550543      40.550543      1.2567525      216.55708     -226.20231     -183.65922    
    161500   161500         182.70867      252.9239       17592.655      17348.075      2929.5101      14418.565      1576.5283      4279.7796     -5933.4119      137.58237     -3841.0136      61963.003     -43763.903     -558.79883      66306.144      40.474789      40.474789      40.474789      1.2638223      710.08423     -696.51648      745.20396    
    162000   162000         178.0163       876.47451      18145.308      17297.473      2854.2738      14443.199      1563.4282      4286.9051     -5883.8499      121.66354     -3839.5283      61962.633     -43768.053     -558.61606      66327.839      40.479203      40.479203      40.479203      1.2634089      1637.7004      1386.6961     -394.97292    
    162500   162500         180.37011     -565.7439       16776.137      17326.207      2892.0142      14434.193      1599.901       4283.3734     -5943.228       118.84539     -3793.9065      61933.222     -43764.015     -555.75921      66668.793      40.548444      40.548444      40.548444      1.2569476     -217.77114     -1022.0767     -457.38382    
    163000   163000         183.16733     -963.40445      16481.422      17418.947      2936.8641      14482.083      1639.7178      4371.8518     -5957.7686      117.45128     -3821.9478      61899.024     -43766.246     -555.27848      66726.512      40.560143      40.560143      40.560143      1.2558604     -1290.2571     -739.59536     -860.3609     
    163500   163500         180.89577      83.165964      17437.432      17356.746      2900.4425      14456.304      1622.3401      4392.512      -5955.9509      112.79858     -3872.0653      61920.467     -43763.798     -556.97502      66523.263      40.518919      40.518919      40.518919      1.2596974      752.12483     -1071.4784      568.85147    
    164000   164000         179.38662      8.0770528      17416.513      17408.662      2876.2452      14532.417      1602.52        4342.3695     -5901.0434      126.30145     -3804.0098      61935.334     -43769.055     -555.90484      66651.328      40.544903      40.544903      40.544903      1.257277       400.85152     -570.86582      194.24545    
    164500   164500         177.444       -7.1621787      17363.018      17369.964      2845.0976      14524.867      1591.7013      4378.0589     -5915.9951      128.01908     -3805.256       61911.322     -43762.983     -557.14296      66503.211      40.514847      40.514847      40.514847      1.2600772      178.89256     -680.1317       479.75261    
    165000   165000         180.12649      38.269761      17392.56       17355.454      2888.1079      14467.346      1608.5389      4327.6222     -5934.252       126.26905     -3845.4217      61946.348     -43761.759     -557.2994       66484.543      40.511056      40.511056      40.511056      1.260431       1149.4547     -822.40235     -212.24306    
    165500   165500         183.36558     -259.97724      17084.233      17336.238      2940.0428      14396.195      1648.6972      4294.8553     -5959.4136      128.00589     -3820.8725      61877.543     -43772.62      -557.45667      66465.786      40.507246      40.507246      40.507246      1.2607867     -644.96957      746.96161     -881.92377    
    166000   166000         178.67626     -583.64818      16730.22       17296.441      2864.8554      14431.586      1627.7883      4285.8884     -5927.6337      125.13995     -3840.3483      61932.83      -43772.079     -556.99399      66520.997      40.518459      40.518459      40.518459      1.2597403      73.55183      -919.09585     -905.40052    
    166500   166500         181.30708     -746.31522      16700.955      17427.267      2907.0373      14520.229      1662.4301      4398.1663     -5936.3311      121.49231     -3839.245       61884.103     -43770.386     -555.24472      66730.569      40.560965      40.560965      40.560965      1.255784       28.606015     -1381.1629     -886.38883    
    167000   167000         182.59025     -602.50686      16839.635      17424.177      2927.6114      14496.566      1664.2488      4304.9155     -5905.7104      129.66171     -3852.5017      61921.593     -43765.642     -556.96941      66523.933      40.519055      40.519055      40.519055      1.2596847     -717.44865     -1160.9952      70.923242    
    167500   167500         178.60448      122.32931      17408.864      17290.548      2863.7044      14426.844      1621.0622      4363.1688     -5965.6805      119.81961     -3853.0421      61919.224     -43777.708     -558.69233      66318.784      40.477361      40.477361      40.477361      1.2635814      1361.4323     -424.12748     -570.31686    
    168000   168000         179.47071     -660.27583      16667.984      17312.286      2877.5934      14434.693      1615.8176      4347.8153     -5964.3311      129.24462     -3870.5904      61949.662     -43772.925     -553.75934      66909.564      40.597199      40.597199      40.597199      1.2524246     -224.56207     -915.86438     -840.40104    
    168500   168500         177.61913     -225.02275      17118.768      17337.25       2847.9055      14489.344      1687.1142      4321.4333     -5963.9658      132.63557     -3859.46        61945.743     -43774.156     -556.53984      66575.281      40.529477      40.529477      40.529477      1.2587131     -32.725959     -268.08243     -374.25986    
    169000   169000         179.83845     -836.96073      16584.781      17396.429      2883.4897      14512.939      1643.1357      4359.7171     -5923.3091      117.42693     -3835.4802      61918.631     -43767.182     -557.21437      66494.688      40.513116      40.513116      40.513116      1.2602387      307.88944     -1538.6545     -1280.1171    
    169500   169500         184.7529      -655.65014      16783.066      17418.292      2962.2869      14456.005      1632.0243      4361.4741     -5952.1585      132.51394     -3840.0077      61892.825     -43770.667     -557.73694      66432.386      40.50046       40.50046       40.50046       1.2614206      523.19182     -1566.6494     -923.49284    
    170000   170000         178.74696     -215.39744      17085.05       17294.04       2865.989       14428.051      1623.1808      4322.8408     -5948.7496      129.46195     -3860.3461      61931.444     -43769.781     -556.92911      66528.747      40.520032      40.520032      40.520032      1.2595936     -157.92804      313.33212     -801.59641    
    170500   170500         180.25348     -543.63304      16820.844      17345.078      2890.1441      14454.934      1719.5795      4286.5528     -5940.3276      128.48264     -3868.4284      61901.451     -43772.375     -560.35827      66121.618      40.437208      40.437208      40.437208      1.2673492     -888.69011     -648.75033     -93.458668    
    171000   171000         180.97442     -821.2846       16578.702      17376.572      2901.7036      14474.868      1682.8073      4313.8553     -5988.1238      125.18474     -3786.6134      61897.091     -43769.333     -556.22001      66613.561      40.537244      40.537244      40.537244      1.2579898     -24.117993     -1401.7694     -1037.9664    
    171500   171500         179.63887      853.68377      18164.575      17334.825      2880.2897      14454.535      1638.3926      4313.7183     -5946.0269      132.24079     -3809.7269      61905.631     -43779.693     -555.94917      66646.014      40.543826      40.543826      40.543826      1.2573772      1754.5562      443.22808      363.26701    
    172000   172000         180.36462     -663.73791      16645.775      17291.885      2891.9262      14399.959      1627.5349      4258.1277     -5944.6131      120.96281     -3822.5566      61928.706     -43768.202     -555.10474      66747.396      40.564374      40.564374      40.564374      1.2554674      413.0847      -1497.0498     -907.24865    
    172500   172500         178.97268     -1015.3038      16298.098      17289.712      2869.6081      14420.103      1629.8579      4308.2418     -5973.3814      132.56581     -3855.7745      61948.432     -43769.838     -553.27182      66968.521      40.609119      40.609119      40.609119      1.251322      -389.94911     -1054.3166     -1601.6457    
    173000   173000         179.10233      150.24069      17402.651      17257.073      2871.6868      14385.386      1582.9712      4333.1764     -5956.3205      124.59567     -3860.627       61930.455     -43768.864     -557.67132      66440.204      40.502048      40.502048      40.502048      1.2612722      595.47887     -1036.9116      892.15476    
    173500   173500         180.80972     -222.9822       17160.57       17376.816      2899.0627      14477.753      1647.8694      4304.1154     -5941.0662      120.28344     -3841.4033      61953.783     -43765.828     -557.1949       66497.012      40.513588      40.513588      40.513588      1.2601947      510.25227     -168.9411      -1010.2578    
    174000   174000         179.54643     -19.731737      17338.243      17357.324      2878.8075      14478.517      1634.5227      4340.6356     -5909.2256      121.9898      -3826.7685      61889.653     -43772.29      -558.77181      66309.35       40.475441      40.475441      40.475441      1.2637612      427.16715     -561.96361      75.601247    
    174500   174500         182.10093     -140.78569      17224.133      17360.747      2919.7658      14440.982      1663.6118      4291.913      -5966.4938      118.24819     -3849.493       61953.785     -43770.589     -556.86076      66536.913      40.52169       40.52169       40.52169       1.259439      -69.314991     -911.37518      558.33312    
    175000   175000         179.71405     -652.29721      16683.977      17317.131      2881.4951      14435.636      1648.1432      4268.5795     -5950.1099      134.26254     -3793.103       61895.71      -43767.846     -556.69993      66556.135      40.525592      40.525592      40.525592      1.2590752      862.29952     -940.36387     -1878.8273    
    175500   175500         179.64024      473.06201      17800.842      17341.37       2880.3117      14461.058      1610.9637      4328.2136     -5975.5604      129.05676     -3813.2173      61945.61      -43764.008     -556.34539      66598.549      40.534198      40.534198      40.534198      1.2582734      1043.9505      105.4971       269.73846    
    176000   176000         180.78166      1112.3234      18439.87       17365.556      2898.6129      14466.943      1578.5029      4390.0046     -5934.33        127.41231     -3850.1783      61924.099     -43768.567     -559.48074      66225.328      40.458338      40.458338      40.458338      1.2653645      1095.5833      174.51859      2066.8685    
    176500   176500         181.47288      382.94423      17718.987      17346.75       2909.6958      14437.054      1653.2914      4312.9059     -5966.4413      115.50191     -3810.4297      61904.479     -43772.253     -555.90461      66651.355      40.544909      40.544909      40.544909      1.2572765      452.59966     -562.87255      1259.1056    
    177000   177000         179.61726      302.90188      17579.711      17286.345      2879.9431      14406.402      1624.9386      4349.1654     -5938.9277      113.12897     -3872.9114      61903.331     -43772.323     -557.92711      66409.743      40.495857      40.495857      40.495857      1.2618507      1281.814      -208.67665     -164.43169    
    177500   177500         176.53188     -143.48965      17176.945      17316.428      2830.4728      14485.955      1646.5478      4328.9532     -5912.4742      115.91841     -3853.4651      61939.889     -43779.414     -555.88511      66653.694      40.545383      40.545383      40.545383      1.2572324      619.09833     -327.64634     -721.92094    
    178000   178000         177.36894      1550.0757      18810.54       17312.818      2843.8941      14468.924      1555.2429      4341.1795     -5896.8913      121.84128     -3837.14        61950.179     -43765.487     -559.25096      66252.539      40.463879      40.463879      40.463879      1.2648448      1552.2136      231.2553       2866.7581    
    178500   178500         182.35204     -607.64637      16747.988      17337.759      2923.792       14413.967      1613.0201      4347.704      -5966.2058      127.34945     -3863.6844      61930.422     -43774.639     -556.74039      66551.298      40.52461       40.52461       40.52461       1.2591667      84.616826     -1397.6873     -509.86861    
    179000   179000         179.97593     -367.58232      16980.295      17335.564      2885.694       14449.87       1642.2217      4343.697      -5953.1157      130.73435     -3879.1335      61935.703     -43770.238     -559.09177      66271.403      40.467719      40.467719      40.467719      1.2644848      579.09639     -1172.6704     -509.17293    
    179500   179500         183.05278      430.38311      17810.452      17393.023      2935.0275      14457.995      1644.7397      4302.2729     -5958.975       122.75924     -3795.7977      61908.581     -43765.584     -557.13164      66504.562      40.515122      40.515122      40.515122      1.2600516      932.87247     -325.5161       683.79296    
    180000   180000         181.6703       238.86708      17603.614      17372.557      2912.861       14459.696      1645.9902      4318.9767     -5970.0808      124.63963     -3839.9765      61948.174     -43768.028     -558.62727      66326.507      40.478932      40.478932      40.478932      1.2634342      509.01417      205.89448      1.6926029    
    180500   180500         181.96135      680.91878      18002.76       17347.468      2917.5278      14429.94       1634.164       4305.8565     -5908.2387      120.48882     -3843.6427      61891.654     -43770.342     -561.49384      65987.893      40.409929      40.409929      40.409929      1.2699175      1180.2098     -37.779026      900.32557    
    181000   181000         177.6039       127.5267       17437.351      17313.549      2847.6614      14465.888      1596.5245      4389.9798     -5987.4087      125.87901     -3836.1853      61945.318     -43768.22      -556.62075      66565.602      40.527513      40.527513      40.527513      1.2588962      975.1668      -830.99754      238.41085    
    181500   181500         178.80862     -609.0234       16674.006      17261.746      2866.9776      14394.769      1590.7817      4368.4514     -5962.296       126.25311     -3862.2515      61906.493     -43772.663     -559.92972      66172.225      40.447521      40.447521      40.447521      1.26638        288.59068     -1385.3151     -730.3458     
    182000   182000         181.68566      1003.8294      18311.232      17345.577      2913.1074      14432.469      1632.3776      4326.5045     -5912.1837      118.75194     -3860.6924      61896.679     -43768.968     -561.72423      65960.828      40.404404      40.404404      40.404404      1.2704386      1668.431       300.86359      1042.1937    
    182500   182500         180.75784     -879.42206      16510.859      17365.537      2898.2309      14467.306      1592.2355      4417.0063     -5958.5854      126.46433     -3893.3544      61953.21      -43769.67      -556.0068       66639.105      40.542425      40.542425      40.542425      1.2575076      605.37747     -2313.393      -930.2506     
    183000   183000         181.69763      322.58591      17689.054      17377.288      2913.2993      14463.988      1675.7337      4305.5121     -5952.5568      118.99145     -3868.6079      61954.124     -43769.208     -559.11445      66268.715      40.467171      40.467171      40.467171      1.2645361      1045.1213     -881.02377      803.66017    
    183500   183500         182.36566      201.24368      17525.368      17330.462      2924.0104      14406.452      1578.1198      4276.6338     -5907.0127      115.20865     -3822.2339      61941.472     -43775.737     -557.93241      66409.111      40.495729      40.495729      40.495729      1.2618627      1080.317      -876.46464      399.87867    
    184000   184000         179.33976     -208.11798      17142.453      17343.875      2875.4937      14468.381      1604.1131      4370.3814     -5914.597       131.51582     -3928.074       61972.313     -43767.271     -558.3245       66362.475      40.486247      40.486247      40.486247      1.2627495      821.9295      -429.41683     -1016.8666    
    184500   184500         180.69067     -417.81067      16972.309      17375.367      2897.1539      14478.213      1643.388       4331.7804     -5899.6699      124.91084     -3877.3374      61923.271     -43768.13      -560.14078      66147.292      40.442441      40.442441      40.442441      1.2668573     -159.53203     -477.73001     -616.16996    
    185000   185000         178.39016      647.50118      17877.952      17250.689      2860.268       14390.421      1662.208       4290.3417     -5973.9244      112.03277     -3838.4826      61913.39      -43775.145     -557.797        66425.233      40.499006      40.499006      40.499006      1.2615565      2001.6804     -493.30058      434.12376    
    185500   185500         181.37626     -661.69915      16725.64       17365.905      2908.1466      14457.758      1664.7701      4338.659      -5943.6518      127.42081     -3926.4531      61964.48      -43767.467     -558.45298      66347.207      40.483142      40.483142      40.483142      1.2630401      466.85007     -505.65409     -1946.2934    
    186000   186000         181.12026     -178.15159      17233.162      17405.529      2904.0419      14501.487      1641.7092      4331.3274     -5910.5598      141.52475     -3825.3605      61892.541     -43769.695     -558.49711      66341.965      40.482076      40.482076      40.482076      1.2631399     -321.37382     -118.96357     -94.117389    
    186500   186500         178.42238      443.63197      17746.389      17317.109      2860.7847      14456.325      1633.3951      4309.7205     -5927.3502      127.10025     -3845.2185      61925.14      -43766.462     -558.42908      66350.047      40.48372       40.48372       40.48372       1.262986       1230.6184     -672.28446      772.56196    
    187000   187000         174.37809     -618.02177      16659.937      17259.16       2795.9395      14463.22       1575.065       4371.6659     -5918.6824      129.38015     -3840.8081      61921.569     -43774.969     -557.31481      66482.704      40.510682      40.510682      40.510682      1.2604659     -196.47217     -740.37639     -917.21674    
    187500   187500         178.61106      661.46185      17900.78       17262.056      2863.8099      14398.246      1642.6456      4290.4165     -5961.5956      124.25588     -3829.5779      61908.934     -43776.832     -559.59908      66211.323      40.455486      40.455486      40.455486      1.2656322      1059.4949      564.92634      359.96431    
    188000   188000         179.20693     -565.44665      16783.664      17330.92       2873.364       14457.556      1649.8268      4318.8758     -5921.3474      132.71786     -3847.0822      61894.041     -43769.476     -558.32317      66362.634      40.48628       40.48628       40.48628       1.2627465     -763.31113     -383.05195     -549.97687    
    188500   188500         179.69019      539.07691      17910.248      17387.065      2881.1126      14505.953      1644.3475      4345.4697     -5946.1938      123.09948     -3818.8093      61932.774     -43774.734     -556.77907      66546.675      40.523672      40.523672      40.523672      1.2592542      214.77249     -485.34036      1887.7986    
    189000   189000         177.44044      97.634981      17388.581      17294.146      2845.0406      14449.106      1662.9457      4303.3642     -5967.9708      131.31222     -3813.1909      61902.339     -43769.693     -558.67464      66320.884      40.477788      40.477788      40.477788      1.2635414      143.73803      574.3616      -425.1947     
    189500   189500         180.64882     -445.60514      16922.82       17354.25       2896.4829      14457.767      1673.0481      4289.7389     -5954.3714      122.6468      -3832.4607      61925.946     -43766.78      -558.11685      66387.166      40.491268      40.491268      40.491268      1.2622798     -553.24268     -1148.2687      364.6959     
    190000   190000         182.14752     -369.09206      17038.668      17394.917      2920.5128      14474.405      1625.7689      4390.6994     -5914.7075      129.45834     -3932.2674      61948.269     -43772.817     -559.84225      66182.565      40.449628      40.449628      40.449628      1.2661821     -1007.9618     -339.86653      240.55211    
    190500   190500         184.61416      195.92919      17547.342      17357.65       2960.0623      14397.588      1628.3765      4313.182      -5919.274       124.59127     -3857.5318      61886.499     -43778.256     -558.12973      66385.633      40.490956      40.490956      40.490956      1.262309       191.89448      33.236081      362.65703    
    191000   191000         181.00626      1039.7029      18340.703      17339.217      2902.2141      14437.003      1583.4471      4304.0938     -5916.9004      114.81894     -3810.4626      61943.155     -43781.149     -560.98269      66048.02       40.422199      40.422199      40.422199      1.2687614      754.12034      1239.7635      1125.2249    
    191500   191500         179.49298     -112.26692      17166.378      17275.086      2877.9505      14397.135      1596.9932      4268.8956     -5903.9399      124.37616     -3849.3393      61933.685     -43773.536     -558.05596      66394.409      40.49274       40.49274       40.49274       1.2621421      485.25679     -720.1368      -101.92076    
    192000   192000         178.13787      226.753        17466.822      17247.03       2856.2229      14390.807      1548.7375      4368.8759     -5970.5231      115.70874     -3824.2906      61920.766     -43768.468     -557.47531      66463.564      40.506794      40.506794      40.506794      1.2608289      815.01848     -773.72011      638.96062    
    192500   192500         177.06262     -1496.0726      15813.646      17257.166      2838.9826      14418.184      1638.8212      4315.6206     -5917.195       132.16407     -3885.4963      61905.455     -43771.186     -560.0346       66159.833      40.444996      40.444996      40.444996      1.2666172     -798.75236     -2504.0858     -1185.3796    
    193000   193000         179.66067     -572.37893      16752.634      17308.459      2880.6392      14427.82       1672.9425      4278.3466     -5961.492       140.12837     -3831.1004      61901.922     -43772.928     -556.45601      66585.31       40.531512      40.531512      40.531512      1.2585236     -378.16341     -1046.792      -292.18133    
    193500   193500         180.29739      101.56066      17444.126      17345.704      2890.8482      14454.856      1614.1998      4326.7999     -5936.5125      127.3162      -3875.7767      61967.874     -43769.045     -557.5985       66448.88       40.503811      40.503811      40.503811      1.2611075      966.46237      349.81799     -1011.5984    
    194000   194000         180.15978      325.42841      17659.492      17344.236      2888.6418      14455.594      1628.7808      4275.217      -5948.5598      136.58423     -3828.6635      61961.697     -43769.461     -557.79961      66424.922      40.498943      40.498943      40.498943      1.2615623      1063.6729      566.89061     -654.27825    
    194500   194500         181.83217     -321.15826      17027.587      17339.224      2915.4565      14423.767      1623.2315      4306.9648     -5925.8381      116.71569     -3847.4409      61921.912     -43771.777     -556.87264      66535.494      40.521402      40.521402      40.521402      1.2594658     -233.08661     -31.596385     -698.7918     
    195000   195000         175.58073     -739.99541      16539.103      17254.482      2815.2223      14439.26       1621.741       4395.9599     -5968.876       129.29215     -3883.14        61918.146     -43773.863     -558.95593      66287.508      40.470996      40.470996      40.470996      1.2641776      382.88122     -1070.6041     -1532.2634    
    195500   195500         180.62228     -11.652999      17313.367      17324.66       2896.0573      14428.603      1667.8504      4355.4014     -5948.4911      122.40694     -3903.5754      61905.887     -43770.876     -557.56339      66453.064      40.504661      40.504661      40.504661      1.2610281      252.80138     -1096.7345      808.97414    
    196000   196000         182.35241     -723.54264      16691.79       17391.737      2923.798       14467.939      1605.5087      4358.8741     -5907.8583      125.68396     -3863.2471      61917.577     -43768.599     -558.57868      66332.277      40.480105      40.480105      40.480105      1.2633244     -589.78006     -867.18892     -713.65894    
    196500   196500         182.7982       596.19129      17983.487      17406.137      2930.9456      14475.191      1593.966       4357.0837     -5943.8122      130.93222     -3835.4565      61945.481     -43773.004     -557.99628      66401.511      40.494184      40.494184      40.494184      1.2620071      387.04496      144.6463       1256.8826    
    197000   197000         178.97727     -24.308896      17310.654      17334.214      2869.6817      14464.533      1638.3534      4298.1019     -5950.3383      114.34149     -3810.9844      61946.594     -43771.536     -557.54232      66455.576      40.505172      40.505172      40.505172      1.2609804      96.39444       255.45092     -424.77205    
    197500   197500         179.4519      -295.25859      17010.016      17295.484      2877.2919      14418.192      1631.5042      4337.7342     -5940.1819      117.64203     -3888.3679      61929.172     -43769.311     -558.89495      66294.74       40.472468      40.472468      40.472468      1.2640397      177.04182     -1008.7717     -54.045864    
    198000   198000         177.77572      358.37935      17574.77       17226.44       2850.4162      14376.024      1550.7035      4329.5052     -5933.1354      113.3755      -3860.1886      61950.554     -43774.79      -555.95268      66645.592      40.54374       40.54374       40.54374       1.2573852      1443.3374      246.94167     -615.14103    
    198500   198500         179.21056     -348.18419      16941.083      17277.5        2873.4222      14404.078      1622.1311      4298.6361     -5907.1969      126.87969     -3876.6469      61917.244     -43776.969     -559.26287      66251.128      40.463591      40.463591      40.463591      1.2648718      648.52805     -936.58        -756.50061    
    199000   199000         182.76862     -1081.8273      16326.497      17376.598      2930.4714      14446.127      1650.0388      4339.4081     -5966.2361      128.61302     -3886.2588      61952.607     -43772.046     -556.68795      66557.567      40.525882      40.525882      40.525882      1.2590481     -1010.5654     -1597.9272     -636.98944    
    199500   199500         179.69678      201.40758      17515.996      17320.429      2881.2181      14439.211      1674.716       4307.5532     -5976.1147      128.57208     -3841.9581      61923.794     -43777.351     -556.49984      66580.066      40.530448      40.530448      40.530448      1.2586227      66.953886      308.20544      229.0634     
    200000   200000         178.46257      279.24928      17601.056      17330.513      2861.429       14469.084      1641.7307      4328.2639     -5919.7056      130.37264     -3844.1461      61903.877     -43771.309     -557.75016      66430.812      40.50014       40.50014       40.50014       1.2614505      1293.6087     -944.82947      488.96864    
Loop time of 861.928 on 1 procs for 200000 steps with 6320 atoms

Performance: 20.048 ns/day, 1.197 hours/ns, 232.038 timesteps/s, 1.466 Matom-step/s
100.0% CPU use with 1 MPI tasks x 1 OpenMP threads

MPI task timing breakdown:
Section |  min time  |  avg time  |  max time  |%varavg| %total
---------------------------------------------------------------
Pair    | 321.67     | 321.67     | 321.67     |   0.0 | 37.32
Bond    | 115.65     | 115.65     | 115.65     |   0.0 | 13.42
Kspace  | 236.05     | 236.05     | 236.05     |   0.0 | 27.39
Neigh   | 42.649     | 42.649     | 42.649     |   0.0 |  4.95
Comm    | 4.3674     | 4.3674     | 4.3674     |   0.0 |  0.51
Output  | 0.04675    | 0.04675    | 0.04675    |   0.0 |  0.01
Modify  | 102        | 102        | 102        |   0.0 | 11.83
Other   |            | 39.5       |            |       |  4.58

Nlocal:           6320 ave        6320 max        6320 min
Histogram: 1 0 0 0 0 0 0 0 0 0
Nghost:          18111 ave       18111 max       18111 min
Histogram: 1 0 0 0 0 0 0 0 0 0
Neighs:              0 ave           0 max           0 min
Histogram: 1 0 0 0 0 0 0 0 0 0
FullNghs:  3.82772e+06 ave 3.82772e+06 max 3.82772e+06 min
Histogram: 1 0 0 0 0 0 0 0 0 0

Total # of neighbors = 3827722
Ave neighs/atom = 605.65222
Ave special neighs/atom = 5.5411392
Neighbor list builds = 4887
Dangerous builds = 0
WARNING: No fixes with time integration, atoms won't move
For more information see https://docs.lammps.org/err0028 (src/verlet.cpp:60)
PPPM Kokkos initialization ...
  using 12-bit tables for long-range coulomb
  G vector (1/distance) = 0.33556436
  grid = 45 45 45
  stencil order = 5
  estimated absolute RMS force accuracy = 0.0004006564
  estimated relative force accuracy = 1.2065649e-06
  using double precision cuFFT
  3d grid and FFT values/proc = 140608 91125
Generated 21 of 21 mixed pair_coeff terms from sixthpower/sixthpower mixing rule
Setting up Verlet run ...
  Unit style    : real
  Current step  : 200000
  Time step     : 1
Per MPI rank memory allocation (min/avg/max) = 43 | 43 | 43 Mbytes
   Step          Time           Temp          Press         Enthalpy        TotEng         KinEng         PotEng         E_bond        E_angle        E_dihed        E_impro         E_vdwl         E_coul         E_long         E_tail         Volume           Lx             Ly             Lz          Density          Pxx            Pyy            Pzz      
    200000   200000         151.91488      330.80692      17651.007      17330.513      2861.429       14469.084      1641.7307      4328.2639     -5919.7056      130.37264     -3844.1461      61916.68      -43784.112     -557.75016      66430.812      40.50014       40.50014       40.50014       1.2614505      1310.9145     -839.28848      520.79476    
Loop time of 4.7232e-05 on 1 procs for 0 steps with 6320 atoms

101.6% CPU use with 1 MPI tasks x 1 OpenMP threads

MPI task timing breakdown:
Section |  min time  |  avg time  |  max time  |%varavg| %total
---------------------------------------------------------------
Pair    | 0          | 0          | 0          |   0.0 |  0.00
Bond    | 0          | 0          | 0          |   0.0 |  0.00
Kspace  | 0          | 0          | 0          |   0.0 |  0.00
Neigh   | 0          | 0          | 0          |   0.0 |  0.00
Comm    | 0          | 0          | 0          |   0.0 |  0.00
Output  | 0          | 0          | 0          |   0.0 |  0.00
Modify  | 0          | 0          | 0          |   0.0 |  0.00
Other   |            | 4.723e-05  |            |       |100.00

Nlocal:           6320 ave        6320 max        6320 min
Histogram: 1 0 0 0 0 0 0 0 0 0
Nghost:          18106 ave       18106 max       18106 min
Histogram: 1 0 0 0 0 0 0 0 0 0
Neighs:              0 ave           0 max           0 min
Histogram: 1 0 0 0 0 0 0 0 0 0
FullNghs:  3.82716e+06 ave 3.82716e+06 max 3.82716e+06 min
Histogram: 1 0 0 0 0 0 0 0 0 0

Total # of neighbors = 3827158
Ave neighs/atom = 605.56297
Ave special neighs/atom = 5.5411392
Neighbor list builds = 0
Dangerous builds = 0
System init for write_data ...
PPPM Kokkos initialization ...
  using 12-bit tables for long-range coulomb
  G vector (1/distance) = 0.33556436
  grid = 45 45 45
  stencil order = 5
  estimated absolute RMS force accuracy = 0.0004006564
  estimated relative force accuracy = 1.2065649e-06
  using double precision cuFFT
  3d grid and FFT values/proc = 140608 91125
Generated 21 of 21 mixed pair_coeff terms from sixthpower/sixthpower mixing rule
STAGE COMPLETE: Tg step T=180.0K P=1.0atm steps=200000
