LAMMPS (22 Jul 2025 - Update 3)
KOKKOS mode with Kokkos version 4.6.2 is enabled
  will use up to 1 GPU(s) per node
  using 1 OpenMP thread(s) per MPI task
Reading data file ...
  orthogonal box = (0 0 0) to (50.73798 50.73798 50.73798)
  1 by 1 by 1 MPI processor grid
  reading atoms ...
  6140 atoms
  scanning bonds ...
  3 = max bonds/atom
  scanning angles ...
  9 = max angles/atom
  scanning dihedrals ...
  18 = max dihedrals/atom
  scanning impropers ...
  4 = max impropers/atom
  orthogonal box = (0 0 0) to (50.73798 50.73798 50.73798)
  1 by 1 by 1 MPI processor grid
  reading bonds ...
  6670 bonds
  reading angles ...
  10620 angles
  reading dihedrals ...
  15820 dihedrals
  reading impropers ...
  3420 impropers
Finding 1-2 1-3 1-4 neighbors ...
  special bond factors lj:    0        0        1       
  special bond factors coul:  0        0        1       
     3 = max # of 1-2 neighbors
     6 = max # of 1-3 neighbors
     9 = max # of special neighbors
  special bonds CPU = 0.003 seconds
  read_data CPU = 0.101 seconds
PPPM Kokkos initialization ...
  using 12-bit tables for long-range coulomb
  G vector (1/distance) = 0.30050007
  grid = 36 36 36
  stencil order = 5
  estimated absolute RMS force accuracy = 0.00040752765
  estimated relative force accuracy = 1.2272574e-06
  using double precision cuFFT
  3d grid and FFT values/proc = 79507 46656
Generated 21 of 21 mixed pair_coeff terms from sixthpower/sixthpower mixing rule
Neighbor list info ...
  update: every = 1 steps, delay = 0 steps, check = yes
  max neighbors/atom: 4000, page size: 100000
  master list distance cutoff = 11.5
  ghost atom cutoff = 11.5
  binsize = 11.5, bins = 5 5 5
  1 neighbor lists, perpetual/occasional/extra = 1 0 0
  (1) pair lj/class2/coul/long/kk, perpetual
      attributes: full, newton off, kokkos_device
      pair build: full/bin/kk/device
      stencil: full/bin/3d
      bin: kk/device
Setting up cg/kk style minimization ...
  Unit style    : real
  Current step  : 0
WARNING: Fix MINIMIZE/kk not compatible with sending data in Kokkos communication (src/KOKKOS/comm_kokkos.cpp:767)
WARNING: Fix with atom-based arrays not compatible with sending data in Kokkos communication, switching to classic exchange/border communication (src/KOKKOS/comm_kokkos.cpp:780)
WARNING: Fix MINIMIZE/kk not compatible with Kokkos sorting on device (src/KOKKOS/atom_kokkos.cpp:212)
WARNING: Fix with atom-based arrays not compatible with Kokkos sorting on device, switching to classic host sorting (src/KOKKOS/atom_kokkos.cpp:218)
Per MPI rank memory allocation (min/avg/max) = 26.62 | 26.62 | 26.62 Mbytes
   Step          Time           Temp          Press          TotEng         PotEng         E_bond        E_angle        E_dihed        E_impro         E_vdwl         E_coul         E_long         Volume           Lx             Ly             Lz          Density    
         0   0              0              7518.3794      43025.747      43025.747      2692.7315      3988.3578      28191.103      1178.25        2843.0055      11273.493     -7141.1935      130616.95      50.73798       50.73798       50.73798       0.65999999   
       500   500            0             -711.19795      10977.016      10977.016      842.78902      2713.8336      2707.2836      26.709031      945.12224      10969.183     -7227.9044      130616.95      50.73798       50.73798       50.73798       0.65999999   
      1000   1000           0             -841.93795      10384.951      10384.951      839.87266      2731.8211      2361.932       22.129065      727.85749      10940.24      -7238.9015      130616.95      50.73798       50.73798       50.73798       0.65999999   
      1500   1500           0             -916.66676      10155.222      10155.222      841.13534      2781.8259      2268.2991      24.051723      556.34967      10924.954     -7241.394       130616.95      50.73798       50.73798       50.73798       0.65999999   
      2000   2000           0             -893.55121      10062.987      10062.987      841.60136      2810.4159      2188.4563      24.164171      517.63063      10921.207     -7240.4892      130616.95      50.73798       50.73798       50.73798       0.65999999   
      2500   2500           0             -905.81942      10006.66       10006.66       841.64924      2804.9877      2180.3132      23.273801      482.16539      10914.529     -7240.2582      130616.95      50.73798       50.73798       50.73798       0.65999999   
      3000   3000           0             -913.36985      9964.188       9964.188       841.92611      2813.0753      2150.1568      23.344497      458.14434      10916.844     -7239.3035      130616.95      50.73798       50.73798       50.73798       0.65999999   
      3500   3500           0             -864.30952      9927.0403      9927.0403      841.59972      2806.6946      2156.1894      22.926293      426.0344       10913.812     -7240.2163      130616.95      50.73798       50.73798       50.73798       0.65999999   
      4000   4000           0             -871.09791      9892.4756      9892.4756      842.88549      2794.779       2165.7177      22.833471      402.76195      10907.305     -7243.8073      130616.95      50.73798       50.73798       50.73798       0.65999999   
      4201   4201           0             -952.07965      9882.4269      9882.4269      842.48164      2807.3566      2152.6011      22.930248      398.63779      10903.03      -7244.6103      130616.95      50.73798       50.73798       50.73798       0.65999999   
Loop time of 13.4919 on 1 procs for 4201 steps with 6140 atoms

99.9% CPU use with 1 MPI tasks x 1 OpenMP threads

Minimization stats:
  Stopping criterion = energy tolerance
  Energy initial, next-to-last, final = 
      43025.7470493935   9882.43515863596   9882.42686509081
  Force two-norm initial, final = 3386.2307 9.722015
  Force max component initial, final = 125.66301 2.0904999
  Final line search alpha, max atom move = 0.010067097 0.021045266
  Iterations, force evaluations = 4201 8357

MPI task timing breakdown:
Section |  min time  |  avg time  |  max time  |%varavg| %total
---------------------------------------------------------------
Pair    | 1.7151     | 1.7151     | 1.7151     |   0.0 | 12.71
Bond    | 2.1046     | 2.1046     | 2.1046     |   0.0 | 15.60
Kspace  | 8.0371     | 8.0371     | 8.0371     |   0.0 | 59.57
Neigh   | 0.37823    | 0.37823    | 0.37823    |   0.0 |  2.80
Comm    | 0.10573    | 0.10573    | 0.10573    |   0.0 |  0.78
Output  | 0.019885   | 0.019885   | 0.019885   |   0.0 |  0.15
Modify  | 0          | 0          | 0          |   0.0 |  0.00
Other   |            | 1.131      |            |       |  8.38

Nlocal:           6140 ave        6140 max        6140 min
Histogram: 1 0 0 0 0 0 0 0 0 0
Nghost:          10057 ave       10057 max       10057 min
Histogram: 1 0 0 0 0 0 0 0 0 0
Neighs:              0 ave           0 max           0 min
Histogram: 1 0 0 0 0 0 0 0 0 0
FullNghs:   2.2071e+06 ave  2.2071e+06 max  2.2071e+06 min
Histogram: 1 0 0 0 0 0 0 0 0 0

Total # of neighbors = 2207098
Ave neighs/atom = 359.46221
Ave special neighs/atom = 5.6319218
Neighbor list builds = 98
Dangerous builds = 0
System init for write_data ...
PPPM Kokkos initialization ...
  using 12-bit tables for long-range coulomb
  G vector (1/distance) = 0.30050007
  grid = 36 36 36
  stencil order = 5
  estimated absolute RMS force accuracy = 0.00040752765
  estimated relative force accuracy = 1.2272574e-06
  using double precision cuFFT
  3d grid and FFT values/proc = 79507 46656
Generated 21 of 21 mixed pair_coeff terms from sixthpower/sixthpower mixing rule
System init for write_restart ...
PPPM Kokkos initialization ...
  using 12-bit tables for long-range coulomb
  G vector (1/distance) = 0.30050007
  grid = 36 36 36
  stencil order = 5
  estimated absolute RMS force accuracy = 0.00040752765
  estimated relative force accuracy = 1.2272574e-06
  using double precision cuFFT
  3d grid and FFT values/proc = 79507 46656
Generated 21 of 21 mixed pair_coeff terms from sixthpower/sixthpower mixing rule
STAGE COMPLETE: minimization
