LAMMPS (22 Jul 2025 - Update 3)
KOKKOS mode with Kokkos version 4.6.2 is enabled
  will use up to 1 GPU(s) per node
  using 1 OpenMP thread(s) per MPI task
Reading data file ...
  orthogonal box = (4.4049329 4.4049329 4.4049329) to (47.800777 47.800777 47.800777)
  1 by 1 by 1 MPI processor grid
  reading atoms ...
  6500 atoms
  reading velocities ...
  6500 velocities
  scanning bonds ...
  4 = max bonds/atom
  scanning angles ...
  16 = max angles/atom
  scanning dihedrals ...
  38 = max dihedrals/atom
  scanning impropers ...
  12 = max impropers/atom
  orthogonal box = (4.4049329 4.4049329 4.4049329) to (47.800777 47.800777 47.800777)
  1 by 1 by 1 MPI processor grid
  reading bonds ...
  6970 bonds
  reading angles ...
  11760 angles
  reading dihedrals ...
  17500 dihedrals
  reading impropers ...
  4800 impropers
Finding 1-2 1-3 1-4 neighbors ...
  special bond factors lj:    0        0        1       
  special bond factors coul:  0        0        1       
     4 = max # of 1-2 neighbors
    10 = max # of 1-3 neighbors
    14 = max # of special neighbors
  special bonds CPU = 0.003 seconds
  read_data CPU = 0.249 seconds
PPPM Kokkos initialization ...
  using 12-bit tables for long-range coulomb
  G vector (1/distance) = 0.29842986
  grid = 30 30 30
  stencil order = 5
  estimated absolute RMS force accuracy = 0.00034244927
  estimated relative force accuracy = 1.0312758e-06
  using double precision cuFFT
  3d grid and FFT values/proc = 50653 27000
Generated 28 of 28 mixed pair_coeff terms from sixthpower/sixthpower mixing rule
Neighbor list info ...
  update: every = 1 steps, delay = 0 steps, check = yes
  max neighbors/atom: 4000, page size: 100000
  master list distance cutoff = 11.5
  ghost atom cutoff = 11.5
  binsize = 11.5, bins = 4 4 4
  1 neighbor lists, perpetual/occasional/extra = 1 0 0
  (1) pair lj/class2/coul/long/kk, perpetual
      attributes: full, newton off, kokkos_device
      pair build: full/bin/kk/device
      stencil: full/bin/3d
      bin: kk/device
Setting up Verlet run ...
  Unit style    : real
  Current step  : 0
  Time step     : 1
Per MPI rank memory allocation (min/avg/max) = 43.87 | 43.87 | 43.87 Mbytes
   Step          Time           Temp          Press         Enthalpy        TotEng         KinEng         PotEng         E_bond        E_angle        E_dihed        E_impro         E_vdwl         E_coul         E_long         E_tail         Volume           Lx             Ly             Lz          Density          Pxx            Pyy            Pzz      
         0   0              599.38099      22.279518      26670.31       26643.757      11611.379      15032.378      5352.8976      4714.413       3546.2973      421.40986      423.00024      4916.3873     -4342.0278     -481.92494      81723.022      43.395844      43.395844      43.395844      1.0794469     -2129.7955      2717.7563     -521.12219    
      1000   1000           586.6419       780.67462      27471.864      26526.595      11364.594      15162.001      5152.0915      4764.3055      3646.0721      442.94561      567.18382      4926.754      -4337.3513     -474.36716      83025.062      43.625097      43.625097      43.625097      1.0625185      1963.1668     -222.64108      601.49813    
      2000   2000           600.4272       311.71063      27198.306      26829.226      11631.646      15197.579      5252.8269      4677.0551      3742.0447      441.15596      526.28593      4902.8039     -4344.5931     -485.09896      81188.305      43.30099       43.30099       43.30099       1.0865563     -193.86688      996.97052      132.02826    
      3000   3000           611.11142     -685.51429      26147.238      26966.205      11838.624      15127.581      5200.3232      4767.328       3669.8382      455.32342      457.87125      4919.1829     -4342.2858     -480.78386      81916.981      43.430148      43.430148      43.430148      1.076891      -931.12415     -1332.8166      207.39788    
      4000   4000           599.45394     -1789.7376      24418.479      26565.106      11612.792      14952.313      5044.8337      4603.4785      3831.3655      450.99801      449.52137      4917.5653     -4345.4489     -478.88644      82241.549      43.487432      43.487432      43.487432      1.0726411     -1490.6943     -462.49721     -3416.0213    
      5000   5000           597.69599     -165.51255      26403.206      26600.206      11578.737      15021.469      5047.055       4794.6153      3727.8366      466.89929      413.16876      4914.9454     -4343.0508     -482.57359      81613.175      43.376392      43.376392      43.376392      1.0808998      914.10993      108.51275     -1519.1603    
      6000   6000           592.0153       22.75165       26463.274      26436.262      11468.689      14967.573      5140.4092      4615.125       3684.4399      460.09145      503.67733      4910.3882     -4346.5581     -483.78273      81409.196      43.340224      43.340224      43.340224      1.0836081     -199.57479      1012.0412     -744.21143    
      7000   7000           603.75474      1240.9071      28355.503      26887.948      11696.109      15191.84       5063.8432      4787.8613      3800.1962      456.26869      537.21986      4891.4524     -4345.0019     -485.67377      81092.217      43.283901      43.283901      43.283901      1.0878438      1477.4602      2015.2073      230.05362    
      8000   8000           597.22216     -1799.4806      24573.091      26705.688      11569.558      15136.13       5146.3256      4713.9116      3842.6558      435.49606      431.83061      4906.4836     -4340.5728     -484.66101      81261.668      43.314029      43.314029      43.314029      1.0855753     -79.438096     -2536.2182     -2782.7854    
      9000   9000           592.84286      600.49494      27038.775      26320.434      11484.721      14835.713      5019.5195      4704.5966      3571.8554      467.62175      499.54293      4916.3106     -4343.7336     -480.15112      82024.932      43.449217      43.449217      43.449217      1.0754738      647.5644      -132.30768      1286.2281    
     10000   10000          600.6014       2150.6252      29146.148      26617.327      11635.021      14982.306      5062.5433      4859.5379      3569.4975      446.43364      481.14413      4906.9542     -4343.8047     -488.47963      80626.417      43.200866      43.200866      43.200866      1.0941285      1080.2246      2451.8586      2919.7924    
     11000   11000          600.5403      -381.19358      26190.275      26643.638      11633.838      15009.8        5042.2957      4737.9103      3776.4873      481.56555      415.55888      4899.284      -4343.3015     -482.94643      81550.169      43.365227      43.365227      43.365227      1.0817349      258.49399     -31.058206     -1371.0165    
     12000   12000          608.99275      161.84503      27068.012      26875.881      11797.581      15078.3        5139.5055      4824.185       3662.5276      443.49511      437.16722      4918.1955     -4346.7759     -483.83928      81399.681      43.338536      43.338536      43.338536      1.0837347      1034.4499     -2431.8853      1882.9704    
     13000   13000          609.67157     -2710.336       23480.006      26735.007      11810.731      14924.276      5090.2728      4678.2979      3752.6032      442.54543      383.98008      4920.4123     -4343.8361     -478.26845      82347.816      43.506154      43.506154      43.506154      1.0712568     -3197.3145     -2067.4537     -2866.2397    
     14000   14000          589.51027      1649.2868      28163.527      26210.907      11420.161      14790.747      5084.8839      4546.6459      3640.3364      455.8236       497.48764      4907.0634     -4341.494      -485.15238      81179.367      43.299401      43.299401      43.299401      1.0866759      2954.9185      484.98999      1507.9518    
     15000   15000          598.05885      1690.1887      28831.651      26837.837      11585.766      15252.07       5058.4774      4743.9177      3887.6853      478.58328      520.83694      4910.1831     -4347.6132     -486.91179      80886.031      43.247185      43.247185      43.247185      1.0906168      245.68656      3657.3888      1167.4907    
     16000   16000          604.10056     -3216.8397      23011.355      26837.563      11702.808      15134.755      5008.9508      4803.3657      3902.0855      453.98499      402.35476      4908.8961     -4344.8825     -482.90369      81557.386      43.366506      43.366506      43.366506      1.0816392     -4744.0926     -2362.6508     -2543.7756    
     17000   17000          598.3859      -200.99601      26311.469      26550.826      11592.102      14958.725      5020.3417      4679.8256      3772.8821      449.69864      461.88231      4914.4903     -4340.3961     -482.32551      81655.151      43.383827      43.383827      43.383827      1.0803441      267.79378      747.28156     -1618.0634    
     18000   18000          611.43305      1459.2272      28740.99       27022.345      11844.855      15177.49       5116.2717      4870.7681      3692.974       464.95427      444.683        4931.6078     -4343.7691     -487.68166      80758.342      43.224416      43.224416      43.224416      1.0923412      1733.7298      3573.5982     -929.64631    
     19000   19000          590.30146     -348.91428      26110.729      26523.373      11435.488      15087.885      5048.3657      4768.7874      3754.2781      458.91707      469.8076       4928.1446     -4340.4155     -485.6724       81092.445      43.283941      43.283941      43.283941      1.0878407      53.322328     -282.40717     -817.65799    
     20000   20000          601.38259     -39.261214      26688.386      26734.767      11650.155      15084.613      5075.1319      4745.0164      3770.0839      450.62141      471.684        4916.1613     -4344.0864     -486.20649      81003.366      43.268086      43.268086      43.268086      1.089037      -701.45737      0.17112312     583.5026     
     21000   21000          598.74535     -503.77823      26010.666      26610.638      11599.065      15011.573      5064.343       4732.3765      3700.7172      460.42808      487.69733      4911.4936     -4345.4827     -482.28927      81661.287      43.384914      43.384914      43.384914      1.0802629     -1126.6368      278.68815     -663.38608    
     22000   22000          599.43349      949.37133      27879.169      26761.647      11612.396      15149.25       5152.9219      4803.1392      3719.2854      472.23132      441.48271      4905.7916     -4345.6016     -487.95497      80713.109      43.216344      43.216344      43.216344      1.0929533      711.61762      1709.9509      426.54542    
     23000   23000          600.07458      268.46622      26967.335      26645.895      11624.815      15021.08       5012.7961      4740.0906      3713.6088      466.78597      510.19518      4917.9462     -4340.3432     -479.72171      82098.353      43.462178      43.462178      43.462178      1.074512       132.5592       1196.0415     -523.20205    
     24000   24000          594.56394      1571.0316      28509.709      26638.802      11518.062      15120.74       5022.5601      4705.6296      3774.8998      451.26809      610.95239      4898.0076     -4342.5777     -482.31685      81656.617      43.384087      43.384087      43.384087      1.0803247      2408.147       2175.5338      129.41416    
     25000   25000          603.06354      371.36025      27383.608      26942.917      11682.718      15260.198      5139.4059      4865.0038      3691.1475      455.34908      544.34415      4906.2283     -4341.2804     -484.01692      81369.805      43.333233      43.333233      43.333233      1.0841326      530.39042     -1402.3298      1986.0202    
     26000   26000          597.79242     -1574.9965      24780.805      26682.083      11580.605      15101.478      5124.5924      4794.5377      3722.6681      446.00381      437.3603       4917.17       -4340.854      -475.80995      82773.306      43.580957      43.580957      43.580957      1.0657501     -1540.7669     -1113.2526     -2070.9699    
     27000   27000          594.2389       682.59664      27169.624      26357.361      11511.765      14845.597      5014.0058      4714.7889      3609.9357      426.49287      525.62164      4901.069      -4346.3174     -482.68934      81593.603      43.372924      43.372924      43.372924      1.081159       1527.6389      361.97025      158.1808     
     28000   28000          590.51328     -992.42281      25344.771      26542.548      11439.591      15102.957      5190.1712      4762.3576      3618.3315      435.83402      533.63008      4906.4423     -4343.81       -475.90514      82756.749      43.578051      43.578051      43.578051      1.0659634     -2034.5045      1037.2142     -1979.9782    
     29000   29000          599.90076      178.04643      26888.878      26676.599      11621.448      15055.151      5167.9441      4688.9045      3679.3089      443.75029      522.41431      4898.106      -4345.2769     -481.7554       81751.782      43.400934      43.400934      43.400934      1.0790672      705.19137     -1402.1871      1231.135     
     30000   30000          598.81991      121.94095      26810.035      26665.955      11600.51       15065.445      5172.9325      4750.3325      3674.8848      444.35579      473.01873      4897.5905     -4347.6698     -486.12284      81017.305      43.270568      43.270568      43.270568      1.0888496      696.98462      181.34053     -512.50231    
     31000   31000          586.48519      405.01355      26832.433      26345.723      11361.558      14984.165      5053.8962      4793.1603      3539.6402      435.92761      612.04193      4894.5982     -4345.0991     -477.96802      82399.576      43.515268      43.515268      43.515268      1.0705839      1378.6404      380.43438     -544.03418    
     32000   32000          597.64892      642.38266      27437.279      26667.294      11577.825      15089.469      5110.9319      4911.1107      3551.847       436.17476      522.81087      4899.806      -4343.2118     -479.19423      82188.725      43.478119      43.478119      43.478119      1.0733305     -339.46774      556.85785      1709.7579    
     33000   33000          605.4272      -940.60545      25605.981      26735.547      11728.508      15007.039      5153.9493      4715.931       3587.7223      436.71046      548.78922      4908.8607     -4344.9234     -478.29455      82343.324      43.505363      43.505363      43.505363      1.0713153     -842.12713     -2707.0085      727.31934    
     34000   34000          602.96413     -120.55308      26441.4        26586.306      11680.793      14905.514      5106.8858      4675.616       3620.7095      424.26338      513.17768      4907.7955     -4342.9341     -477.84859      82420.171      43.518893      43.518893      43.518893      1.0703164      517.17326     -599.34732     -279.48517    
     35000   35000          586.1014      -622.91206      25591.923      26335.389      11354.123      14981.266      5016.0379      4905.0073      3571.865       431.52313      483.33927      4919.7775     -4346.2836     -481.24396      81838.664      43.416303      43.416303      43.416303      1.0779216     -939.98475     -417.374       -511.37742    
     36000   36000          594.61069     -698.47148      25906.668      26753.465      11518.967      15234.498      5075.3122      4721.9115      3812.7989      490.93073      593.04775      4886.2217     -4345.7249     -473.77134      83129.475      43.643377      43.643377      43.643377      1.0611839      960.33332     -1961.0063     -1094.7415    
     37000   37000          603.88348      539.90813      27055.909      26408.209      11698.603      14709.607      4902.0048      4567.8935      3690.7101      455.08424      558.41751      4883.2898     -4347.7933     -478.791        82257.942      43.490321      43.490321      43.490321      1.0724273     -494.39903      1252.4121      861.71128    
     38000   38000          598.12096     -842.71041      25607.472      26625.212      11586.969      15038.243      5127.1499      4758.4432      3633.8566      447.50127      521.74816      4893.1474     -4343.6036     -475.5991       82810.002      43.587397      43.587397      43.587397      1.0652779     -737.17252      468.12859     -2259.0873    
     39000   39000          603.1556      -393.31221      26419.607      26891.785      11684.502      15207.283      5205.8537      4793.5691      3651.5554      465.42071      532.15146      4902.8262     -4344.0939     -478.44467      82317.486      43.500812      43.500812      43.500812      1.0716516     -1192.7745      975.97211     -963.13424    
     40000   40000          589.11246     -485.47314      25918.131      26498.355      11412.454      15085.901      5170.6471      4739.6338      3716.9668      457.07845      444.10633      4900.3772     -4342.9089     -480.58392      81951.062      43.43617       43.43617       43.43617       1.0764432      1016.3397     -2247.2355     -225.52358    
     41000   41000          610.49578      161.43916      26710.982      26518.538      11826.698      14691.84       4924.2159      4568.205       3663.9679      441.84252      544.6809       4893.7917     -4344.864      -481.84162      81737.154      43.398345      43.398345      43.398345      1.0792603     -1232.5719      862.52974      854.35964    
     42000   42000          597.46518      1852.4327      28754.645      26553.132      11574.265      14978.867      5078.5462      4693.6696      3700.6862      457.56041      496.18084      4896.6376     -4344.4143     -483.30458      81489.735      43.354512      43.354512      43.354512      1.0825371      125.04251      3819.9408      1612.3147    
     43000   43000          592.17238     -407.40828      25805.734      26297.227      11471.732      14825.495      5034.1184      4664.7654      3670.2754      430.53328      474.02155      4896.1183     -4344.3371     -476.11557      82720.174      43.571631      43.571631      43.571631      1.0664347     -2951.8079      913.70988      815.87323    
     44000   44000          596.80834     -707.12994      25713.399      26550.709      11561.541      14989.168      5133.8089      4680.8076      3734.4503      446.31765      440.06969      4896.6798     -4342.966      -485.07921      81191.612      43.301578      43.301578      43.301578      1.086512       780.96018     -869.77855     -2032.5715    
     45000   45000          591.25477      1905.2703      28661.687      26378.847      11453.956      14924.892      5125.3809      4716.761       3556.7654      452.62382      525.80887      4892.8934     -4345.3416     -479.3811       82156.687      43.472469      43.472469      43.472469      1.073749       1704.628       1247.4642      2763.7189    
     46000   46000          609.30266     -158.27664      26760.143      26952.051      11803.584      15148.467      5163.0187      4726.9431      3721.8626      460.39698      526.63096      4894.8481     -4345.2338     -473.72122      83138.27       43.644916      43.644916      43.644916      1.0610717      1764.6946     -244.39516     -1995.1293    
     47000   47000          590.68731      579.4208       26982.291      26291.571      11442.963      14848.608      5015.3447      4742.3505      3598.2885      452.50918      476.70186      4908.4953     -4345.082      -481.82767      81739.521      43.398764      43.398764      43.398764      1.079229       1040.3147     -349.93746      1047.8851    
     48000   48000          597.14353      28.239292      26524.269      26490.256      11568.034      14922.221      5066.7084      4634.9844      3708.3448      446.7178       510.75693      4895.384      -4340.6749     -476.88027      82587.529      43.548328      43.548328      43.548328      1.0681475     -307.77564      289.73795      102.75556    
     49000   49000          588.99413      180.48458      26782.14       26566.955      11410.162      15156.793      5158.8263      4804.1904      3586.656       445.63095      598.2515       4901.3356     -4338.0975     -481.75789      81751.36       43.400859      43.400859      43.400859      1.0790727      1422.03       -1073.2397      192.66348    
     50000   50000          584.81173     -1200.3971      24900.664      26329.737      11329.139      15000.597      5054.1553      4705.8779      3708.4594      455.77726      510.15405      4904.5562     -4338.3829     -482.46998      81630.7        43.379497      43.379497      43.379497      1.0806677     -1146.4045     -2426.1476     -28.639026    
     51000   51000          598.24047      30.729541      26549.945      26513.163      11589.285      14923.879      5075.6083      4677.3674      3623.6347      444.06925      553.6283       4893.9916     -4344.4209     -479.86342      82074.11       43.457899      43.457899      43.457899      1.0748294     -1623.5859      1849.5973     -133.8228     
     52000   52000          594.61504     -86.367479      26401.569      26503.606      11519.052      14984.554      5077.1042      4709.9223      3669.7002      434.2767       536.06181      4907.8839     -4350.3946     -486.17149      81009.198      43.269125      43.269125      43.269125      1.0889586      571.23164     -392.42519     -437.90889    
     53000   53000          593.01771     -95.814321      26093.356      26207.767      11488.108      14719.659      5083.0944      4545.2698      3563.1642      453.22813      517.76214      4903.8838     -4346.7434     -481.0193       81876.886      43.423061      43.423061      43.423061      1.0774184      607.76079      270.07023     -1165.274     
     54000   54000          599.53118      485.41813      27233.394      26654.165      11614.289      15039.876      5138.972       4753.0651      3616.9418      428.7307       549.46147      4897.5853     -4344.8802     -481.35464      81819.846      43.412975      43.412975      43.412975      1.0781695     -639.70393      1242.3676      853.59076    
     55000   55000          585.18293     -1318.6779      24855.964      26431.297      11336.33       15094.967      5121.2525      4747.1452      3746.4181      448.10435      485.24605      4894.1641     -4347.3632     -480.8017       81913.942      43.429611      43.429611      43.429611      1.076931      -1166.2485     -959.44289     -1830.3423    
     56000   56000          602.40208      825.38213      27812.544      26822.449      11669.905      15152.544      5137.1948      4852.57        3598.4642      432.56784      571.79531      4907.1909     -4347.2388     -478.82617      82251.9        43.489256      43.489256      43.489256      1.0725061      1209.0482      1311.174      -44.075733    
     57000   57000          601.39365      645.50101      27221.563      26440.34       11650.369      14789.971      4935.4011      4671.8419      3653.669       420.98052      556.70814      4894.7446     -4343.3745     -474.59285      82985.579      43.61818       43.61818       43.61818       1.063024       1531.3928      257.3261       147.7841     
     58000   58000          596.85488     -282.99728      26016.26       26354.38       11562.442      14791.938      5035.6723      4561.5499      3698.5599      413.15367      513.06782      4911.247      -4341.3126     -480.74105      81924.276      43.431438      43.431438      43.431438      1.0767951     -1360.7959      1691.1639     -1179.3599    
     59000   59000          600.62224      20.529298      26687.155      26662.576      11635.425      15027.152      5126.0256      4724.3633      3622.1071      441.68882      550.73874      4904.2412     -4342.0132     -479.75086      82093.365      43.461297      43.461297      43.461297      1.0745772     -882.04906      2807.1559     -1863.519     
     60000   60000          602.36012      889.65562      27581.041      26520.327      11669.092      14851.235      5104.1248      4611.0502      3641.1384      443.2679       500.33444      4897.7311     -4346.4119     -481.75165      81752.419      43.401047      43.401047      43.401047      1.0790587      1719.7539     -814.9749       1764.1879    
     61000   61000          599.49359      2799.4354      29774.636      26436.985      11613.56       14823.425      5076.1527      4688.9486      3534.8617      433.44723      525.34794      4910.5948     -4345.928      -481.75846      81751.264      43.400842      43.400842      43.400842      1.079074       3582.4164      1100.3481      3715.5416    
     62000   62000          589.52921      705.68634      26915.555      26078.874      11420.528      14658.346      4973.9496      4595.405       3634.7638      423.73644      488.76237      4886.4809     -4344.7517     -484.45293      81296.571      43.320229      43.320229      43.320229      1.0851093      1846.173       804.9471      -534.06104    
     63000   63000          588.30869      233.51585      26612.27       26329.347      11396.883      14932.463      5079.8672      4709.5979      3606.2364      452.94393      516.21724      4909.4999     -4341.8993     -474.07537      83076.163      43.634045      43.634045      43.634045      1.0618649     -33.873861     -963.14756      1697.569     
     64000   64000          604.57073      15.01583       26679.676      26661.802      11711.916      14949.886      5193.2553      4603.0189      3690.3159      453.54597      444.17414      4904.3353     -4338.7595     -482.54862      81617.398      43.37714       43.37714       43.37714       1.0808438     -649.06074      827.53833     -133.4301     
     65000   65000          590.16803     -754.38735      25508.989      26413.382      11432.903      14980.479      4963.6215      4710.9327      3774.5925      454.06312      525.38812      4898.7949     -4346.9144     -479.11186      82202.855      43.480611      43.480611      43.480611      1.073146      -1312.2681     -1471.4832      520.58924    
     66000   66000          583.26418      1397.3782      27967.53       26307.793      11299.16       15008.633      5032.414       4711.4595      3676.228       458.25602      554.17751      4919.306      -4343.2077     -483.58674      81442.188      43.346078      43.346078      43.346078      1.0831691      2217.8911      826.09428      1148.1491    
     67000   67000          590.25633      1662.253       28580.165      26621.272      11434.614      15186.659      5204.4905      4770.0377      3646.6553      470.75712      552.64289      4889.1395     -4347.0644     -487.40059      80804.914      43.232723      43.232723      43.232723      1.0917116      1433.4518      1060.7491      2492.5581    
     68000   68000          602.21729      238.40048      26996.346      26710.363      11666.325      15044.038      5152.996       4715.9458      3642.5667      437.94292      531.62041      4905.5445     -4342.5784     -478.81358      82254.064      43.489637      43.489637      43.489637      1.0724779     -1715.1973     -292.40141      2722.8002    
     69000   69000          585.53446      1271.4315      27832.786      26320.509      11343.14       14977.369      5175.6717      4730.7259      3560.9645      424.67155      537.19949      4894.5334     -4346.3974     -482.90468      81557.219      43.366476      43.366476      43.366476      1.0816414      1566.9777      1350.4458      896.87091    
     70000   70000          591.96369      1719.6149      28328.592      26276.066      11467.689      14808.377      5015.4752      4612.9674      3612.0023      432.22624      570.18342      4907.3808     -4341.8588     -481.21835      81843.019      43.417074      43.417074      43.417074      1.0778642      1585.6101      2872.8372      700.39741    
     71000   71000          592.88501     -1960.5568      24075.94       26405.395      11485.537      14919.858      4945.4879      4623.2205      3836.1149      448.10871      503.75976      4905.6975     -4342.5313     -483.42015      81470.254      43.351057      43.351057      43.351057      1.082796      -3765.748      -2069.4111     -46.51132     
     72000   72000          606.09592     -446.64602      26118.222      26654.453      11741.463      14912.99       5047.7364      4624.3973      3680.2954      451.23806      565.33044      4888.1074     -4344.1146     -478.42228      82321.338      43.501491      43.501491      43.501491      1.0716014     -124.36664      1014.0208     -2229.5922    
     73000   73000          593.57815      1584.9768      28167.056      26276.923      11498.965      14777.958      5039.4965      4744.1196      3475.397       434.6528       524.17727      4904.0514     -4343.9366     -481.64849      81769.928      43.404145      43.404145      43.404145      1.0788277      3595.4567     -579.12555      1738.5991    
     74000   74000          593.66158     -495.03946      25945.46       26543.145      11500.581      15042.564      5219.2626      4688.8737      3601.5397      444.99991      518.23589      4910.8496     -4341.1973     -475.73713      82785.975      43.583181      43.583181      43.583181      1.065587      -237.95783     -977.68607     -269.47447    
     75000   75000          591.58129      1037.4993      27626.163      26383.451      11460.281      14923.17       5100.2423      4742.5703      3553.6049      444.77066      513.81794      4915.2267     -4347.0626     -479.53132      82130.949      43.467929      43.467929      43.467929      1.0740855     -242.33565      2073.2222      1281.6114    
     76000   76000          588.72646     -918.34271      25268.374      26362.933      11404.977      14957.957      5001.5777      4759.984       3719.0954      435.78113      483.71987      4901.8121     -4344.0136     -481.90951      81725.639      43.396307      43.396307      43.396307      1.0794123     -240.84735     -1454.9417     -1059.2391    
     77000   77000          587.16765     -277.56464      26091.903      26423.915      11374.779      15049.136      5126.9404      4782.6725      3648.3788      450.05629      475.44245      4907.9722     -4342.3265     -480.18596      82018.98       43.448167      43.448167      43.448167      1.0755518      784.88908     -1038.0976     -579.48542    
     78000   78000          588.01967     -104.83343      26163.416      26288.412      11391.284      14897.128      5031.7558      4741.6768      3642.72        446.2037       470.61322      4905.0892     -4340.9308     -481.72761      81756.498      43.401769      43.401769      43.401769      1.0790049     -1172.4132      152.70272      705.21021    
     79000   79000          594.19669     -952.5377       25171.147      26323.009      11510.947      14812.062      5044.0091      4622.2841      3599.2789      440.32502      539.79892      4910.9266     -4344.5606     -474.98659      82916.788      43.606124      43.606124      43.606124      1.0639059      347.41235     -1398.1775     -1806.848     
     80000   80000          591.69056     -254.76716      26138.632      26443.116      11462.398      14980.719      5026.2254      4739.7755      3681.207       481.9976       483.30622      4915.2872     -4347.0804     -480.59413      81949.321      43.435863      43.435863      43.435863      1.0764661     -305.71844     -1421.4568      962.87373    
     81000   81000          598.95697      1724.7202      28571.646      26535.194      11603.165      14932.029      5044.1248      4721.2768      3594.5119      449.7492       572.83406      4894.6572     -4345.1247     -486.4566       80961.719      43.26067       43.26067       43.26067       1.0895972      377.72194      1899.179       2897.2596    
     82000   82000          589.11148      63.928747      26406.238      26329.94       11412.435      14917.505      4999.2285      4649.8901      3783.4037      468.72236      476.98754      4886.2649     -4346.9918     -481.26434      81835.198      43.41569       43.41569       43.41569       1.0779672     -1548.5692      1316.0938      424.26164    
     83000   83000          601.6146       2561.2247      29683.52       26655.374      11654.649      15000.725      5154.6556      4723.7485      3596.0196      443.55835      518.26657      4910.0276     -4345.5515     -485.81455      81068.718      43.279719      43.279719      43.279719      1.0881591      2044.4551      2315.8506      3323.3684    
     84000   84000          589.24184      354.54157      26585.119      26163.771      11414.961      14748.81       4982.4257      4565.8035      3698.9648      456.50306      503.57339      4890.6327     -4349.0928     -483.30986      81488.846      43.354354      43.354354      43.354354      1.0825489      977.62006      614.16402     -528.15936    
     85000   85000          594.62093     -1105.6003      25119.459      26429.464      11519.166      14910.298      5142.0368      4591.1388      3727.8727      441.67926      453.01306      4900.9684     -4346.4108     -484.75798      81245.413      43.31114       43.31114       43.31114       1.0857925     -1848.7488      385.79764     -1853.8498    
     86000   86000          586.78635      515.06664      26850.954      26237.31       11367.392      14869.918      4975.6789      4814.2943      3615.216       428.49927      468.56053      4911.5074     -4343.8386     -482.1107       81691.534      43.39027       43.39027       43.39027       1.079863       3053.5254     -399.35813     -1108.9673    
     87000   87000          577.80262     -1191.52        24517.127      25920.874      11193.357      14727.517      5024.3663      4659.8489      3650.2653      416.48473      426.96235      4893.1401     -4343.5507     -487.54235      80781.419      43.228532      43.228532      43.228532      1.0920291     -1266.852      -1868.1255     -439.58237    
     88000   88000          594.93158      332.36383      26863.967      26470.095      11525.184      14944.912      5042.0573      4744.6598      3684.9053      448.04157      469.2613       4901.1736     -4345.1872     -484.68453      81257.725      43.313328      43.313328      43.313328      1.085628       20.919852      414.42879      561.74284    
     89000   89000          582.80447     -1657.3549      24114.766      26066.719      11290.254      14776.465      5033.2187      4662.8673      3690.6885      446.67109      366.76244      4917.0721     -4340.8155     -487.69228      80756.584      43.224102      43.224102      43.224102      1.092365      -1845.8797     -2302.2354     -823.94975    
     90000   90000          585.38043      43.552913      26316.952      26265.542      11340.156      14925.386      5165.3042      4751.4301      3569.8689      447.3863       418.55962      4917.9873     -4345.1507     -486.59912      80938.007      43.256446      43.256446      43.256446      1.0899164     -20.572656     -1459.9953      1611.2267    
     91000   91000          593.09609      1848.1111      28440.754      26269.845      11489.626      14780.219      5056.1552      4641.9014      3586.217       435.71794      492.32501      4911.9856     -4344.083      -488.97447      80544.823      43.186288      43.186288      43.186288      1.0952369      3150.5339      744.27041      1649.529     
     92000   92000          596.53123      474.27963      26972.763      26408.773      11556.173      14852.6        5042.8709      4736.78        3611.4654      452.26884      456.99379      4902.0458     -4349.8251     -483.01723      81538.214      43.363108      43.363108      43.363108      1.0818935      2194.9803     -827.51193      55.370465    
     93000   93000          594.41438      745.73661      27223.396      26335.749      11515.165      14820.584      4969.2218      4688.2209      3630.5971      440.92127      533.24461      4900.1715     -4341.7931     -482.55273      81616.702      43.377017      43.377017      43.377017      1.0808531      1021.8529     -464.58126      1679.9382    
     94000   94000          590.50944      861.87101      27177.693      26164.767      11439.517      14725.25       5009.7414      4687.0469      3573.0736      441.48391      443.03117      4916.2208     -4345.3478     -488.72448      80586.024      43.19365       43.19365       43.19365       1.0946769      2160.2597     -4.8106309      430.16395    
     95000   95000          581.31445     -1177.6963      24623.809      26035.299      11261.389      14773.91       4905.2998      4693.8292      3700.9518      433.08966      491.52879      4896.9569     -4347.7457     -479.24245      82180.454      43.476661      43.476661      43.476661      1.0734385     -1034.4551     -1027.9808     -1470.6529    
     96000   96000          575.59226     -969.10278      25026.736      26183.184      11150.537      15032.647      5110.8763      4727.3318      3690.6304      438.35431      507.48912      4905.7104     -4347.7458     -481.33077      81823.903      43.413693      43.413693      43.413693      1.078116      -1889.0576     -577.30931     -440.94145    
     97000   97000          592.33414      1491.3936      28080.993      26296.284      11474.865      14821.418      5036.7957      4704.6161      3520.8072      448.57619      529.83258      4922.2049     -4341.4143     -479.9815       82053.917      43.454335      43.454335      43.454335      1.0750939      2532.5027      2444.72       -503.04179    
     98000   98000          597.40211      1747.0876      28345.944      26269.48       11573.044      14696.437      5202.0994      4659.1447      3396.6503      431.5519       432.2732       4918.1897     -4343.4728     -483.27013      81495.544      43.355542      43.355542      43.355542      1.0824599      3093.9292      765.15808      1382.1757    
     99000   99000          595.85295     -398.7693       25821.729      26300.671      11543.033      14757.638      4964.036       4696.8152      3559.6915      429.95412      555.4624       4898.4769     -4346.7978     -478.23165      82354.154      43.50727       43.50727       43.50727       1.0711744     -158.51899     -957.43189     -80.357032    
    100000   100000         571.30491     -1727.7778      23846.045      25917.436      11067.481      14849.955      5014.3529      4674.1672      3739.0036      434.74501      437.55073      4896.7112     -4346.5758     -479.09931      82205.009      43.48099       43.48099       43.48099       1.0731179     -2129.247      -3058.8931      4.8066725    
    101000   101000         594.5797      -1046.8736      25147.612      26395.419      11518.367      14877.052      5069.5585      4687.2271      3640.3363      440.20858      473.19077      4905.0472     -4338.5161     -481.88815      81729.262      43.396948      43.396948      43.396948      1.0793645     -3179.4159     -1712.9324      1751.7276    
    102000   102000         584.52684     -393.93668      25540.035      26007.037      11323.62       14683.416      5093.4063      4545.6104      3643.7192      430.50633      422.11124      4893.0643     -4345.0014     -484.5151       81286.14       43.318376      43.318376      43.318376      1.0852485     -1549.7708      1240.6425     -872.68175    
    103000   103000         585.30803     -484.24658      25555.268      26132.063      11338.754      14793.309      5131.3589      4674.1908      3555.8525      434.91481      434.46405      4908.34       -4345.8117     -482.21984      81673.044      43.386996      43.386996      43.386996      1.0801074      1335.3472     -1760.2497     -1027.8372    
    104000   104000         596.53573     -27.070905      26458.208      26490.402      11556.26       14934.142      4959.1972      4754.1152      3753.3022      438.09856      473.93665      4900.2671     -4344.7751     -482.98164      81544.222      43.364173      43.364173      43.364173      1.0818138     -80.002981     -2346.348       2345.1382    
    105000   105000         580.78283      1611.6081      28113.271      26200.788      11251.09       14949.698      5137.411       4781.3745      3534.2168      435.63118      496.66312      4905.5593     -4341.1577     -484.01823      81369.585      43.333194      43.333194      43.333194      1.0841356      2141.2081     -778.91302      3472.5292    
    106000   106000         602.20563      319.00292      27020.268      26644.864      11666.099      14978.765      5099.6401      4691.6237      3702.7973      446.58261      463.59608      4917.2366     -4342.7114     -488.08498      80691.61       43.212507      43.212507      43.212507      1.0932445     -538.7523       1990.1701     -494.40903    
    107000   107000         590.01608     -1733.7608      24238.663      26292.562      11429.959      14862.603      5040.3205      4690.3782      3649.1433      444.73325      473.73649      4910.524      -4346.2329     -484.85263      81229.553      43.308322      43.308322      43.308322      1.0860045     -547.27914     -1540.2389     -3113.7642    
    108000   108000         577.0404      -195.9427       25681.947      25912.367      11178.591      14733.777      4984.0774      4654.3957      3658.1234      455.54107      435.29341      4892.1228     -4345.7773     -488.43728      80633.408      43.202115      43.202115      43.202115      1.0940337      942.56739     -564.52867     -965.86683    
    109000   109000         587.6024       503.95074      26709.217      26120.345      11383.201      14737.145      5092.6874      4674.3866      3574.8894      441.13912      391.8314       4906.272      -4344.0614     -491.54931      80122.913      43.11075       43.11075       43.11075       1.1010042      423.9571       96.415897      991.4792     
    110000   110000         594.58605      697.65191      27119.07       26291.621      11518.49       14773.131      5058.2559      4646.4111      3579.5925      422.73807      510.71676      4894.6057     -4339.1888     -484.2812       81325.4        43.325349      43.325349      43.325349      1.0847246      928.86078      651.33116      512.7638     
    111000   111000         585.41285      2173.6992      28611.915      26056.631      11340.784      14715.846      4952.018       4754.6303      3495.0571      456.75757      508.82767      4891.4546     -4342.8988     -488.60732      80605.346      43.197102      43.197102      43.197102      1.0944145      3068.392       566.31287      2886.3926    
    112000   112000         579.80542     -628.38776      25307.244      26048.704      11232.156      14816.548      4995.648       4825.2672      3624.8367      419.14501      384.68497      4911.4586     -4344.492      -486.78793      80906.612      43.250853      43.250853      43.250853      1.0903393     -702.72207     -764.68518     -417.75605    
    113000   113000         579.4832      -1284.7348      24613.018      26137.204      11225.913      14911.29       5015.8515      4777.6135      3669.4711      449.24783      432.98878      4909.2233     -4343.1056     -484.14473      81348.324      43.329419      43.329419      43.329419      1.0844189     -3303.0103      423.8733      -975.06731    
    114000   114000         586.95621     -945.38281      25225.651      26338          11370.683      14967.317      5090.1987      4817.8997      3621.2932      444.84845      434.41544      4901.626      -4342.9646     -488.16466      80678.438      43.210155      43.210155      43.210155      1.093423      -862.00947     -1061.7602     -912.37877    
    115000   115000         599.80868      1597.821       28348.86       26475.588      11619.664      14855.923      4986.0919      4690.7803      3649.1697      469.60059      489.57229      4913.7088     -4343.0002     -489.92212      80389.027      43.158425      43.158425      43.158425      1.0973595      2465.18        1642.529       685.75388    
    116000   116000         577.3744      -1410.7581      24296.943      25961.418      11185.061      14776.356      5011.8798      4746.6247      3672.975       435.36533      333.75028      4918.9195     -4343.1582     -486.82739      80900.056      43.249684      43.249684      43.249684      1.0904277     -2889.4405      289.33837     -1632.1723    
    117000   117000         589.08351     -685.91355      25518.674      26322.926      11411.893      14911.033      5088.1496      4806.9217      3650.7934      430.61539      375.83172      4903.2463     -4344.5253     -489.86563      80398.298      43.160084      43.160084      43.160084      1.097233      -2244.3174      1556.2927     -1369.7159    
    118000   118000         587.18462      128.97131      26098.556      25944.942      11375.107      14569.835      5029.5839      4482.2805      3546.4007      451.09587      508.5134       4897.0127     -4345.0522     -482.23816      81669.942      43.386447      43.386447      43.386447      1.0801485     -722.45442      396.71267      712.65569    
    119000   119000         593.36177     -101.16996      26237.595      26356.928      11494.773      14862.155      5005.5076      4776.167       3646.3969      443.92601      429.89077      4905.9457     -4345.6793     -486.95971      80878.072      43.245766      43.245766      43.245766      1.0907241      1228.0054     -542.14408     -989.37122    
    120000   120000         580.33325      344.89655      26495.337      26084.146      11242.381      14841.765      4812.9748      4759.5059      3695.8402      474.09271      532.51934      4910.9043     -4344.0721     -481.77587      81748.309      43.400319      43.400319      43.400319      1.079113       2527.548      -1057.6608     -435.19749    
    121000   121000         592.27392     -345.39072      25873.616      26280.144      11473.699      14806.445      4960.9195      4653.3649      3700.4585      472.34952      458.04838      4902.9738     -4341.6694     -488.0001       80705.645      43.215012      43.215012      43.215012      1.0930544      550.78812     -466.13462     -1120.8256    
    122000   122000         583.40653      91.097665      26302.242      26194.361      11301.917      14892.444      5041.889       4843.127       3501.4415      423.69979      519.37062      4904.103      -4341.1873     -485.02248      81201.107      43.303266      43.303266      43.303266      1.086385      -311.13195      347.47433      236.95061    
    123000   123000         589.32722      101.77281      26494.171      26373.231      11416.615      14956.617      5043.3177      4643.3716      3770.5478      461.88916      481.46878      4902.5262     -4346.5045     -483.34977      81482.116      43.353161      43.353161      43.353161      1.0826383      1810.6299      1133.9294     -2639.2408    
    124000   124000         591.92069     -1303.3156      24656.506      26200.654      11466.856      14733.798      4933.8981      4608.7885      3719.3903      460.46002      473.87701      4887.8907     -4350.5064     -484.79756      81238.78       43.309962      43.309962      43.309962      1.0858812     -2300.7117     -1799.1745      189.93936    
    125000   125000         581.19723      1354.2392      27650.815      26065.397      11259.118      14806.279      4982.1763      4699.3626      3659.6398      457.03601      447.22112      4911.1082     -4350.2649     -490.62701      80273.531      43.137747      43.137747      43.137747      1.0989384     -630.39303      2205.8811      2487.2297    
    126000   126000         592.14727     -435.64862      25648.113      26165.029      11471.245      14693.783      5088.1775      4648.9961      3527.8874      425.02895      441.22165      4911.7337     -4349.2619     -484.07927      81359.325      43.331372      43.331372      43.331372      1.0842723      517.05477     -894.42158     -929.57907    
    127000   127000         597.13227      754.98969      27391.346      26503.959      11567.816      14936.143      5085.3882      4707.9328      3740.4496      457.50781      369.85856      4920.6011     -4345.5949     -488.6834       80592.798      43.194861      43.194861      43.194861      1.0945849     -819.50194      2056.4587      1028.0123    
    128000   128000         577.71764     -1676.1466      23987.043      25966.564      11191.711      14774.854      5057.953       4625.6696      3775.3427      436.95633      326.69009      4897.4368     -4345.1948     -486.35292      80978.979      43.263744      43.263744      43.263744      1.089365      -2555.1924     -154.32029     -2318.9271    
    129000   129000         582.72456      407.11885      26579.74       26100.287      11288.706      14811.581      5079.1227      4728.7876      3554.2698      447.56064      456.04721      4893.4975     -4347.7048     -487.72406      80751.322      43.223163      43.223163      43.223163      1.0924361      963.81358      288.75728     -31.214324    
    130000   130000         588.60241      963.18942      27140.466      26005.293      11402.573      14602.719      5011.7685      4639.9746      3515.4622      429.93584      454.25454      4897.8893     -4346.5656     -487.35938      80811.746      43.233941      43.233941      43.233941      1.0916193      1103.6504      1093.6071      692.3108     
    131000   131000         593.46435      745.74672      27243.684      26355.271      11496.76       14858.511      5019.0096      4670.4146      3609.7035      430.08336      571.54149      4904.7735     -4347.0152     -482.14322      81686.023      43.389294      43.389294      43.389294      1.0799358     -1034.6713      1507.5133      1764.3982    
    132000   132000         593.83326      473.92186      26832.524      26274.593      11503.907      14770.686      5022.7058      4625.9699      3650.0008      427.66019      494.20099      4894.4698     -4344.3212     -487.89479      80723.064      43.218121      43.218121      43.218121      1.0928186      57.389926      499.13992      865.23573    
    133000   133000         589.85013     -1349.5307      24429.315      26059.064      11426.744      14632.32       4978.1092      4671.9452      3526.8917      423.73765      489.26427      4890.0631     -4347.6913     -475.62185      82806.042      43.586702      43.586702      43.586702      1.0653288     -2493.0245     -42.834431     -1512.7332    
    134000   134000         589.51079      424.10002      26701.762      26199.528      11420.171      14779.358      5032.4871      4603.4748      3653.3678      434.55554      501.40926      4897.6937     -4343.6305     -485.02268      81201.074      43.30326       43.30326       43.30326       1.0863854     -325.59617     -120.76232      1718.6585    
    135000   135000         586.10129     -461.455        25611.064      26158.808      11354.121      14804.687      5021.6422      4508.3737      3674.0311      456.87069      574.49745      4908.3068     -4339.0346     -483.89486      81390.331      43.336876      43.336876      43.336876      1.0838592     -2131.3626      138.07098      608.92667    
    136000   136000         582.3651      -473.65914      25436.544      25999.359      11281.742      14717.617      5053.4075      4528.8277      3665.8556      449.20115      468.83374      4894.3821     -4342.8914     -483.39265      81474.889      43.351879      43.351879      43.351879      1.0827344      571.57076     -88.57198      -1903.9762    
    137000   137000         587.03771     -413.67843      25830.797      26322.261      11372.262      14949.999      5167.5585      4659.1189      3681.684       433.04324      454.84953      4900.1521     -4346.4069     -483.47134      81461.629      43.349527      43.349527      43.349527      1.0829106     -1066.9501     -1623.1728      1449.0876    
    138000   138000         595.49959      156.38507      26568.125      26382.763      11536.188      14846.575      4957.6494      4631.3243      3743.5713      477.95114      473.76669      4903.9199     -4341.6073     -484.5891       81273.728      43.316171      43.316171      43.316171      1.0854142      851.53615      480.45364     -862.83456    
    139000   139000         593.05552      840.0231       26890.738      25908.694      11488.84       14419.854      4889.8818      4691.8408      3401.6251      410.85898      457.26072      4912.9815     -4344.5951     -491.31527      80161.08       43.117594      43.117594      43.117594      1.10048        1047.5424      553.58206      918.94486    
    140000   140000         594.35122     -2654.8889      23189.324      26324.801      11513.941      14810.86       4983.23        4714.4948      3723.1389      443.33239      382.10943      4910.8399     -4346.2857     -486.34273      80980.675      43.264046      43.264046      43.264046      1.0893421     -1541.6387     -4274.7957     -2148.2324    
    141000   141000         594.6894       736.37455      27096.237      26226.658      11520.492      14706.165      5087.6692      4605.2679      3565.1321      437.44185      467.70734      4890.0722     -4347.1252     -486.39514      80971.949      43.262492      43.262492      43.262492      1.0894595      357.654        1780.1643      71.305357    
    142000   142000         581.70408      1131.4315      27274.757      25939.002      11268.937      14670.065      4980.9826      4706.3337      3477.8445      445.44128      517.89445      4889.9676     -4348.3989     -486.52052      80951.082      43.258775      43.258775      43.258775      1.0897404      3033.3928     -371.91955      732.82122    
    143000   143000         598.67693      482.09514      27026.925      26451.709      11597.74       14853.969      4936.0495      4696.9848      3740.4006      439.87934      483.68437      4904.2201     -4347.2498     -481.39497      81812.992      43.411763      43.411763      43.411763      1.0782598      104.57673      625.78559      715.92309    
    144000   144000         574.63013      94.262289      26063.557      25952.669      11131.898      14820.771      4951.2865      4731.0102      3708.0514      448.60014      455.31981      4879.8573     -4353.3545     -488.26264      80662.248      43.207265      43.207265      43.207265      1.0936425      1443.6538     -1584.9392      424.07227    
    145000   145000         594.9265      -1410.9378      24500.426      26164.587      11525.085      14639.501      4960.5541      4589.6725      3688.4811      441.85055      405.41406      4901.6297     -4348.1004     -486.98115      80874.511      43.245132      43.245132      43.245132      1.0907721     -1490.332      -138.49196     -2603.9896    
    146000   146000         588.47062      1598.378       28163.744      26254.425      11400.02       14854.405      5095.5214      4712.7747      3589.1784      430.9574       469.47451      4904.7684     -4348.2698     -480.84028      81907.369      43.42845       43.42845       43.42845       1.0770174      2641.5522     -210.38993      2363.9718    
    147000   147000         595.11204      687.29741      27298.782      26471.218      11528.68       14942.538      5015.9495      4768.4198      3602.231       446.55263      543.92279      4911.624      -4346.162      -477.0264       82562.228      43.543881      43.543881      43.543881      1.0684748     -81.875196      426.8578       1716.9096    
    148000   148000         581.80454     -871.49855      25021.692      26058.038      11270.883      14787.155      4976.9721      4696.8348      3652.4005      430.08115      476.94697      4901.0283     -4347.1087     -483.01611      81538.405      43.363141      43.363141      43.363141      1.081891      -2006.3672     -470.9878      -137.14059    
    149000   149000         579.44114     -842.2645       24759.563      25757.748      11225.099      14532.65       4799.5601      4662.5348      3630.262       434.89962      442.98773      4911.4093     -4349.0038     -484.65985      81261.863      43.314063      43.314063      43.314063      1.0855727     -51.586306     -1803.1943     -672.0129     
    150000   150000         584.67324      15.059651      26154.647      26136.672      11326.456      14810.216      5087.7846      4646.2935      3645.0022      430.63046      444.04685      4901.5776     -4345.1196     -481.22192      81842.411      43.416966      43.416966      43.416966      1.0778722      940.5029      -297.02764     -598.29631    
    151000   151000         575.97607      781.95502      26756.777      25830.253      11157.972      14672.281      4936.2882      4753.8488      3504.9725      427.159        505.05723      4896.3901     -4351.4347     -484.75817      81245.382      43.311135      43.311135      43.311135      1.0857929      478.4879       1054.0027      813.37449    
    152000   152000         579.23705      747.8943       26809.311      25928.318      11221.145      14707.173      4868.2131      4621.2718      3699.8672      451.84808      518.27499      4897.206      -4349.508      -487.60417      80771.177      43.226706      43.226706      43.226706      1.0921676      200.70174     -665.72549      2708.7066    
    153000   153000         591.16449     -481.16918      25650.412      26216.617      11452.207      14764.41       4841.2698      4759.0108      3649.7985      456.31389      496.68302      4907.2531     -4345.9189     -488.11659      80686.384      43.211574      43.211574      43.211574      1.0933154     -2645.1926      1261.9813     -60.296176    
    154000   154000         582.89895     -31.311568      25950.352      25987.857      11292.084      14695.773      4932.523       4633.3439      3637.0392      425.32039      509.22348      4909.8244     -4351.5014     -479.52678      82131.727      43.468066      43.468066      43.468066      1.0740753     -52.070269     -1475.2132      1433.3488    
    155000   155000         593.26707      962.70878      27223.591      26090.737      11492.939      14597.799      4882.2058      4684.6739      3627.7245      425.92138      425.73542      4906.0824     -4354.5448     -488.11331      80686.926      43.211671      43.211671      43.211671      1.093308       1207.6438      1508.3207      172.16179    
    156000   156000         585.09811     -405.6967       25662.611      26142.85       11334.687      14808.163      5056.5568      4730.2191      3641.4283      438.73986      390.58154      4902.296      -4351.6589     -485.22633      81166.994      43.297201      43.297201      43.297201      1.0868416     -243.70111     -1349.37        375.98098    
    157000   157000         583.12567     -1103.6683      24761.992      26058.27       11296.476      14761.794      4986.3637      4763.3744      3590.0585      446.35737      423.3233       4901.9484     -4349.6321     -489.03529      80534.807      43.184498      43.184498      43.184498      1.0953731     -786.1412      -606.8236      -1918.0401    
    158000   158000         573.2135       71.57365       25834.609      25750.328      11104.455      14645.873      5036.5749      4660.1521      3564.4002      441.3416       384.86249      4910.3537     -4351.8118     -487.78041      80741.993      43.221499      43.221499      43.221499      1.0925624      682.13403      924.39064     -1391.8037    
    159000   159000         583.36448      1152.2272      27379.731      26020.908      11301.103      14719.806      5090.1072      4661.4932      3536.374       451.27771      435.12063      4894.7777     -4349.345      -487.05159      80862.815      43.243047      43.243047      43.243047      1.0909299      3537.9857      1449.7963     -1531.1004    
    160000   160000         584.96822     -3035.2117      22399.504      25965.067      11332.171      14632.897      4854.2512      4566.1904      3833.9082      450.60845      381.47363      4897.5848     -4351.1201     -488.94562      80549.576      43.187137      43.187137      43.187137      1.0951723     -3163.0956     -2470.8364     -3471.7032    
    161000   161000         579.88765     -1475.7091      24180.071      25902.035      11233.749      14668.286      5110.1275      4705.7072      3537.6953      416.41768      347.44806      4898.2528     -4347.3623     -492.23935      80010.594      43.090596      43.090596      43.090596      1.1025498     -764.00183     -1720.4917     -1942.6339    
    162000   162000         583.75396      1070.7353      27338.755      26074.994      11308.648      14766.347      5136.1142      4552.087       3586.1849      450.39294      499.36279      4889.3548     -4347.15       -486.6502       80929.51       43.254932      43.254932      43.254932      1.0900308      1190.5634      1098.276       923.36646    
    163000   163000         581.64135      331.89089      26507.216      26115.892      11267.722      14848.171      5069.5355      4715.424       3628.4922      454.94339      419.34931      4912.3859     -4351.9596     -487.14507      80847.297      43.24028       43.24028       43.24028       1.0911393     -896.7688       2134.2767     -241.83522    
    164000   164000         582.75892     -1391.349       24122.122      25759.48       11289.372      14470.109      4875.0978      4624.4172      3649.2105      429.51758      335.30394      4906.5745     -4350.013      -488.08116      80692.241      43.212619      43.212619      43.212619      1.093236      -2382.9032     -855.43695     -935.70673    
    165000   165000         588.66524      266.04835      26183.541      25872.082      11403.791      14468.292      4965.6676      4525.6109      3653.6982      436.43034      327.32741      4905.5667     -4346.0095     -490.63581      80272.091      43.137489      43.137489      43.137489      1.0989581      1445.7084     -639.3112      -8.2521824    
    166000   166000         587.02376      501.97534      26819.957      26230.188      11371.991      14858.197      5100.8706      4705.9901      3631.8072      441.51654      440.97197      4887.8898     -4350.8497     -488.87735      80560.824      43.189148      43.189148      43.189148      1.0950194      1197.8165      459.75566     -151.64619    
    167000   167000         585.64115      517.09039      26445.304      25835.72       11345.207      14490.513      4980.5167      4566.7468      3531.7124      417.69505      437.31904      4905.9355     -4349.4126     -487.22843      80833.466      43.237815      43.237815      43.237815      1.091326       3126.1915     -1482.1575     -92.762782    
    168000   168000         593.7369      -103.27936      26215.07       26336.166      11502.04       14834.126      4973.6537      4721.0856      3685.7121      448.42632      452.4413       4900.0373     -4347.2303     -489.87069      80397.466      43.159936      43.159936      43.159936      1.0972443      399.75863      756.33793     -1465.9346    
    169000   169000         584.21563     -321.64217      25477.943      25856.313      11317.591      14538.721      4888.1668      4628.8772      3597.8862      425.52602      431.48001      4916.0775     -4349.2922     -488.26573      80661.739      43.207174      43.207174      43.207174      1.0936494     -657.51786      832.48291     -1139.8915    
    170000   170000         581.58118      216.72681      25942.246      25688.198      11266.556      14421.642      4845.6828      4621.6815      3531.4118      436.84816      411.37511      4918.704      -4344.0614     -490.00149      80376.006      43.156095      43.156095      43.156095      1.0975373      527.86947      2635.2692     -2512.9582    
    171000   171000         581.32573      447.92075      26453.682      25923.825      11261.607      14662.218      4890.6423      4620.6524      3656.8465      431.01744      517.76925      4895.8341     -4350.5439     -485.55928      81111.337      43.287302      43.287302      43.287302      1.0875873     -831.25077     -516.97317      2691.9862    
    172000   172000         588.67627     -277.61531      25773.437      26102.187      11404.004      14698.182      4982.1486      4651.3782      3625.0739      432.49558      446.69739      4908.0051     -4347.6163     -485.0404       81198.108      43.302733      43.302733      43.302733      1.0864251      1472.6249     -2849.774       544.30319    
    173000   173000         574.57911     -447.37064      25067.279      25588.504      11130.91       14457.594      4880.1002      4605.75        3570.2148      413.7209       425.66373      4906.4674     -4344.3232     -492.99483      79887.983      43.068573      43.068573      43.068573      1.104242      -3447.6907     -287.98565      2393.5644    
    174000   174000         565.08661      1339.1252      27508.348      25902.532      10947.019      14955.513      4936.8856      4734.5471      3724.9975      452.77672      524.61651      4921.6698     -4339.9798     -478.98838      82224.046      43.484346      43.484346      43.484346      1.0728694      2052.9687      2135.7644     -171.35758    
    175000   175000         586.74234     -1520.0843      24323.482      26117.702      11366.539      14751.163      4914.366       4767.1673      3680.5876      447.00097      383.32438      4901.5596     -4342.8431     -486.62201      80934.2        43.255768      43.255768      43.255768      1.0899677     -1258.3121     -681.032       -2620.9088    
    176000   176000         585.06523      1467.1355      27694.115      25944.604      11334.05       14610.554      4933.4004      4634.6281      3563.5569      444.65829      487.26995      4897.6403     -4350.6        -481.67403      81765.593      43.403378      43.403378      43.403378      1.0788849      3447.0193      890.33667      64.050654    
    177000   177000         583.52826     -1840.4781      23740.417      25906.535      11304.276      14602.259      4893.0987      4573.0011      3708.648       421.00392      440.50323      4912.4733     -4346.4688     -488.03184      80700.396      43.214075      43.214075      43.214075      1.0931255     -1935.1102     -1637.9803     -1948.3437    
    178000   178000         584.78017      1367.5023      27670.24       26071.189      11328.528      14742.661      4981.2481      4694.5633      3606.7344      436.04572      457.25057      4912.4682     -4345.6494     -491.20782      80178.615      43.120738      43.120738      43.120738      1.1002393      778.9047       626.83054      2696.7716    
    179000   179000         573.1343      -1594.784       23862.111      25734.002      11102.921      14631.082      4908.2633      4647.4925      3680.0411      427.14967      420.56032      4899.7688     -4352.1941     -489.3515       80482.767      43.175194      43.175194      43.175194      1.0960814     -673.09639     -2037.251      -2074.0047    
    180000   180000         576.33974     -1506.4907      24264.963      26046.367      11165.018      14881.349      5026.9262      4724.2134      3771.5825      437.10909      359.87481      4907.1191     -4345.4759     -485.73996      81081.166      43.281934      43.281934      43.281934      1.087992      -2197.9801     -1150.0662     -1171.4258    
    181000   181000         579.38952      1868.4818      28018.342      25820.366      11224.099      14596.268      5000.5513      4650.2068      3454.422       432.8538       504.35996      4902.3222     -4348.4485     -488.27633      80659.986      43.206861      43.206861      43.206861      1.0936732      335.61696      2070.5923      3199.236     
    182000   182000         583.76638      2807.5575      29386.07       26074.841      11308.888      14765.953      4949.8942      4687.5064      3629.579       444.76443      495.26003      4907.5912     -4348.6427     -487.0114       80869.488      43.244236      43.244236      43.244236      1.0908399      2601.2889      2925.3363      2896.0472    
    183000   183000         574.46399     -781.29096      24784.551      25713.445      11128.68       14584.765      4967.5307      4611.0456      3592.1972      434.49246      414.11318      4909.1622     -4343.7762     -483.11039      81522.492      43.36032       43.36032       43.36032       1.0821021     -299.4642      -1261.6755     -782.73319    
    184000   184000         585.40001      205.41054      26433.239      26190.391      11340.535      14849.856      4938.9257      4656.8653      3728.1478      457.1305       501.26001      4911.5296     -4344.0032     -485.83365      81065.53       43.279152      43.279152      43.279152      1.0882019     -395.99967      847.723        164.50828    
    185000   185000         582.25569      308.70844      26262.406      25897.293      11279.623      14617.67       4963.9318      4678.4305      3589.4828      436.12938      398.9796       4897.1776     -4346.4616     -485.64764      81096.58       43.284677      43.284677      43.284677      1.0877852     -871.42303      401.87741      1395.6709    
    186000   186000         580.1663      -1132.945       24400.283      25729.482      11239.147      14490.335      4966.9235      4549.4918      3656.0719      433.43071      310.38134      4919.8957     -4345.8598     -489.57418      80446.16       43.168647      43.168647      43.168647      1.0965802     -886.96666     -1423.2181     -1088.6503    
    187000   187000         581.19677      496.69575      26613.892      26025.043      11259.109      14765.934      5012.8284      4689.5752      3625.1315      433.81816      458.52918      4893.3278     -4347.2766     -484.49107      81290.173      43.319092      43.319092      43.319092      1.0851947      603.81535      1402.4977     -516.22577    
    188000   188000         576.38513      1154.4068      27202.097      25855.54       11165.897      14689.643      5110.7643      4711.5796      3457.0495      428.38655      427.76844      4900.6719     -4346.5772     -492.41795      79981.573      43.085385      43.085385      43.085385      1.1029498      3274.856       1161.2324     -972.86811    
    189000   189000         581.53025     -1040.0818      24654.705      25882.159      11265.569      14616.589      4903.444       4640.4628      3671.951       441.77807      409.374        4898.1951     -4348.6158     -486.70098      80921.067      43.253428      43.253428      43.253428      1.0901446     -2182.3527     -528.13859     -409.75423    
    190000   190000         586.09882     -840.48231      24990.171      25976.907      11354.073      14622.834      4976.5921      4583.4187      3623.3482      463.74371      401.70151      4921.2969     -4347.2671     -489.24595      80500.129      43.178299      43.178299      43.178299      1.095845       258.55292     -349.30412     -2430.6957    
    191000   191000         578.92569     -2442.352       22954.153      25828.874      11215.113      14613.76       4894.7737      4595.8635      3730.2513      448.14225      397.43096      4893.6401     -4346.3413     -487.9916       80707.05       43.215263      43.215263      43.215263      1.0930354     -3149.7449     -1031.0803     -3146.2307    
    192000   192000         581.2936      -1388.7859      24141.246      25773.161      11260.985      14512.176      4960.8932      4609.3959      3586.9281      428.77829      381.18791      4891.581      -4346.5885     -488.8072       80572.387      43.191214      43.191214      43.191214      1.0948622     -1053.8818     -1594.6006     -1517.8753    
    193000   193000         584.25321     -549.79477      25347.727      25994.689      11318.319      14676.369      4931.5116      4748.3507      3602.4085      425.8317       422.44926      4893.6819     -4347.8643     -488.1148       80686.68       43.211627      43.211627      43.211627      1.0933113     -806.94717      442.75658     -1285.1937    
    194000   194000         577.66545     -401.50094      25281.769      25755.621      11190.699      14564.921      4960.0725      4554.4643      3602.1778      437.91818      459.8469       4898.3513     -4347.9097     -486.68015      80924.531      43.254045      43.254045      43.254045      1.0900979      968.21122     -363.53045     -1809.1836    
    195000   195000         580.93235      560.56565      26594.477      25941.8        11253.987      14687.813      5056.635       4636.6893      3633.186       431.30554      378.76193      4896.4903     -4345.255      -493.31914      79835.465      43.059133      43.059133      43.059133      1.1049684      1406.6528     -368.86048      643.90465    
    196000   196000         588.9208      -244.79888      25942.138      26230.854      11408.741      14822.113      5089.3934      4688.285       3617.4118      451.1239       405.64874      4913.233      -4342.983      -487.00952      80869.8        43.244292      43.244292      43.244292      1.0908357      116.9003      -947.61472      96.317789    
    197000   197000         578.58661      1631.1727      27668.931      25754.245      11208.544      14545.7        4914.5717      4684.3339      3492.8982      428.23646      466.4044       4905.994      -4346.7384     -489.33026      80486.261      43.175819      43.175819      43.175819      1.0960338      1358.5756      2886.202       648.74053    
    198000   198000         584.12131     -15.394992      25960.662      25978.745      11315.764      14662.981      4875.1442      4779.0646      3569.9669      440.86007      440.82656      4903.2365     -4346.1182     -489.00086      80540.478      43.185511      43.185511      43.185511      1.095296      -293.52914      697.06789     -449.72373    
    199000   199000         574.96633     -1192.2691      24163.803      25569.252      11138.411      14430.841      4858.1893      4634.6918      3569.8991      446.48537      375.77131      4895.2201     -4349.4159     -487.25775      80828.602      43.236947      43.236947      43.236947      1.0913917      491.28456     -1978.3702     -2089.7216    
    200000   200000         574.51756     -1402.2916      24123.056      25760.004      11129.718      14630.286      4929.0742      4655.9676      3700.3051      442.9609       357.76696      4893.4959     -4349.2848     -492.04325      80042.482      43.096319      43.096319      43.096319      1.1021105      255.31487     -1265.5807     -3196.6089    
    201000   201000         583.2879      -498.73488      25150.043      25732.346      11299.619      14432.727      4920.8755      4615.1763      3575.188       412.85404      366.22227      4890.7749     -4348.3643     -491.94921      80057.783      43.099065      43.099065      43.099065      1.1018999     -2155.1355      1458.1742     -799.24338    
    202000   202000         568.23163      736.98698      26449.792      25585.408      11007.945      14577.463      5006.3514      4640.0135      3549.0134      442.59667      388.69694      4898.7135     -4347.9227     -489.72534      80421.328      43.164205      43.164205      43.164205      1.0969187      1232.0861     -183.39957      1162.2744    
    203000   203000         585.06581     -1250.1348      24417.254      25863.757      11334.061      14529.696      4911.6109      4670.1947      3622.8981      445.36245      315.8859       4906.7733     -4343.0292     -496.40614      79338.991      42.96969       42.96969       42.96969       1.1118828     -71.34969      -879.516       -2799.5388    
    204000   204000         585.55304      1144.7657      27423.376      26095.799      11343.5        14752.299      5125.8429      4657.5644      3642.2433      437.67103      339.15041      4896.2236     -4346.3963     -495.28684      79518.29       43.002035      43.002035      43.002035      1.1093757      1730.6983      1410.9586      292.64027    
    205000   205000         586.54737     -511.2386       25142.563      25742.545      11362.763      14379.782      4873.5224      4567.8906      3581.4067      429.21448      375.70061      4897.4515     -4345.404      -489.42391      80470.86       43.173065      43.173065      43.173065      1.0962436      986.75473     -1902.716      -617.75451    
    206000   206000         589.05747     -1645.3444      24013.551      25930.969      11411.389      14519.58       4970.6891      4569.1207      3710.3409      437.70231      280.18682      4896.3439     -4344.8035     -492.87821      79906.885      43.07197       43.07197       43.07197       1.1039807     -2477.0702     -703.83721     -1755.1259    
    207000   207000         580.5383       637.60848      26493.264      25749.021      11246.353      14502.668      4904.5753      4675.9784      3520.7524      431.1784       423.53476      4894.7677     -4348.119      -492.08393      80035.864      43.095132      43.095132      43.095132      1.1022017      491.2393      -354.13686      1775.723     
    208000   208000         574.38508     -953.48801      24571.194      25707.052      11127.151      14579.901      4883.201       4594.6686      3716.4858      445.05243      391.88097      4896.5599     -4347.9473     -482.15931      81683.298      43.388812      43.388812      43.388812      1.0799718     -715.94838     -1801.6643     -342.85137    
    209000   209000         571.02532      1620.6248      27212.073      25339.089      11062.065      14277.024      4922.2331      4561.8827      3489.248       417.52277      314.99845      4918.5436     -4347.405      -496.99039      79245.723      42.952846      42.952846      42.952846      1.1131915      3002.0857      1817.3835      42.405062    
    210000   210000         577.84713      634.09543      26505.482      25757.454      11194.219      14563.235      5015.9562      4597.8116      3511.3609      431.42695      465.89632      4891.9768     -4351.1939     -486.89641      80888.586      43.24764       43.24764       43.24764       1.0905823     -1534.101      -1039.4962      4475.8835    
    211000   211000         579.68915      1086.6728      27269.032      25993.215      11229.903      14763.312      5033.2181      4603.1742      3678.9918      453.68263      430.73268      4906.9672     -4343.4547     -489.22658      80503.317      43.178869      43.178869      43.178869      1.0958016     -929.77399      1093.1849      3096.6076    
    212000   212000         572.55263      537.68145      26339.38       25706.414      11091.652      14614.761      4919.6632      4653.0748      3645.3132      442.30891      394.17372      4911.3684     -4351.1408     -487.91464      80719.78       43.217535      43.217535      43.217535      1.092863       1823.9476      237.9544      -448.8577     
    213000   213000         583.42685      468.37502      26405.621      25852.042      11302.311      14549.731      4913.4633      4654.8278      3521.9377      432.58824      464.7988       4907.1747     -4345.0593     -485.97506      81041.943      43.274954      43.274954      43.274954      1.0885186      1175.9933     -1010.8764      1240.0081    
    214000   214000         566.85921      705.53075      26405.435      25573.266      10981.358      14591.908      4917.4606      4620.4996      3689.6667      439.77186      361.48171      4910.4289     -4347.4012     -486.97211      80876.012      43.245399      43.245399      43.245399      1.0907519      718.65205      484.98672      912.95347    
    215000   215000         582.31523      1051.5728      27195.022      25943.864      11280.776      14663.088      4996.88        4578.5915      3631.0816      433.01423      483.32294      4886.7867     -4346.5891     -482.75531      81582.453      43.370949      43.370949      43.370949      1.0813068      1060.8028      2207.5429     -113.62727    
    216000   216000         569.93194      603.3914       26169.319      25461.227      11040.884      14420.343      4943.3129      4555.6029      3482.4623      436.19736      446.49138      4902.9928     -4346.7166     -489.45108      80466.392      43.172266      43.172266      43.172266      1.0963044      569.65717     -631.59341      1872.1104    
    217000   217000         567.22794      1074.8309      27097.398      25834.696      10988.501      14846.195      5000.1977      4674.5817      3763.9751      462.29301      391.70046      4903.3048     -4349.8581     -488.92141      80553.565      43.18785       43.18785       43.18785       1.095118       276.97299      704.15625      2243.3636    
    218000   218000         577.93301      1359.6601      27371.582      25767.846      11195.883      14571.963      4968.6913      4560.8988      3572.6322      450.9281       467.86638      4900.4055     -4349.4593     -486.96416      80877.333      43.245635      43.245635      43.245635      1.0907341     -125.58869      3074.0579      1130.511     
    219000   219000         573.78819      2001.1957      28100.159      25741.743      11115.588      14626.155      5055.5116      4636.7018      3546.1326      427.54431      411.54807      4897.7864     -4349.0699     -487.38124      80808.122      43.233295      43.233295      43.233295      1.0916683      2985.8502      589.9402       2427.7966    
    220000   220000         580.06709      270.99799      26101.794      25782.222      11237.225      14544.997      4966.6139      4673.1776      3497.0531      429.084        413.35262      4913.0668     -4347.3507     -487.07658      80858.666      43.242307      43.242307      43.242307      1.0909859     -632.25552      2237.5386     -792.28911    
    221000   221000         567.005       -511.66159      25083.779      25696.115      10984.182      14711.933      5053.1783      4677.3812      3517.5187      424.11625      478.3343       4907.9857     -4346.5818     -479.94676      82059.857      43.455383      43.455383      43.455383      1.075016       55.003416     -2581.3458      991.3576     
    222000   222000         579.12447     -400.45642      25230.898      25703.079      11218.964      14484.115      4959.8809      4624.6163      3532.0045      417.61624      386.34954      4908.6035     -4344.9563     -487.13177      80849.506      43.240674      43.240674      43.240674      1.0911095     -1123.6065     -379.67527      301.91249    
    223000   223000         582.84008     -594.64343      25182.326      25882.171      11290.944      14591.228      4917.8368      4639.735       3654.3149      453.48557      375.80878      4893.7845     -4343.7378     -488.03872      80699.258      43.213872      43.213872      43.213872      1.0931409     -241.41699     -711.69842     -830.81489    
    224000   224000         587.18004      773.01277      26931.68       26015.413      11375.019      14640.394      4995.1053      4622.6328      3636.8585      428.93392      395.75364      4907.467      -4346.3573     -484.5783       81275.539      43.316493      43.316493      43.316493      1.0853901     -678.43825      1292.9701      1704.5065    
    225000   225000         581.41713      1513.1712      27375.343      25584.85       11263.378      14321.472      4968.4192      4499.8482      3425.8         429.68043      456.89801      4891.3217     -4350.4959     -485.41705      81135.103      43.29153       43.29153       43.29153       1.0872688      1200.0756      2113.977       1225.461     
    226000   226000         589.60577      730.25941      26638.26       25776.985      11422.011      14354.974      4883.3965      4634.4034      3412.517       431.96803      454.13315      4892.8907     -4354.335      -487.00668      80870.272      43.244376      43.244376      43.244376      1.0908293     -1079.4565      469.95688      2800.2778    
    227000   227000         566.44734     -545.01632      24716.917      25357.677      10973.379      14384.298      4831.7056      4502.9409      3707.4106      433.94042      355.85946      4899.0596     -4346.6188     -488.55522      80613.943      43.198638      43.198638      43.198638      1.0942978     -466.66878     -1663.0499      494.66974    
    228000   228000         580.7965       815.10945      26612.647      25657.011      11251.355      14405.656      4924.0193      4584.7712      3503.0041      418.75947      429.11507      4896.4471     -4350.4604     -489.91775      80389.744      43.158554      43.158554      43.158554      1.0973497      1102.8404      978.00694      364.48096    
    229000   229000         573.50183     -305.06723      25191.709      25549.822      11110.041      14439.782      4949.9588      4604.4733      3556.4025      428.00862      360.98815      4890.9015     -4350.9513     -489.29952      80491.317      43.176723      43.176723      43.176723      1.095965       244.15024     -1356.9926      197.64071    
    230000   230000         570.00395     -1648.8453      23587.919      25531.989      11042.279      14489.711      4818.2206      4621.4738      3672.0903      436.13377      378.0856       4912.1547     -4348.4482     -487.15545      80845.576      43.239974      43.239974      43.239974      1.0911625     -45.733138     -1711.8996     -3188.9031    
    231000   231000         581.4527      -161.72385      25639.772      25829.483      11264.067      14565.416      5059.7793      4545.9266      3524.9863      430.45083      452.62835      4898.4945     -4346.8501     -489.64423      80434.65       43.166588      43.166588      43.166588      1.0967371     -342.87864      187.18141     -329.47431    
    232000   232000         563.01707      779.96019      26405.09       25482.784      10906.927      14575.857      5007.4715      4613.9947      3476.6552      419.21639      508.12658      4894.383      -4343.99       -485.73278      81082.364      43.282148      43.282148      43.282148      1.0879759      768.95147     -223.57414      1794.5032    
    233000   233000         587.13846      627.40372      26687.788      25944.165      11374.213      14569.952      5061.7178      4568.4351      3521.9486      451.98607      419.97186      4893.0879     -4347.1952     -484.61197      81269.892      43.31549       43.31549       43.31549       1.0854655      2326.3479     -149.50583     -294.63095    
    234000   234000         581.36486     -170.79625      25388.078      25590.467      11262.365      14328.102      4927.0095      4541.4224      3488.3678      426.86106      412.48687      4881.8214     -4349.867      -484.71886      81251.971      43.312306      43.312306      43.312306      1.0857049      1119.8053     -1485.0375     -147.15656    
    235000   235000         578.15587     -2383.5054      23119.006      25972.367      11200.2        14772.167      5021.2105      4630.698       3714.2064      428.12517      432.22835      4893.5374     -4347.8391     -479.79877      82085.167      43.459851      43.459851      43.459851      1.0746846     -1006.8706     -3129.3423     -3014.3034    
    236000   236000         586.41365      1327.478       27434.256      25873.009      11360.172      14512.837      4903.8969      4643.6921      3613.5991      433.64574      358.95484      4903.8879     -4344.8392     -488.37736      80643.302      43.203882      43.203882      43.203882      1.0938994      164.17682      1565.8059      2252.4512    
    237000   237000         574.23374     -908.14672      24885.338      25962.546      11124.219      14838.326      4972.1416      4652.7023      3732.31        465.03278      459.02284      4902.9651     -4345.8483     -484.23514      81333.136      43.326723      43.326723      43.326723      1.0846214     -2577.0753      906.55351     -1053.9184    
    238000   238000         582.31618     -518.77461      25187.813      25800.049      11280.795      14519.254      4936.5855      4524.3791      3582.2691      432.89886      484.90328      4902.8264     -4344.608      -486.69802      80921.56       43.253516      43.253516      43.253516      1.0901379     -1367.3896      214.13781     -403.07208    
    239000   239000         577.52042     -1277.0106      24246.675      25747.99       11187.89       14560.1        4979.5074      4581.3753      3607.9703      447.56464      390.64353      4898.6456     -4345.607      -488.56503      80612.324      43.198349      43.198349      43.198349      1.0943198     -2349.8688     -425.44839     -1055.7146    
    240000   240000         570.61705     -689.00616      24710.946      25515.609      11054.156      14461.453      4894.773       4613.5023      3563.5931      431.98306      412.71669      4891.1099     -4346.2249     -491.82265      80078.383      43.102762      43.102762      43.102762      1.1016164     -798.15233      460.93446     -1729.8006    
    241000   241000         575.30973      167.52395      25771.306      25574.103      11145.064      14429.04       4851.7935      4650.9646      3546.5929      412.42387      414.93372      4898.7173     -4346.3864     -487.93754      80715.993      43.216859      43.216859      43.216859      1.0929143     -826.73004      179.66691      1149.635     
    242000   242000         571.5158       406.29628      25965.91       25485.787      11071.567      14414.22       4848.493       4664.5793      3505.4134      415.49035      401.38726      4919.1578     -4340.3006     -486.0598       81027.814      43.272439      43.272439      43.272439      1.0887084      889.29865      133.04216      196.54802    
    243000   243000         582.26647      754.50851      26584.148      25696.023      11279.832      14416.191      4762.2123      4594.0554      3554.6839      429.68071      508.19532      4915.2142     -4347.851      -487.96605      80711.276      43.216017      43.216017      43.216017      1.0929782      1698.2033      942.96148     -377.63923    
    244000   244000         576.46873      43.61112       25595.629      25544.415      11167.516      14376.898      4897.9063      4586.1403      3508.1557      430.83057      393.23033      4906.4491     -4345.8138     -489.10697      80523.004      43.182388      43.182388      43.182388      1.0955337     -225.52716      119.23846      237.12205    
    245000   245000         575.67307      139.95259      25752.05       25587.474      11152.102      14435.372      4821.0302      4648.6402      3476.4202      443.98619      493.50283      4900.2372     -4348.4453     -488.44213      80632.608      43.201972      43.201972      43.201972      1.0940445      615.93288     -340.92377      144.84866    
    246000   246000         573.41909     -706.72376      24857.823      25692.77       11108.438      14584.332      4875.8292      4635.4621      3667.806       446.92504      403.75584      4902.5003     -4347.9465     -486.17298      81008.95       43.269081      43.269081      43.269081      1.0889619     -414.88757     -1165.7959     -539.48785    
    247000   247000         566.64331      355.86917      25877.052      25459.912      10977.175      14482.737      4816.2143      4696.1156      3560.9375      422.90111      415.41374      4915.2179     -4344.0638     -490.01403      80373.949      43.155727      43.155727      43.155727      1.0975654      1068.0444      1631.4349     -1631.8717    
    248000   248000         574.74191      1262.9831      27169.977      25693.88       11134.064      14559.816      4926.2645      4685.8175      3510.5598      430.42015      462.05329      4892.4678     -4347.7668     -491.45334      80138.559      43.113556      43.113556      43.113556      1.1007892      996.12896      1903.7784      889.042      
    249000   249000         576.69689      1034.9108      26905.259      25692.084      11171.936      14520.148      4930.5588      4517.9739      3632.9126      431.87115      449.70679      4903.0244     -4345.9        -489.98088      80379.386      43.1567        43.1567        43.1567        1.0974911      2936.625       1282.263      -1114.1555    
    250000   250000         581.91745      2030.2993      28239.843      25856.425      11273.07       14583.354      5036.4908      4618.5113      3540.0912      450.36132      380.50022      4906.2129     -4348.8133     -489.28232      80494.146      43.177229      43.177229      43.177229      1.0959264      1263.7224      4463.4472      363.72821    
Loop time of 535.328 on 1 procs for 250000 steps with 6500 atoms

Performance: 40.349 ns/day, 0.595 hours/ns, 467.004 timesteps/s, 3.036 Matom-step/s
100.0% CPU use with 1 MPI tasks x 1 OpenMP threads

MPI task timing breakdown:
Section |  min time  |  avg time  |  max time  |%varavg| %total
---------------------------------------------------------------
Pair    | 50.669     | 50.669     | 50.669     |   0.0 |  9.47
Bond    | 68.175     | 68.175     | 68.175     |   0.0 | 12.74
Kspace  | 232.66     | 232.66     | 232.66     |   0.0 | 43.46
Neigh   | 83.215     | 83.215     | 83.215     |   0.0 | 15.54
Comm    | 11.805     | 11.805     | 11.805     |   0.0 |  2.21
Output  | 2.2885     | 2.2885     | 2.2885     |   0.0 |  0.43
Modify  | 76.265     | 76.265     | 76.265     |   0.0 | 14.25
Other   |            | 10.24      |            |       |  1.91

Nlocal:           6500 ave        6500 max        6500 min
Histogram: 1 0 0 0 0 0 0 0 0 0
Nghost:          16880 ave       16880 max       16880 min
Histogram: 1 0 0 0 0 0 0 0 0 0
Neighs:              0 ave           0 max           0 min
Histogram: 1 0 0 0 0 0 0 0 0 0
FullNghs:  3.33709e+06 ave 3.33709e+06 max 3.33709e+06 min
Histogram: 1 0 0 0 0 0 0 0 0 0

Total # of neighbors = 3337086
Ave neighs/atom = 513.39785
Ave special neighs/atom = 5.7630769
Neighbor list builds = 15749
Dangerous builds = 0
System init for write_data ...
PPPM Kokkos initialization ...
  using 12-bit tables for long-range coulomb
  G vector (1/distance) = 0.29885211
  grid = 30 30 30
  stencil order = 5
  estimated absolute RMS force accuracy = 0.0003372764
  estimated relative force accuracy = 1.0156979e-06
  using double precision cuFFT
  3d grid and FFT values/proc = 50653 27000
Generated 28 of 28 mixed pair_coeff terms from sixthpower/sixthpower mixing rule
System init for write_restart ...
PPPM Kokkos initialization ...
  using 12-bit tables for long-range coulomb
  G vector (1/distance) = 0.29885211
  grid = 30 30 30
  stencil order = 5
  estimated absolute RMS force accuracy = 0.0003372764
  estimated relative force accuracy = 1.0156979e-06
  using double precision cuFFT
  3d grid and FFT values/proc = 50653 27000
Generated 28 of 28 mixed pair_coeff terms from sixthpower/sixthpower mixing rule
STAGE COMPLETE: NPT T=600.0->575.0K P=1.0->1.0atm steps=250000
