LAMMPS (22 Jul 2025 - Update 3)
KOKKOS mode with Kokkos version 4.6.2 is enabled
  will use up to 1 GPU(s) per node
  using 1 OpenMP thread(s) per MPI task
package kokkos
package kokkos
# ============================================================
# PolyJarvis LAMMPS Engine - NVT Simulation Template
# ============================================================
# Stage: NVT (constant volume, constant temperature)
# Use cases:
#   - Initial heating to melt temperature
#   - Constant-T annealing step
#   - Production run at fixed density (after NPT equilibration)
#   - Temperature ramp up or down
#
# Tunable parameters (injected by script_generator.py):
#   DATA_FILE        - .data or .restart file to read
#   READ_COMMAND     - "read_data" or "read_restart"
#   LOG_FILE         - log filename
#   LOG_APPEND       - "append" or "" (overwrite)
#   DUMP_FILE        - trajectory filename
#   LAST_DUMP_FILE   - final snapshot filename
#   WRITE_DATA_FILE  - output .data filename
#   RESTART_FILE_1   - restart checkpoint file 1
#   RESTART_FILE_2   - restart checkpoint file 2
#   RESTART_FREQ     - steps between restart writes
#   RESTART_BLOCK    - full restart command or empty
#   PAIR_STYLE_BLOCK - pair + kspace style lines
#   BOND_STYLE, ANGLE_STYLE, DIHEDRAL_STYLE, IMPROPER_STYLE
#   GPU_PACKAGE      - "package gpu 1 neigh no" or empty
#   T_START          - initial temperature (K)
#   T_FINAL          - final temperature (K) -- ramp or constant
#   T_DAMP           - thermostat damping (fs), recommended 100*timestep
#   TIMESTEP         - integration timestep (fs), typically 1.0
#   N_STEPS          - number of MD steps
#   THERMO_FREQ      - thermo output frequency (steps)
#   DUMP_FREQ        - dump output frequency (steps)
#   SHAKE_BLOCK      - "fix shake..." or empty
#   UNSHAKE_BLOCK    - "unfix shake..." or empty
#   INIT_VELOCITY_BLOCK - "velocity all create..." or empty
# ============================================================

log nvt_production.log
