LAMMPS (22 Jul 2025 - Update 3)
KOKKOS mode with Kokkos version 4.6.2 is enabled
  will use up to 1 GPU(s) per node
  using 1 OpenMP thread(s) per MPI task
Reading data file ...
  orthogonal box = (6.3953446 6.3953446 6.3953446) to (45.126713 45.126713 45.126713)
  1 by 1 by 1 MPI processor grid
WARNING: Pair style lj/class2/coul/cut/kk in data file differs from currently defined pair style lj/class2/coul/long/kk (src/read_data.cpp:811)
  reading atoms ...
  8000 atoms
  reading velocities ...
  8000 velocities
  scanning bonds ...
  4 = max bonds/atom
  scanning angles ...
  10 = max angles/atom
  scanning dihedrals ...
  16 = max dihedrals/atom
  scanning impropers ...
  7 = max impropers/atom
  orthogonal box = (6.3953446 6.3953446 6.3953446) to (45.126713 45.126713 45.126713)
  1 by 1 by 1 MPI processor grid
  reading bonds ...
  7990 bonds
  reading angles ...
  14820 angles
  reading dihedrals ...
  17070 dihedrals
  reading impropers ...
  9120 impropers
Finding 1-2 1-3 1-4 neighbors ...
  special bond factors lj:    0        0        1       
  special bond factors coul:  0        0        1       
     4 = max # of 1-2 neighbors
     6 = max # of 1-3 neighbors
     8 = max # of special neighbors
  special bonds CPU = 0.003 seconds
  read_data CPU = 0.206 seconds
PPPM Kokkos initialization ...
  using 12-bit tables for long-range coulomb
  G vector (1/distance) = 0.30777427
  grid = 30 30 30
  stencil order = 5
  estimated absolute RMS force accuracy = 0.00027230607
  estimated relative force accuracy = 8.2004164e-07
  using double precision cuFFT
  3d grid and FFT values/proc = 50653 27000
Generated 10 of 10 mixed pair_coeff terms from sixthpower/sixthpower mixing rule
Neighbor list info ...
  update: every = 1 steps, delay = 0 steps, check = yes
  max neighbors/atom: 4000, page size: 100000
  master list distance cutoff = 11.5
  ghost atom cutoff = 11.5
  binsize = 11.5, bins = 4 4 4
  1 neighbor lists, perpetual/occasional/extra = 1 0 0
  (1) pair lj/class2/coul/long/kk, perpetual
      attributes: full, newton off, kokkos_device
      pair build: full/bin/kk/device
      stencil: full/bin/3d
      bin: kk/device
Setting up Verlet run ...
  Unit style    : real
  Current step  : 0
  Time step     : 1
Per MPI rank memory allocation (min/avg/max) = 38.51 | 38.51 | 38.51 Mbytes
   Step          Time           Temp          Press         Enthalpy        TotEng         KinEng         PotEng         E_bond        E_angle        E_dihed        E_impro         E_vdwl         E_coul         E_long         E_tail         Volume           Lx             Ly             Lz          Density          Pxx            Pyy            Pzz      
         0   0              300.6884       50544.775      50388.451      7559.1817      7169.4637      389.71795      2493.251       5963.0251     -9312.4783     -64.703345     -1151.6282      8053.5581     -5591.3063     -717.95898      58101.656      38.731368      38.731368      38.731368      1.4358891      49867.085      50043.858      51723.383    
      1000   1000           304.42284      50431.878      50514.455      7867.7453      7258.5058      609.23947      2561.6466      5837.334      -9228.5996     -62.567634     -943.1888       8036.6186     -5592.0037     -719.42188      57983.51       38.705098      38.705098      38.705098      1.4388149      50950.134      49935.602      50409.898    
      2000   2000           300.0305       49622.531      49741.257      7639.7314      7153.7772      485.95427      2516.0329      5942.3521     -9303.5656     -66.973896     -1045.8579      8036.5705     -5592.6039     -717.04286      58175.889      38.747856      38.747856      38.747856      1.4340569      49555.789      50507.922      48803.882    
      3000   3000           296.34605      48170.8        48292.412      7278.7464      7065.927       212.8194       2484.1319      5923.4465     -9327.8711     -64.427954     -1252.5845      8037.7785     -5587.654      -714.52809      58380.638      38.79326       38.79326       38.79326       1.4290275      48645.401      47379.915      48487.084    
      4000   4000           299.0543       49574.192      49641.722      7576.3827      7130.501       445.88171      2521.6107      5912.6379     -9273.7657     -62.117756     -1106.0903      8044.1502     -5590.5433     -716.96058      58182.565      38.749338      38.749338      38.749338      1.4338924      47931.935      51258.491      49532.149    
      5000   5000           303.24418      46200.188      47016.663      7636.922       7230.4026      406.51939      2586.1853      5932.3197     -9278.6727     -67.184855     -1232.4233      8052.6164     -5586.3211     -713.73159      58445.789      38.807685      38.807685      38.807685      1.4274345      45527.342      47476.654      45596.57     
      6000   6000           298.96913      47514.852      47871.353      7412.904       7128.4703      284.43364      2619.6797      5762.4521     -9254.0761     -62.085802     -1234.2872      8043.6016     -5590.8505     -714.4703       58385.36       38.794306      38.794306      38.794306      1.4289119      46851.961      48337.754      47354.84     
      7000   7000           295.8842       47790.431      48075.543      7331.8602      7054.9148      276.94539      2621.9519      5815.4352     -9243.9112     -63.030322     -1330.3347      8063.3317     -5586.4972     -713.58333      58457.932      38.810373      38.810373      38.810373      1.427138       47088.951      47330.828      48951.516    
      8000   8000           299.38871      46464.039      47100.268      7386.7202      7138.4746      248.24568      2543.5517      5995.6019     -9256.3447     -69.300652     -1407.0871      8033.9963     -5592.1718     -711.77429      58606.508      38.843225      38.843225      38.843225      1.42352        46851.576      48066.603      44473.937    
      9000   9000           303.18811      45925.002      46730.661      7559.8247      7229.0655      330.7592       2516.3655      5876.5955     -9266.4148     -65.788269     -1178.1719      8040.16       -5591.9868     -713.2641       58484.095      38.816162      38.816162      38.816162      1.4264995      47045.404      46792.382      43937.22     
     10000   10000          292.89559      45198.78       45797.421      7071.2344      6983.656       87.578375      2537.5277      5837.9387     -9279.5786     -64.632847     -1401.5052      8050.0582     -5592.2295     -710.04523      58749.223      38.874729      38.874729      38.874729      1.4200619      46708.064      43715.415      45172.862    
     11000   11000          300.45896      44538.672      45506.723      7313.9866      7163.993       149.99351      2545.1825      5824.2072     -9244.2008     -60.990255     -1372.1846      8050.1375     -5592.158      -709.44792      58798.686      38.885636      38.885636      38.885636      1.4188673      44718.651      45202.35       43695.017    
     12000   12000          299.21027      42284.629      43447.592      7182.2107      7134.22        47.990641      2531.1478      5866.4643     -9293.4456     -64.457237     -1447.3744      8044.8764     -5589.2206     -709.33976      58807.652      38.887612      38.887612      38.887612      1.418651       42473.748      41573.731      42806.408    
     13000   13000          305.61551      44470.796      45535.472      7380.9524      7286.9434      94.009055      2560.2425      5822.2713     -9283.7658     -66.616484     -1420.5032      8065.5083     -5583.1275     -709.07627      58829.505      38.892429      38.892429      38.892429      1.4181241      42599.008      45789.609      45023.772    
     14000   14000          302.3434       42048.322      43356.498      7159.6015      7208.9246     -49.323133      2537.8276      5876.349      -9261.2361     -66.315429     -1578.1255      8039.0054     -5596.828      -706.71021      59026.466      38.935784      38.935784      38.935784      1.413392       42440.781      41684.675      42019.509    
     15000   15000          296.47382      42540.011      43628.114      6985.7226      7068.9735     -83.250904      2504.6467      5875.6379     -9294.2348     -64.309471     -1570.7761      8052.4188     -5586.6339     -706.2815       59062.294      38.943661      38.943661      38.943661      1.4125346      43279.694      41490.708      42849.631    
     16000   16000          301.04724      41114.323      42594.333      7097.6039      7178.0197     -80.41582       2550.8153      5910.698      -9287.7059     -64.074266     -1654.3926      8049.7875     -5585.5439     -704.64251      59199.673      38.973831      38.973831      38.973831      1.4092567      37290.271      42213.298      43839.4      
     17000   17000          299.88062      41032.111      42329.74       6819.625       7150.2035     -330.57848      2526.9109      5783.0444     -9269.9861     -69.237631     -1753.6665      8042.2351     -5589.8786     -702.96843      59340.653      39.004745      39.004745      39.004745      1.4059086      41585.778      40924.779      40585.777    
     18000   18000          298.16901      39680.115      41251.174      6880.0257      7109.3927     -229.36703      2561.8164      5779.0684     -9256.9391     -62.566103     -1725.0273      8060.6996     -5586.4189     -702.33274      59394.363      39.016509      39.016509      39.016509      1.4046373      39394.828      40642.152      39003.365    
     19000   19000          296.52059      40079.661      41550.455      6801.8091      7070.0886     -268.27947      2548.7475      5823.8733     -9275.8407     -65.61758      -1764.5847      8054.2646     -5589.1219     -701.69792      59448.097      39.028272      39.028272      39.028272      1.4033676      40815.2        39962.235      39461.547    
     20000   20000          299.45552      40123.261      41800.215      6983.7929      7140.0675     -156.27457      2560.071       6035.6456     -9339.4053     -65.173159     -1819.4582      8059.5585     -5587.5131     -701.09378      59499.324      39.039479      39.039479      39.039479      1.4021594      38636.97       41250.441      40482.371    
     21000   21000          304.55851      37899.601      39855.292      6924.2578      7261.7407     -337.48289      2536.7731      5876.4301     -9280.5828     -63.015253     -1882.444       8061.5176     -5586.1617     -700.15355      59579.224      39.056946      39.056946      39.056946      1.400279       37037.234      38712.214      37949.354    
     22000   22000          301.03606      38500.634      40463.094      7008.6405      7177.7532     -169.11268      2597.4238      5945.3131     -9278.7076     -66.557358     -1846.6763      8068.1518     -5588.0602     -700.12886      59581.326      39.057405      39.057405      39.057405      1.4002296      37701.775      39981.288      37818.84     
     23000   23000          298.20433      38227.368      40033.357      6810.0615      7110.2349     -300.17335      2556.0516      5933.0531     -9321.1226     -65.819959     -1883.3241      8066.2916     -5585.303      -699.99625      59592.613      39.059872      39.059872      39.059872      1.3999644      39899.151      37875.031      36907.921    
     24000   24000          301.29476      39555.069      41271.754      6824.4952      7183.9215     -359.42626      2567.0926      5876.8422     -9295.7778     -67.232835     -1910.324       8053.4748     -5583.5012     -698.57255      59714.064      39.086388      39.086388      39.086388      1.397117       39202.199      40296.344      39166.664    
     25000   25000          298.23877      36901.486      38892.157      6623.7583      7111.0559     -487.2976       2510.8801      5860.1041     -9324.054      -63.00205      -1943.4279      8058.8315     -5586.6294     -695.71359      59959.453      39.139856      39.139856      39.139856      1.3913992      37280.187      36041.443      37382.83     
     26000   26000          297.32278      37371.912      39353.687      6633.9266      7089.2157     -455.28912      2546.9071      5886.0815     -9287.5512     -66.221525     -2008.4815      8061.8258     -5587.8494     -694.86308      60032.843      39.155818      39.155818      39.155818      1.3896982      38165.133      36064.888      37885.714    
     27000   27000          301.33036      37366.175      39483.854      6783.4281      7184.7704     -401.34224      2531.6214      6010.3712     -9319.828      -66.090223     -2033.0477      8061.2464     -5585.6153     -695.1672       60006.579      39.150107      39.150107      39.150107      1.3903065      35885.162      38259.627      37953.738    
     28000   28000          297.65949      36793.531      38774.459      6565.869       7097.2438     -531.37479      2504.7174      5949.4348     -9310.9484     -65.983691     -2063.1685      8043.7935     -5589.2198     -694.96636      60023.92       39.153878      39.153878      39.153878      1.3899048      38134.249      36128.309      36118.034    
     29000   29000          299.1884       35241.451      37581.454      6596.3479      7133.6985     -537.35064      2567.2095      5889.3611     -9279.0195     -61.303862     -2126.9112      8059.6352     -5586.322      -691.93426      60286.95       39.210987      39.210987      39.210987      1.3838407      35501.423      35544.859      34678.071    
     30000   30000          298.4005       35182.588      37454.263      6504.6376      7114.9121     -610.2745       2588.0009      5822.7257     -9277.3689     -62.05743      -2161.7353      8065.5439     -5585.3833     -691.57045      60318.664      39.217861      39.217861      39.217861      1.3831131      35721.699      35293.549      34532.518    
     31000   31000          303.38919      35674.187      38164.062      6739.577       7233.86       -494.28294      2594.5109      6027.4972     -9346.2263     -63.44408      -2165.5037      8049.5921     -5590.709      -690.63716      60400.176      39.235519      39.235519      39.235519      1.3812466      35853.734      35902.192      35266.636    
     32000   32000          299.83453      32627.758      35335.221      6495.561       7149.1044     -653.5434       2603.2078      5796.4611     -9224.5595     -63.200677     -2236.61        8055.4183     -5584.2604     -688.27362      60607.591      39.280379      39.280379      39.280379      1.3765196      32183.606      31893.437      33806.23     
     33000   33000          294.68783      34664.107      37010.621      6384.1436      7026.3891     -642.24554      2503.4026      5984.3422     -9297.7368     -66.595232     -2238.3483      8058.81       -5586.12       -688.56827      60581.656      39.274776      39.274776      39.274776      1.3771089      33310.699      36452.51       34229.111    
     34000   34000          302.76778      34027.765      36565.308      6439.2561      7219.0434     -779.78733      2486.2688      5930.932      -9311.8331     -64.901341     -2282.2883      8052.5615     -5590.527      -687.15583      60706.18       39.301667      39.301667      39.301667      1.3742841      33688.586      35657.525      32737.185    
     35000   35000          297.7059       32766.022      35455.406      6434.7459      7098.3506     -663.60466      2614.645       5835.4597     -9271.7927     -66.002662     -2242.1589      8051.0518     -5584.8068     -686.87935      60730.616      39.306939      39.306939      39.306939      1.3737311      31700.738      33749.405      32847.921    
     36000   36000          298.16384      31928.869      34710.999      6316.1921      7109.2693     -793.07724      2583.5435      5816.9925     -9271.3711     -64.38621      -2337.3063      8067.9412     -5588.4909     -684.08276      60978.888      39.36043       39.36043       39.36043       1.368138       31064.244      32646.124      32076.239    
     37000   37000          298.43088      30946.255      33907.085      6291.5902      7115.6367     -824.04647      2607.6758      5929.4806     -9345.975      -65.491856     -2434.4371      8074.1189     -5589.4177     -681.74084      61188.363      39.405449      39.405449      39.405449      1.3634543      28900.408      33131.046      30807.313    
     38000   38000          300.03632      31880.44       34673.081      6213.2539      7153.916      -940.66202      2584.7535      5860.2977     -9316.0206     -62.890501     -2474.6783      8055.742      -5587.8658     -681.48467      61211.364      39.410386      39.410386      39.410386      1.362942       31212.581      31851.504      32577.235    
     39000   39000          303.19428      31169.719      34322.204      6381.6239      7229.2127     -847.58879      2633.2781      5901.1515     -9282.5967     -58.883552     -2513.1291      8062.6375     -5590.0465     -678.67446      61464.823      39.464707      39.464707      39.464707      1.3573217      30728.495      32346.309      30434.353    
     40000   40000          298.51247      30402.018      33300.059      6082.5489      7117.5819     -1035.033       2449.7594      5915.3162     -9354.271      -69.841891     -2431.0125      8048.4627     -5593.4458     -679.54473      61386.107      39.447852      39.447852      39.447852      1.3590622      29016.282      31413.303      30776.469    
     41000   41000          300.34729      28399.111      31670.613      6143.7966      7161.3305     -1017.5338      2554.5332      5959.4859     -9350.2289     -67.335432     -2574.2411      8053.0316     -5592.7791     -676.81835      61633.384      39.50075       39.50075       39.50075       1.3536095      29210.502      28243.078      27743.754    
     42000   42000          300.05762      28870.709      32037.341      6108.1081      7154.4238     -1046.3157      2542.5423      5889.3135     -9303.6316     -64.836345     -2575.3544      8056.7659     -5591.115      -677.37914      61582.36       39.489846      39.489846      39.489846      1.3547311      29832.476      29094.527      27685.125    
     43000   43000          302.20217      29691.505      32936.958      6288.1998      7205.5573     -917.35751      2582.0126      5918.5447     -9335.1202     -62.291432     -2493.0525      8063.9155     -5591.3663     -677.82762      61541.614      39.481135      39.481135      39.481135      1.355628       29355.595      29713.213      30005.706    
     44000   44000          292.50958      28022.158      31153.409      5960.0844      6974.452      -1014.3676      2622.5101      5896.5641     -9352.5101     -66.597701     -2586.6669      8057.6293     -5585.2964     -676.67498      61646.443      39.503539      39.503539      39.503539      1.3533228      26645.559      29295.785      28125.129    
     45000   45000          298.25722      26676.156      30139.198      6040.728       7111.4959     -1070.7679      2606.0724      5916.9221     -9375.6068     -59.437407     -2625.7395      8057.0631     -5590.0418     -673.43827      61942.731      39.566726      39.566726      39.566726      1.3468495      26632.593      24771.12       28624.754    
     46000   46000          296.92903      27543.698      30696.151      5789.6009      7079.8273     -1290.2263      2516.4265      5812.3318     -9303.3012     -62.862102     -2718.6655      8054.4136     -5588.5695     -672.77945      62003.389      39.579637      39.579637      39.579637      1.3455319      26425.522      28126.232      28079.34     
     47000   47000          301.9451       27628.21       31054.276      6053.248       7199.4279     -1146.18        2603.726       5879.4024     -9317.6078     -66.055436     -2730.3023      8069.3521     -5584.695      -672.29351      62048.205      39.589171      39.589171      39.589171      1.34456        27976.667      26215.531      28692.431    
     48000   48000          299.90706      26547.588      29993.082      5883.5084      7150.834      -1267.3256      2575.5262      5836.0026     -9332.3225     -65.931024     -2771.676       8074.1418     -5583.0668     -669.88397      62271.39       39.636581      39.636581      39.636581      1.339741       28104.001      26669.208      24869.556    
     49000   49000          303.56848      24405.194      28150.795      5933.142       7238.135      -1304.993       2556.7415      5859.6052     -9304.7639     -65.747247     -2818.6301      8056.2281     -5588.4266     -668.26407      62422.338      39.668582      39.668582      39.668582      1.3365013      22764.192      25008.94       25442.45     
     50000   50000          300.19442      25218.892      28843.379      5860.0908      7157.6856     -1297.5948      2606.3961      5759.9075     -9289.5051     -65.678        -2793.1836      8073.5381     -5589.0699     -667.54088      62489.964      39.682902      39.682902      39.682902      1.3350549      25030.401      25960.386      24665.89     
     51000   51000          306.92724      24639.247      28423.993      5889.4136      7318.2195     -1428.8059      2579.9267      5846.2867     -9346.2686     -63.439328     -2930.1731      8069.9631     -5585.1013     -665.18431      62711.349      39.729709      39.729709      39.729709      1.3303419      24373.994      25633.475      23910.271    
     52000   52000          301.17457      23699.994      27481.651      5788.6665      7181.0557     -1392.3892      2572.7674      5869.4044     -9335.8907     -64.618996     -2911.7187      8065.3968     -5587.7295     -664.64992      62761.771      39.740354      39.740354      39.740354      1.3292731      21876.212      23894.958      25328.812    
     53000   53000          302.85209      23674.187      27442.581      5751.1504      7221.0537     -1469.9033      2644.6894      5789.7171     -9321.7455     -67.030901     -2997.5862      8064.5076     -5582.4547     -663.97376      62825.684      39.753839      39.753839      39.753839      1.3279209      23923.814      22577.132      24521.617    
     54000   54000          302.57531      21276.193      25315.488      5722.9807      7214.4543     -1491.4736      2558.2162      5905.0644     -9332.2484     -62.883116     -3028.9856      8057.1307     -5587.7678     -660.64467      63142.273      39.820503      39.820503      39.820503      1.3212628      21553.429      21589.571      20685.579    
     55000   55000          299.25194      21155.523      25115.402      5584.5532      7135.2135     -1550.6602      2554.8068      5907.9229     -9363.9078     -64.237555     -3038.3057      8045.8963     -5592.8351     -658.97157      63302.588      39.854175      39.854175      39.854175      1.3179167      21739.327      22156.259      19570.983    
     56000   56000          300.52201      22082.107      26167.901      5747.1516      7165.4963     -1418.3448      2523.5105      5981.6081     -9333.726      -63.972912     -3018.0303      8078.1254     -5585.8596     -657.85907      63409.638      39.876628      39.876628      39.876628      1.3156917      22270.852      21395.34       22580.129    
     57000   57000          299.27075      21663.05       25475.167      5466.892       7135.6619     -1668.7699      2501.8662      5759.1551     -9309.5219     -62.708854     -3034.9402      8059.7774     -5582.3977     -658.67926      63330.681      39.86007       39.86007       39.86007       1.317332       22783.44       22203.519      20002.193    
     58000   58000          299.19939      21256.091      25405.345      5697.0219      7133.9606     -1436.9386      2628.1277      5964.3082     -9333.8816     -66.089935     -3087.6334      8044.2849     -5586.0546     -656.14191      63575.585      39.911384      39.911384      39.911384      1.3122575      21615.378      21313.929      20838.966    
     59000   59000          300.54499      20114.472      24280.034      5612.5023      7166.0443     -1553.542       2516.8275      6030.665      -9398.9052     -65.56262      -3098.6093      8054.33       -5592.2874     -655.51976      63635.924      39.924007      39.924007      39.924007      1.3110132      20305.72       20205.901      19831.796    
     60000   60000          300.36077      19335.405      23552.572      5521.626       7161.6519     -1640.0259      2598.0956      5890.1014     -9358.0844     -65.634308     -3160.0341      8047.7071     -5592.1773     -652.37724      63942.46       39.988009      39.988009      39.988009      1.3047283      19047.354      20017.638      18941.223    
     61000   61000          301.78099      22143.453      26404.138      5765.5872      7195.5149     -1429.9277      2670.6838      5942.5781     -9348.6198     -68.099859     -3073.395       8035.084      -5588.1591     -652.72488      63908.404      39.980908      39.980908      39.980908      1.3054235      24449.906      21069.108      20911.344    
     62000   62000          302.28077      18805.337      23197.661      5604.352       7207.4314     -1603.0795      2570.6799      6011.8208     -9405.3893     -66.114615     -3178.8411      8052.8578     -5588.0929     -650.27586      64149.091      40.031037      40.031037      40.031037      1.3005256      18320.077      16859.206      21236.729    
     63000   63000          294.2761       19733.388      23909.842      5421.3102      7016.572      -1595.2618      2629.3906      5921.9398     -9375.4541     -64.39278      -3185.3812      8066.4832     -5587.8474     -649.32669      64242.863      40.050533      40.050533      40.050533      1.2986273      20123.73       19447.933      19628.501    
     64000   64000          298.63961      17570.259      21880.244      5350.3686      7120.6134     -1770.2448      2605.9237      5961.5844     -9413.3645     -62.098075     -3343.0803      8069.858      -5589.0681     -646.65497      64508.289      40.105614      40.105614      40.105614      1.293284       16308.104      18050.475      18352.199    
     65000   65000          299.20522      17176.258      21661.33       5484.0863      7134.0996     -1650.0132      2615.7005      6013.9669     -9394.3274     -66.21347      -3302.7043      8071.9764     -5588.4118     -645.93389      64580.302      40.120533      40.120533      40.120533      1.2918418      17325.777      17017.479      17185.518    
     66000   66000          298.57441      17188.714      21599.596      5334.7556      7119.0587     -1784.3031      2590.0385      5891.2948     -9408.4376     -62.129387     -3283.4855      8070.5818     -5582.1658     -642.92099      64882.943      40.183107      40.183107      40.183107      1.2858161      17261.887      17531.557      16772.698    
     67000   67000          302.14449      15892.562      20527.225      5462.3921      7204.182      -1741.7899      2558.0345      5924.9111     -9334.5023     -64.012006     -3305.4066      8064.2591     -5585.0738     -641.791        64997.181      40.206676      40.206676      40.206676      1.2835562      16326.547      17199.512      14151.627    
     68000   68000          294.23217      15277.057      19693.735      5123.2645      7015.5246     -1892.2602      2623.287       5961.9585     -9430.5186     -61.892491     -3451.663       8055.471      -5588.9027     -637.86706      65397.021      40.288954      40.288954      40.288954      1.2757085      14500.519      14585.245      16745.408    
     69000   69000          296.43389      16255.965      20729.858      5248.9897      7068.0214     -1819.0317      2611.0895      5825.096      -9373.721      -64.311419     -3282.8606      8054.9442     -5589.2684     -638.82437      65299.02       40.268819      40.268819      40.268819      1.2776231      15060.18       16909.253      16798.461    
     70000   70000          299.85337      14824.355      19513.273      5313.8681      7149.5536     -1835.6855      2699.6569      5934.7147     -9452.8544     -65.740476     -3421.9708      8057.785      -5587.2765     -635.14033      65677.779      40.346527      40.346527      40.346527      1.2702551      13336.314      13668.885      17467.865    
     71000   71000          299.13618      13958.277      18626.839      5239.3736      7132.4533     -1893.0797      2573.8577      5939.9233     -9378.4324     -62.408706     -3453.9033      8073.5387     -5585.6549     -634.30405      65764.369      40.36425       40.36425       40.36425       1.2685826      14462.852      13672.26       13739.72     
     72000   72000          303.92728      13233.019      18156.981      5367.4776      7246.6899     -1879.2124      2648.9243      5933.0319     -9362.5389     -65.883463     -3487.6227      8044.8576     -5589.9811     -629.46166      66270.289      40.467492      40.467492      40.467492      1.258898       13803.952      12541.567      13353.538    
     73000   73000          301.02679      15109.696      19818.562      5218.1348      7177.5322     -1959.3973      2539.3289      6009.8365     -9414.9969     -67.413569     -3505.2785      8063.4278     -5584.3015     -629.58476      66257.331      40.464854      40.464854      40.464854      1.2591442      14230.36       15008.21       16090.518    
     74000   74000          303.68424      13700.984      18660.997      5415.8401      7240.895      -1825.0549      2689.2452      5962.3782     -9425.7507     -59.867449     -3474.8456      8068.5912     -5584.8056     -629.30136      66287.17       40.470928      40.470928      40.470928      1.2585774      12644.707      14724.621      13733.624    
     75000   75000          301.52563      12270.219      17115.042      5148.7046      7189.4261     -2040.7216      2649.1026      5831.0162     -9388.5537     -65.646706     -3552.0979      8068.3931     -5582.9352     -623.814        66870.263      40.589248      40.589248      40.589248      1.2476029      12422.177      12064.986      12323.494    
     76000   76000          299.52563      10848.005      15787.017      5187.7445      7141.7393     -1953.9948      2681.6366      5926.7453     -9435.9207     -66.273769     -3535.8008      8058.2755     -5582.6568     -622.6412       66996.218      40.614717      40.614717      40.614717      1.2452574      10757.525      9547.5855      12238.906    
     77000   77000          303.79056      12745.578      17817.899      5346.0858      7243.43       -1897.3442      2575.6839      6009.904      -9357.5772     -68.260823     -3542.3553      8063.7541     -5578.493      -621.71879      67095.617      40.634793      40.634793      40.634793      1.2434126      13832.657      11463.398      12940.679    
     78000   78000          301.20101      11233.492      16153.682      5088.6254      7181.6862     -2093.0608      2587.674       5928.7676     -9487.8467     -62.738796     -3555.0358      8072.6052     -5576.4865     -617.62545      67540.296      40.724365      40.724365      40.724365      1.2352261      11123.199      10723.388      11853.89     
     79000   79000          294.84217      9864.6335      14714.445      4975.6226      7030.0692     -2054.4466      2661.9528      5978.9799     -9439.0187     -67.297187     -3649.1065      8043.443      -5583.3999     -616.22392      67693.909      40.755216      40.755216      40.755216      1.2324231      10379.351      9986.4701      9228.0796    
     80000   80000          300.73226      11306.989      16291.311      5115.8074      7170.5094     -2054.702       2682.1735      5937.7658     -9446.2699     -62.176301     -3642.7707      8060.7502     -5584.1746     -615.52247      67771.053      40.770692      40.770692      40.770692      1.2310202      11774.227      10885.4        11261.341    
     81000   81000          298.0421       8917.581       13807.725      4959.2995      7106.3668     -2147.0673      2596.9755      5890.6613     -9357.8921     -65.467966     -3683.7797      8056.7513     -5584.3156     -613.11946      68036.669      40.823886      40.823886      40.823886      1.2262143      9372.0981      8378.6967      9001.9483    
     82000   82000          296.13378      8703.9927      13665.399      4980.1094      7060.8656     -2080.7562      2628.0324      5999.7088     -9438.2412     -64.845473     -3708.4762      8080.8265     -5577.7611     -609.67479      68421.077      40.900627      40.900627      40.900627      1.2193251      9154.6828      8750.7198      8206.5756    
     83000   83000          300.40038      8834.0912      13904.13       5017.6166      7162.5964     -2144.9798      2698.9324      5841.3973     -9389.7449     -61.004021     -3721.8341      8068.8608     -5581.5873     -604.77594      68975.306      41.010766      41.010766      41.010766      1.2095276      9817.0664      7879.4627      8805.7446    
     84000   84000          300.86149      8608.7686      13810.248      5116.4343      7173.5909     -2057.1566      2714.9543      5944.1709     -9435.5421     -62.762409     -3717.3488      8076.1355     -5576.764      -602.41357      69245.794      41.064304      41.064304      41.064304      1.2048029      9334.5453      6375.1606      10116.6      
     85000   85000          298.07349      6976.9675      12016.761      4941.5753      7107.115      -2165.5398      2673.7668      5909.5391     -9463.7907     -65.73318      -3717.8486      8073.9527     -5575.4259     -599.91938      69533.686      41.121134      41.121134      41.121134      1.1998147      6878.1157      6360.0546      7692.7321    
     86000   86000          301.39864      6644.1385      11860.886      5091.0154      7186.3983     -2095.3829      2665.0998      5968.5069     -9431.7061     -63.312221     -3740.1507      8084.6597     -5578.4803     -597.06599      69865.989      41.186536      41.186536      41.186536      1.194108       6371.6623      7023.0905      6537.6627    
     87000   87000          295.13601      7678.3694      12653.871      4836.5028      7037.0754     -2200.5726      2625.9407      5786.0214     -9380.3782     -61.954141     -3659.0308      8069.3844     -5580.5559     -597.54755      69809.685      41.175469      41.175469      41.175469      1.1950711      7174.4378      7448.6382      8412.0324    
     88000   88000          296.78813      6721.5584      11831.717      4922.3478      7076.4676     -2154.1198      2697.488       5899.5455     -9464.2671     -61.657185     -3722.1619      8074.2677     -5577.3348     -591.8281       70484.328      41.307685      41.307685      41.307685      1.1836324      7578.9414      6868.9356      5716.7982    
     89000   89000          302.24428      6191.8889      11382.803      5022.3002      7206.5614     -2184.2612      2717.4255      5839.8046     -9474.5971     -60.510749     -3727.9661      8097.6585     -5576.0758     -592.23723      70435.636      41.29817       41.29817       41.29817       1.1844507      8461.3297      3963.061       6151.2759    
     90000   90000          302.29371      5299.5314      10556.796      5054.1641      7207.74       -2153.576       2642.1023      6052.7212     -9505.7099     -66.325542     -3788.1015      8087.1568     -5575.4193     -585.91018      71196.247      41.446294      41.446294      41.446294      1.1717968      3342.644       6468.4749      6087.4754    
     91000   91000          299.15719      3272.9721      8351.5753      4927.5929      7132.9544     -2205.3616      2719.4009      5851.9365     -9481.0186     -62.41519      -3732.9783      8078.5606     -5578.8474     -581.5336       71732.065      41.550008      41.550008      41.550008      1.1630438      4272.223       809.80892      4736.8845    
     92000   92000          299.36921      4403.9061      9599.914       4986.7615      7138.0096     -2151.248       2715.8205      5864.99       -9449.6418     -64.455756     -3726.9924      8086.4313     -5577.3999     -580.77013      71826.362      41.568207      41.568207      41.568207      1.1615169      5073.926       4156.4957      3981.2965    
     93000   93000          298.37298      3846.101       8926.2257      4875.7489      7114.256      -2238.507       2697.6179      5748.3852     -9391.2409     -63.23866      -3730.7491      8079.6976     -5578.979      -577.66835      72212.032      41.642474      41.642474      41.642474      1.1553135      4177.97        2945.911       4414.4219    
     94000   94000          297.9735       5074.5768      10350.223      4971.5986      7104.7311     -2133.1324      2692.8771      5994.3009     -9519.6382     -67.92306      -3730.0573      8081.3444     -5584.0364     -573.97452      72676.755      41.731613      41.731613      41.731613      1.147926       4907.6539      6372.4512      3943.6255    
     95000   95000          303.58345      2421.4974      7724.9374      5128.3674      7238.4918     -2110.1244      2749.2886      5885.8676     -9477.5304     -62.518949     -3706.0226      8080.7655     -5579.9742     -567.34603      73525.862      41.893506      41.893506      41.893506      1.1346693      1881.2465      2934.6446      2448.6012    
     96000   96000          303.30049      3426.7237      8879.2416      5166.8109      7231.7451     -2064.9343      2719.0252      5983.9761     -9531.0472     -64.91114      -3683.7102      8086.346      -5574.613      -561.54526      74285.385      42.037266      42.037266      42.037266      1.123068       1995.1954      5366.8086      2918.1671    
     97000   97000          301.31844      326.57851      5483.6885      5126.291       7184.4861     -2058.1951      2723.955       5971.6781     -9520.1207     -65.689254     -3677.3273      8090.6131     -5581.304      -555.90433      75039.182      42.178976      42.178976      42.178976      1.1117863      627.86676      515.27164     -163.40288    
     98000   98000          301.14314      1722.3454      6979.767       5067.1176      7180.3064     -2113.1887      2690.4458      5912.3293     -9597.8904     -66.756328     -3555.7449      8082.9424     -5578.5147     -547.83392      76144.62       42.385087      42.385087      42.385087      1.0956458      1541.2937      2293.5702      1332.1725    
     99000   99000          301.66597      534.59429      5757.7284      5161.4213      7192.7724     -2031.3511      2660.9696      5905.2848     -9452.4551     -65.88197      -3589.7085      8089.8235     -5579.3835     -545.40412      76483.847      42.447936      42.447936      42.447936      1.0907863      823.64255      619.94754      160.19276    
    100000   100000         300.93012      717.77469      6034.4004      5221.0307      7175.2272     -1954.1965      2760.1905      5864.823      -9516.1808     -66.420668     -3507.1492      8088.1557     -5577.615      -536.86391      77700.522      42.671834      42.671834      42.671834      1.0737062      502.02372      966.94866      684.35169    
Loop time of 209.92 on 1 procs for 100000 steps with 8000 atoms

Performance: 41.158 ns/day, 0.583 hours/ns, 476.371 timesteps/s, 3.811 Matom-step/s
99.9% CPU use with 1 MPI tasks x 1 OpenMP threads

MPI task timing breakdown:
Section |  min time  |  avg time  |  max time  |%varavg| %total
---------------------------------------------------------------
Pair    | 30.993     | 30.993     | 30.993     |   0.0 | 14.76
Bond    | 23.103     | 23.103     | 23.103     |   0.0 | 11.01
Kspace  | 98.94      | 98.94      | 98.94      |   0.0 | 47.13
Neigh   | 16.652     | 16.652     | 16.652     |   0.0 |  7.93
Comm    | 2.6608     | 2.6608     | 2.6608     |   0.0 |  1.27
Output  | 1.1636     | 1.1636     | 1.1636     |   0.0 |  0.55
Modify  | 32.227     | 32.227     | 32.227     |   0.0 | 15.35
Other   |            | 4.181      |            |       |  1.99

Nlocal:           8000 ave        8000 max        8000 min
Histogram: 1 0 0 0 0 0 0 0 0 0
Nghost:          21134 ave       21134 max       21134 min
Histogram: 1 0 0 0 0 0 0 0 0 0
Neighs:              0 ave           0 max           0 min
Histogram: 1 0 0 0 0 0 0 0 0 0
FullNghs:  5.23767e+06 ave 5.23767e+06 max 5.23767e+06 min
Histogram: 1 0 0 0 0 0 0 0 0 0

Total # of neighbors = 5237668
Ave neighs/atom = 654.7085
Ave special neighs/atom = 5.7025
Neighbor list builds = 2786
Dangerous builds = 0
System init for write_data ...
PPPM Kokkos initialization ...
  using 12-bit tables for long-range coulomb
  G vector (1/distance) = 0.29950139
  grid = 30 30 30
  stencil order = 5
  estimated absolute RMS force accuracy = 0.00036639003
  estimated relative force accuracy = 1.1033727e-06
  using double precision cuFFT
  3d grid and FFT values/proc = 50653 27000
Generated 10 of 10 mixed pair_coeff terms from sixthpower/sixthpower mixing rule
System init for write_restart ...
PPPM Kokkos initialization ...
  using 12-bit tables for long-range coulomb
  G vector (1/distance) = 0.29950139
  grid = 30 30 30
  stencil order = 5
  estimated absolute RMS force accuracy = 0.00036639003
  estimated relative force accuracy = 1.1033727e-06
  using double precision cuFFT
  3d grid and FFT values/proc = 50653 27000
Generated 10 of 10 mixed pair_coeff terms from sixthpower/sixthpower mixing rule
STAGE COMPLETE: NPT T=300.0->300.0K P=50000.0->1.0atm steps=100000
