Authorization required, but no authorization protocol specified

Authorization required, but no authorization protocol specified

Authorization required, but no authorization protocol specified

Authorization required, but no authorization protocol specified

LAMMPS (22 Jul 2025 - Update 3)
KOKKOS mode with Kokkos version 4.6.2 is enabled
  will use up to 1 GPU(s) per node
  using 1 OpenMP thread(s) per MPI task
Reading data file ...
  orthogonal box = (3.9389886 3.9389886 3.9389886) to (41.422604 41.422604 41.422604)
  1 by 1 by 1 MPI processor grid
  reading atoms ...
  3020 atoms
  reading velocities ...
  3020 velocities
  scanning bonds ...
  4 = max bonds/atom
  scanning angles ...
  12 = max angles/atom
  scanning dihedrals ...
  24 = max dihedrals/atom
  orthogonal box = (3.9389886 3.9389886 3.9389886) to (41.422604 41.422604 41.422604)
  1 by 1 by 1 MPI processor grid
  reading bonds ...
  3010 bonds
  reading angles ...
  6000 angles
  reading dihedrals ...
  8910 dihedrals
Finding 1-2 1-3 1-4 neighbors ...
  special bond factors lj:    0        0        0.5     
  special bond factors coul:  0        0        0.5     
     4 = max # of 1-2 neighbors
     6 = max # of 1-3 neighbors
    12 = max # of 1-4 neighbors
    16 = max # of special neighbors
  special bonds CPU = 0.004 seconds
  read_data CPU = 0.077 seconds
PPPM Kokkos initialization ...
  using 12-bit tables for long-range coulomb
  G vector (1/distance) = 0.33267492
  grid = 40 40 40
  stencil order = 5
  estimated absolute RMS force accuracy = 0.00027849458
  estimated relative force accuracy = 8.3867814e-07
  using double precision cuFFT
  3d grid and FFT values/proc = 103823 64000
Generated 3 of 3 mixed pair_coeff terms from geometric mixing rule
Neighbor list info ...
  update: every = 1 steps, delay = 0 steps, check = yes
  max neighbors/atom: 4000, page size: 100000
  master list distance cutoff = 11.5
  ghost atom cutoff = 11.5
  binsize = 11.5, bins = 4 4 4
  1 neighbor lists, perpetual/occasional/extra = 1 0 0
  (1) pair lj/cut/coul/long/kk, perpetual
      attributes: full, newton off, kokkos_device
      pair build: full/bin/kk/device
      stencil: full/bin/3d
      bin: kk/device
Setting up Verlet run ...
  Unit style    : real
  Current step  : 0
  Time step     : 1
Per MPI rank memory allocation (min/avg/max) = 28.29 | 28.29 | 28.29 Mbytes
   Step          Time           Temp          Press         Enthalpy        TotEng         KinEng         PotEng         E_bond        E_angle        E_dihed        E_impro         E_vdwl         E_coul         E_long         E_tail         Volume           Lx             Ly             Lz          Density          Pxx            Pyy            Pzz      
         0   0              653.35796     -1451.2695      8018.9992      9133.6746      5879.6111      3254.0635      2317.4804      3595.4917     -4188.8715      0              815.86043      15184.194     -14470.091     -103.47149      52665.285      37.483616      37.483616      37.483616      1.5773587     -3651.9415     -1409.8689      708.00175    
      1000   1000           673.04908     -1188.983       8449.2505      9385.6957      6056.8128      3328.8829      2385.1884      3595.44       -4203.0599      0              844.15597      15161.459     -14454.301     -100.90538      54004.609      37.798707      37.798707      37.798707      1.5382399     -925.29513     -2465.4373     -176.21656    
      2000   2000           658.65826     -1916.784       7786.1328      9322.654       5927.3089      3395.3451      2432.4193      3708.2948     -4218.2369      0              746.75318      15176.674     -14450.559     -99.141537      54965.414      38.021551      38.021551      38.021551      1.5113512     -1346.1531     -3662.1397     -742.05911    
      3000   3000           649.57433     -1071.6131      8250.8978      9085.0467      5845.562       3239.4848      2368.628       3602.3653     -4223.3914      0              764.56319      15196.897     -14469.577     -102.09759      53373.99       37.651004      37.651004      37.651004      1.5564143     -3111.5852      359.95596     -463.21024    
      4000   4000           640.25459      38.152258      9229.8855      9199.4078      5761.693       3437.7148      2365.2098      3733.953      -4176.9843      0              777.30571      15203.775     -14465.544     -99.485373      54775.445      37.977698      37.977698      37.977698      1.5165927     -1825.7833      903.80233      1036.4377    
      5000   5000           655.04873      839.20507      10072.132      9385.9966      5894.8264      3491.1702      2364.1082      3718.1987     -4190.9131      0              854.7239       15190.463     -14445.41      -97.202881      56061.668      38.272662      38.272662      38.272662      1.4817976      709.50695     -161.79651      1969.9048    
      6000   6000           644.71029     -1438.2878      8007.8202      9174.3836      5801.7901      3372.5935      2381.003       3657.5509     -4190.1737      0              816.54042      15154.543     -14446.87      -97.984753      55614.322      38.170591      38.170591      38.170591      1.4937167     -2707.6945      254.02926     -1861.1981    
      7000   7000           635.85553      708.24234      9636.9481      9074.5206      5722.1055      3352.4151      2403.1871      3566.7834     -4196.8149      0              816.0842       15238.652     -14475.477     -100.07749      54451.359      37.90265       37.90265       37.90265       1.5256193     -1067.6697      3089.7771      102.61965    
      8000   8000           633.37765      578.15344      9438.7024      8976.7015      5699.807       3276.8945      2274.4848      3612.8916     -4206.2184      0              864.86784      15203.821     -14472.952     -99.453785      54792.843      37.981719      37.981719      37.981719      1.5161112      309.528        3461.4587     -2036.5264    
      9000   9000           645.63105      704.38687      9789.3446      9223.1203      5810.0761      3413.0442      2366.594       3683.8614     -4230.0063      0              856.08452      15196.059     -14459.549     -98.865272      55119.007      38.056934      38.056934      38.056934      1.5071397      254.37997      819.01384      1039.7668    
     10000   10000          651.16368     -774.47138      8577.3         9191.96        5859.8646      3332.0954      2364.2919      3728.8549     -4223.0002      0              742.9417       15179.836     -14460.829     -100.13628      54419.394      37.895232      37.895232      37.895232      1.5265154      1019.744      -1124.5041     -2218.6541    
     11000   11000          646.09239     -937.57596      8569.4886      9301.8224      5814.2277      3487.5946      2516.2786      3636.1779     -4212.8099      0              823.18501      15203.331     -14478.568     -101.74626      53558.29       37.69429       37.69429       37.69429       1.5510585      322.0237      -1025.0006     -2109.751     
     12000   12000          626.74421     -2601.0141      6945.9808      8981.0602      5640.1122      3340.948       2349.4192      3650.0851     -4183.6484      0              796.45044      15208.789     -14480.147     -101.57396      53649.141      37.715592      37.715592      37.715592      1.5484319     -2607.8695     -2794.4312     -2400.7415    
     13000   13000          648.31836     -1462.115       7990.8359      9178.2291      5834.2594      3343.9697      2433.2225      3563.8881     -4184.66        0              799.48439      15191.895     -14459.861     -97.860634      55684.859      38.186722      38.186722      38.186722      1.4918246     -1474.3787     -795.92951     -2116.0369    
     14000   14000          648.22701     -1159.8322      8225.5195      9162.5509      5833.4373      3329.1136      2361.1069      3672.8427     -4209.3773      0              753.08689      15208.149     -14456.694     -98.369856      55396.6        38.120715      38.120715      38.120715      1.4995874     -63.279225     -1887.53       -1528.6873    
     15000   15000          635.41456      238.8524       9162.5185      8969.2581      5718.1373      3251.1208      2320.943       3575.0907     -4190.1835      0              805.40643      15201.007     -14461.143     -98.221779      55480.115      38.139862      38.139862      38.139862      1.49733       -1549.6844      1433.3279      832.91376    
     16000   16000          642.08913     -1467.3228      8118.9759      9308.8864      5778.2021      3530.6843      2408.485       3673.0269     -4181.6182      0              904.79205      15183.035     -14457.037     -98.001424      55604.861      38.168426      38.168426      38.168426      1.4939709     -441.85513     -2534.5883     -1425.5249    
     17000   17000          653.3599      -1274.807       8295.7193      9335.7757      5879.6285      3456.1472      2441.0362      3655.576      -4180.9361      0              792.60017      15203.174     -14455.303     -97.411129      55941.817      38.245369      38.245369      38.245369      1.4849722     -1779.8772     -870.30575     -1174.238     
     18000   18000          652.95562      429.8501       9609.2294      9267.1407      5875.9905      3391.1502      2329.5342      3710.1987     -4217.532       0              827.71075      15202.755     -14461.516     -99.861798      54568.972      37.92992       37.92992       37.92992       1.5223311      795.14161      314.27001      180.13869    
     19000   19000          647.26575      800.43646      9701.1027      9065.4596      5824.7869      3240.6727      2281.9532      3712.4342     -4223.6055      0              736.47156      15199.151     -14465.732     -100.07706      54451.593      37.902704      37.902704      37.902704      1.5256127      1623.6454      2103.1559     -1325.492     
     20000   20000          645.91996      628.97499      9694.4474      9203.6916      5812.6761      3391.0155      2411.3785      3692.437      -4212.5456      0              778.51217      15202.935     -14481.702     -101.85654      53500.302      37.680681      37.680681      37.680681      1.5527397      2156.4959     -241.7386      -27.832335    
     21000   21000          652.87829     -2308.3721      7343.074       9184.3748      5875.2945      3309.0803      2405.6103      3612.9458     -4228.7122      0              773.2039       15203.343     -14457.31      -99.632751      54694.421      37.958963      37.958963      37.958963      1.5188394     -3046.8388     -1571.7562     -2306.5213    
     22000   22000          638.2148      -139.30836      9054.4669      9165.1341      5743.3368      3421.7973      2392.4572      3654.408      -4198.063       0              849.50246      15187.722     -14464.229     -100.04129      54471.067      37.907222      37.907222      37.907222      1.5250673     -649.99904     -1285.6103      1517.6843    
     23000   23000          620.95596      1557.9841      10093.008      8894.6959      5588.0234      3306.6725      2363.3851      3566.7497     -4217.8322      0              873.32381      15207.106     -14486.06      -103.32708      52738.889      37.50107       37.50107       37.50107       1.5751573      1606.4291      2115.5253      951.99796    
     24000   24000          659.93963      736.11462      9827.7816      9262.6336      5938.84        3323.7936      2403.7187      3569.2836     -4193.1212      0              808.68821      15224.395     -14489.171     -103.51523      52643.034      37.478336      37.478336      37.478336      1.5780254      544.58749     -10.917663      1674.674     
     25000   25000          640.17127     -28.227669      9090.3805      9112.088       5760.9432      3351.1447      2357.7489      3742.4635     -4216.2772      0              742.53112      15212.992     -14488.314     -103.34438      52730.061      37.498977      37.498977      37.498977      1.5754209     -2169.1298      1212.6127      871.83412    
     26000   26000          647.55189      1639.7706      10355.12       9072.3271      5827.3619      3244.9651      2274.1672      3683.4202     -4235.8566      0              797.69108      15197.43      -14471.886     -101.58921      53641.088      37.713704      37.713704      37.713704      1.5486644      2762.391       1105.2631      1051.6576    
     27000   27000          663.34119      1250.4997      10330.102      9339.9634      5969.4509      3370.5125      2327.7657      3660.7805     -4214.2638      0              853.38332      15212.156     -14469.309     -100.3711       54292.076      37.865656      37.865656      37.865656      1.5300952      1407.8242      2223.6927      119.98214    
     28000   28000          632.2136       733.63015      9609.5155      9019.396       5689.3316      3330.0644      2259.497       3614.9035     -4206.3868      0              926.0513       15196.549     -14460.55      -98.800289      55155.26       38.065276      38.065276      38.065276      1.5061491     -555.71036      512.65168      2243.9491    
     29000   29000          650.34362      659.02983      9684.7648      9162.0937      5852.4849      3309.6089      2218.3594      3726.3122     -4221.7148      0              853.12368      15203.099     -14469.571     -100.2069       54381.039      37.886327      37.886327      37.886327      1.527592       2998.1588     -1332.4738      311.40446    
     30000   30000          641.46246     -701.94199      8575.811       9138.0162      5772.5627      3365.4535      2369.7337      3656.2512     -4201.1169      0              807.70329      15210.007     -14477.125     -99.226434      54918.386      38.010705      38.010705      38.010705      1.5126454     -385.1357      -1670.1379     -50.552389    
     31000   31000          647.01624     -359.30237      8700.6386      8981.6401      5822.5416      3159.0985      2289.381       3595.9623     -4233.7138      0              761.31599      15224.153     -14478         -101.61846      53625.647      37.710085      37.710085      37.710085      1.5491103     -837.9568      -39.023181     -200.92712    
     32000   32000          637.44135      1398.6517      10010.657      8917.976       5736.3765      3181.5995      2249.8621      3572.3632     -4199.7374      0              817.76305      15217.141     -14475.792     -101.7272       53568.325      37.696644      37.696644      37.696644      1.550768       2147.6059      415.63926      1632.71      
     33000   33000          640.44645      1100.4583      10021.425      9141.7248      5763.4195      3378.3052      2292.6528      3624.2251     -4181.8399      0              920.97953      15185.608     -14463.321     -99.416851      54813.199      37.986421      37.986421      37.986421      1.5155482      2281.4566     -1699.8065      2719.7248    
     34000   34000          629.54342      643.57656      9544.0281      9033.2063      5665.3025      3367.9038      2351.5845      3658.9772     -4217.1995      0              826.3711       15213.683     -14465.512     -100.12713      54424.365      37.896386      37.896386      37.896386      1.526376       1137.47        1947.1398     -1153.8801    
     35000   35000          655.81374      1608.8648      10551.24       9273.5543      5901.7108      3371.8435      2309.1245      3656.4656     -4216.2613      0              885.6715       15193.615     -14456.772     -100.07292      54453.846      37.903227      37.903227      37.903227      1.5255496      2172.1402      1472.5473      1181.9071    
     36000   36000          647.93428     -584.53305      8757.8926      9230.6719      5830.803       3399.8688      2426.9883      3598.7794     -4190.8496      0              839.97217      15175.851     -14450.873     -98.258846      55459.186      38.135065      38.135065      38.135065      1.4978951      407.42532      1438.463      -3599.4875    
     37000   37000          648.41282     -1599.1566      7785.4555      9065.6435      5835.1094      3230.5341      2323.0574      3638.4329     -4218.221       0              762.36005      15160.357     -14435.452     -99.274628      54891.726      38.004553      38.004553      38.004553      1.5133801     -4307.0031     -1290.8193      800.35261    
     38000   38000          647.14931     -1192.2526      8251.5508      9198.5902      5823.739       3374.8511      2348.6822      3695.6124     -4205.8333      0              786.49936      15211.569     -14461.679     -100.05097      54465.794      37.905999      37.905999      37.905999      1.5252149     -1450.8733     -192.17489     -1933.7097    
     39000   39000          653.73887     -573.9649       8767.1428      9208.1084      5883.0389      3325.0695      2305.9351      3710.8634     -4194.581       0              778.27665      15201.396     -14476.821     -103.44313      52679.724      37.487041      37.487041      37.487041      1.5769263     -419.94623     -1114.0612     -187.88727    
     40000   40000          635.28122     -458.68795      8536.2984      8892.4386      5716.9373      3175.5013      2311.4584      3541.8121     -4195.0458      0              758.85307      15238.645     -14480.221     -102.35696      53238.741      37.619174      37.619174      37.619174      1.5603683     -2112.598       317.25571      419.27844    
     41000   41000          644.85801      523.27002      9595.8683      9179.601       5803.1195      3376.4814      2338.7385      3633.5904     -4196.5269      0              882.84421      15186.001     -14468.166     -99.902093      54546.961      37.924819      37.924819      37.924819      1.5229454      1342.372       617.0574      -389.61936    
     42000   42000          637.69535      1241.5313      10040.396      9048.3805      5738.6623      3309.7183      2293.58        3695.0936     -4220.1615      0              782.54591      15226.365     -14467.705     -99.462717      54787.922      37.980582      37.980582      37.980582      1.5162474      1879.6538      840.92814      1004.0121    
     43000   43000          646.86155      867.48072      9765.3773      9096.9624      5821.1495      3275.8129      2309.3487      3620.4032     -4202.4802      0              793.51438      15237.554     -14482.527     -103.1418       52833.628      37.523512      37.523512      37.523512      1.5723327      98.415231      1374.843       1129.184     
     44000   44000          662.21684     -228.9803       9130.3047      9303.7588      5959.3327      3344.4261      2301.6207      3704.6332     -4196.3902      0              778.91449      15250.754     -14495.106     -104.91432      51941.007      37.310991      37.310991      37.310991      1.5993537     -842.8616      -30.590509      186.5112     
     45000   45000          656.39494     -2017.6604      7636.1327      9206.4019      5906.9411      3299.4608      2345.5844      3637.0641     -4164.8382      0              738.05226      15227.457     -14483.858     -102.11629      53364.217      37.648705      37.648705      37.648705      1.5566994     -3505.3244     -1146.7948     -1400.8621    
     46000   46000          637.31802      1935.0991      10420.484      8897.5309      5735.2666      3162.2642      2305.2074      3507.5588     -4203.0409      0              804.41867      15229.425     -14481.304     -100.98054      53964.416      37.789327      37.789327      37.789327      1.5393856      3194.4885      898.95009      1711.8588    
     47000   47000          654.93094      307.72447      9417.9038      9179.1193      5893.7665      3285.3528      2295.9127      3571.0431     -4175.9382      0              853.27794      15213.819     -14472.762     -102.41818      53206.916      37.611677      37.611677      37.611677      1.5613016      2130.3421      421.3185      -1628.4872    
     48000   48000          635.77806     -1076.7101      8288.4244      9114.2861      5721.4084      3392.8777      2404.4176      3693.4531     -4187.5504      0              732.24486      15235.733     -14485.42      -103.61258      52593.569      37.466594      37.466594      37.466594      1.5795095     -1316.9194     -2349.2599      436.04913    
     49000   49000          650.63012      623.40163      9636.738       9160.1941      5855.0631      3305.1309      2342.8041      3596.1975     -4166.2911      0              788.04695      15234.82      -14490.446     -103.96473      52415.425      37.424244      37.424244      37.424244      1.5848778      664.13962      1959.7771     -753.71184    
     50000   50000          640.13292     -1304.3569      8194.2688      9207.7184      5760.5981      3447.1203      2431.4068      3619.7116     -4157.8102      0              799.85107      15230.36      -14476.399     -102.28579      53275.782      37.627897      37.627897      37.627897      1.5592834     -2691.7162     -1765.9894      544.63482    
     51000   51000          626.66746     -1585.6138      7705.0301      8940.6931      5639.4215      3301.2716      2350.9145      3604.2094     -4181.8796      0              751.4664       15259.794     -14483.233     -101.98079      53435.118      37.665372      37.665372      37.665372      1.5546338     -2076.2313     -871.20672     -1809.4032    
     52000   52000          648.01873     -31.773472      9151.6078      9176.0374      5831.563       3344.4744      2363.5104      3548.7711     -4158.3086      0              829.11364      15250.842     -14489.454     -103.36426      52719.923      37.496574      37.496574      37.496574      1.5757239      180.0649      -1402.1357      1126.7504    
     53000   53000          658.35377     -139.90288      8998.5859      9106.0859      5924.5687      3181.5172      2296.1896      3538.6353     -4201.8254      0              780.82377      15254.759     -14487.065     -103.42827      52687.295      37.488837      37.488837      37.488837      1.5766997     -1087.5792      1318.0139     -650.14334    
     54000   54000          642.04473      1340.9583      10120.056      9081.6293      5777.8026      3303.8267      2243.9828      3700.9838     -4210.6567      0              810.72908      15230.396     -14471.609     -102.62676      53098.779      37.586179      37.586179      37.586179      1.5644812      3427.3894     -315.23792      910.72358    
     55000   55000          652.97834      1022.7583      10109.611      9311.4174      5876.1949      3435.2224      2335.934       3700.1093     -4194.4588      0              813.2435       15261.108     -14480.714     -101.83239      53512.988      37.683659      37.683659      37.683659      1.5523716      75.613973      2150.9912      841.66975    
     56000   56000          633.83848     -1339.1441      7902.2358      8964.8953      5703.954       3260.9413      2352.3678      3527.2009     -4189.4356      0              793.07995      15253.497     -14475.769     -100.15075      54411.529      37.893406      37.893406      37.893406      1.5267361     -2332.7227      331.43625     -2016.1458    
     57000   57000          649.64736      1058.0693      9996.7323      9160.0859      5846.2192      3313.8666      2398.0632      3570.0475     -4182.6302      0              785.85964      15221.418     -14478.891     -100.50627      54219.059      37.848673      37.848673      37.848673      1.5321557      201.28256      2687.8502      285.07518    
     58000   58000          645.46586     -1170.672       8158.3573      9051.2783      5808.5896      3242.6887      2346.984       3612.0397     -4198.3383      0              703.78835      15280.873     -14502.658     -104.19413      52300.027      37.39676       37.39676       37.39676       1.5883748     -667.22525     -1832.6908     -1012.0998    
     59000   59000          629.49852     -1707.2831      7705.9384      9025.7959      5664.8985      3360.8974      2363.3361      3691.9723     -4193.6833      0              715.68839      15278.205     -14494.621     -102.80152      53008.511      37.564868      37.564868      37.564868      1.5671454     -832.71101     -1032.8413     -3256.2971    
     60000   60000          638.76985     -875.08891      8274.7484      8956.9009      5748.3318      3208.5691      2352.3025      3543.7165     -4217.5667      0              751.46528      15268.61      -14489.958     -101.95107      53450.696      37.669032      37.669032      37.669032      1.5541807      1138.2902      542.03673     -4305.5937    
     61000   61000          655.01266      1747.7888      10441.44       9077.7859      5894.5019      3183.284       2292.2143      3514.7054     -4167.7536      0              784.94066      15240.196     -14481.019     -101.8605       53498.219      37.680192      37.680192      37.680192      1.5528002      677.54706      694.48709      3871.3321    
     62000   62000          651.37092      1530.4416      10294.206      9101.7649      5861.7296      3240.0353      2359.7114      3492.7908     -4180.6196      0              777.87456      15274.164     -14483.886     -102.00016      53424.973      37.662988      37.662988      37.662988      1.5549291      690.63995      3459.1713      441.51355    
     63000   63000          641.28017     -180.98166      8943.1303      9082.8047      5770.9223      3311.8824      2298.1906      3644.2088     -4203.3441      0              809.09458      15248.821     -14485.089     -102.97666      52918.357      37.54356       37.54356       37.54356       1.5698152      977.50305     -162.74789     -1357.7001    
     64000   64000          634.23415      122.90567      9024.3202      8930.8268      5707.5147      3223.3121      2266.8408      3577.0286     -4178.3012      0              802.64025      15245.94      -14490.837     -104.47485      52159.499      37.363235      37.363235      37.363235      1.5926542      718.07174      125.07944     -474.43418    
     65000   65000          650.03795      993.50707      9907.2689      9144.1949      5849.7341      3294.4608      2328.7573      3541.9757     -4166.4245      0              803.00761      15286.214     -14499.069     -103.4726       52664.72       37.483482      37.483482      37.483482      1.5773756      345.85154     -491.712        3126.3817    
     66000   66000          634.77074     -1908.9629      7467.3542      8957.7749      5712.3435      3245.4313      2447.6243      3474.1655     -4185.4776      0              728.72975      15274.043     -14493.654     -101.79107      53534.713      37.688758      37.688758      37.688758      1.5517416      470.09783     -3841.2043     -2355.7823    
     67000   67000          648.86125     -983.85506      8336.9114      9112.1089      5839.1449      3272.964       2356.9938      3597.7303     -4202.3393      0              767.35882      15227.171     -14473.951     -100.86484      54026.316      37.803771      37.803771      37.803771      1.5376218     -1560.3959     -1545.3918      154.2225     
     68000   68000          640.66279     -1374.2758      7952.3668      9025.4179      5765.3665      3260.0514      2421.1871      3482.5568     -4196.5252      0              818.38761      15207.795     -14473.35      -101.78283      53539.044      37.689774      37.689774      37.689774      1.5516161     -662.82271     -1562.9212     -1897.0836    
     69000   69000          637.64994      2001.3935      10706.297      9144.1719      5738.2536      3405.9183      2365.8539      3637.7059     -4188.3688      0              836.55298      15237.112     -14482.938     -101.82106      53518.944      37.685057      37.685057      37.685057      1.5521988      2135.0574      4057.3123     -188.18928    
     70000   70000          633.28742      782.37153      9518.8982      8896.0564      5698.995       3197.0614      2379.6172      3506.9702     -4224.6527      0              774.66699      15234.744     -14474.284     -99.828908      54586.95       37.934085      37.934085      37.934085      1.5218297      1589.1297      1281.0061     -523.02123    
     71000   71000          644.48116     -471.86512      8798.915       9175.9313      5799.7282      3376.2031      2298.2025      3739.0553     -4209.8652      0              791.805        15222.834     -14465.829     -99.466951      54785.59       37.980043      37.980043      37.980043      1.5163119     -1107.4524      475.51708     -783.66005    
     72000   72000          638.54718     -1688.1657      7639.004       8957.6469      5746.3279      3211.319       2334.0003      3550.7606     -4199.957       0              778.07002      15213.721     -14465.276     -101.74402      53559.467      37.694566      37.694566      37.694566      1.5510244     -1475.6622     -1137.5416     -2451.2932    
     73000   73000          631.76183      1458.452       9892.6989      8783.5321      5685.2661      3098.266       2235.5428      3514.4771     -4191.1979      0              801.6405       15230.887     -14493.084     -104.5          52146.944      37.360237      37.360237      37.360237      1.5930376      1909.8322      1184.304       1281.2197    
     74000   74000          637.64678     -966.08338      8390.2755      9134.1531      5738.2252      3395.928       2386.0745      3706.7391     -4201.2667      0              751.36509      15237.294     -14484.278     -103.21294      52797.214      37.514889      37.514889      37.514889      1.5734172     -1459.0994     -2722.785       1283.6343    
     75000   75000          630.51356     -1746.4232      7664.0175      8993.6903      5674.0328      3319.6574      2500.3091      3530.0893     -4204.5065      0              757.63235      15223.283     -14487.15      -104.38203      52205.877      37.374306      37.374306      37.374306      1.5912393      164.44845     -4342.599      -1061.1191    
     76000   76000          636.04453      362.98261      9355.868       9084.9508      5723.8064      3361.1444      2393.9361      3664.8535     -4201.2688      0              733.52583      15277.388     -14507.291     -106.48054      51177.01       37.127152      37.127152      37.127152      1.6232297      720.62062     -179.93539      548.2626     
     77000   77000          628.3314      -1099.3912      8031.9129      8850.704       5654.3955      3196.3085      2341.4395      3509.2013     -4160.3903      0              759.68027      15257.122     -14510.744     -106.70879      51067.544      37.100662      37.100662      37.100662      1.6267092     -472.14361      213.81173     -3039.8418    
     78000   78000          627.76162     -802.33917      8454.4929      9059.2979      5649.2679      3410.03        2370.6212      3727.6871     -4195.0036      0              754.79225      15251.349     -14499.416     -105.42987      51687.02       37.250076      37.250076      37.250076      1.6072128     -642.95197     -777.82211     -986.24343    
     79000   79000          639.25652     -1212.5317      8120.8822      9042.9414      5752.7114      3290.2301      2340.4077      3656.0975     -4222.8916      0              779.21743      15215.062     -14477.663     -104.50939      52142.26       37.359118      37.359118      37.359118      1.5931807     -3296.287       1781.9312     -2123.2392    
     80000   80000          651.82171      388.37312      9409.5597      9114.6284      5865.7863      3248.8421      2343.7609      3640.1683     -4221.8173      0              724.53573      15241.077     -14478.883     -104.65244      52070.983      37.342087      37.342087      37.342087      1.5953615     -58.477398      118.70835      1104.8884    
     81000   81000          633.0343       295.62665      9123.8211      8903.1081      5696.7172      3206.391       2308.6948      3610.6401     -4198.537       0              725.50231      15253.34      -14493.249     -106.44782      51192.741      37.130956      37.130956      37.130956      1.6227309      2081.6177      842.43207     -2037.1698    
     82000   82000          654.88734      787.51527      9696.381       9104.6456      5893.3741      3211.2715      2312.7269      3550.7381     -4169.4365      0              786.54933      15203.522     -14472.828     -105.76755      51521.999      37.210391      37.210391      37.210391      1.6123606      1472.54       -269.36806      1159.3739    
     83000   83000          644.01311      634.13023      9448.4967      8967.9289      5795.5161      3172.4128      2308.1175      3531.7668     -4188.7544      0              776.88734      15225.987     -14481.591     -104.86844      51963.733      37.316432      37.316432      37.316432      1.5986542      1123.2897      117.98188      661.11916    
     84000   84000          639.69804      2691.1192      11111.945      9087.3361      5756.6846      3330.6514      2299.5055      3589.8241     -4157.0522      0              868.84981      15223.072     -14493.548     -105.63621      51586.058      37.225806      37.225806      37.225806      1.6103584      3735.4892      1637.2425      2700.6258    
     85000   85000          635.04187      425.5875       9435.8661      9112.9116      5714.7834      3398.1281      2330.8554      3686.6261     -4174.7912      0              839.09698      15192.466     -14476.125     -104.72938      52032.729      37.332941      37.332941      37.332941      1.5965344      952.81949     -173.58636      497.52936    
     86000   86000          641.43923      320.60999      9159.6405      8918.2016      5772.3537      3145.8479      2280.6453      3547.4355     -4186.6497      0              761.13118      15221.755     -14478.469     -105.53363      51636.198      37.237863      37.237863      37.237863      1.6087947      446.23834      473.51006      42.08159     
     87000   87000          633.08759      737.64413      9686.8817      9126.8767      5697.1967      3429.68        2449.1663      3598.9315     -4159.827       0              798.25252      15239.751     -14496.595     -104.68296      52055.803      37.338458      37.338458      37.338458      1.5958267      3175.3436     -1178.8747      216.46353    
     88000   88000          637.11456     -1035.1923      8152.481       8969.4952      5733.4357      3236.0595      2344.4947      3580.8376     -4189.6309      0              761.70571      15199.381     -14460.728     -100.69605      54116.874      37.824881      37.824881      37.824881      1.5350488     -654.04072     -1762.3823     -689.15384    
     89000   89000          638.51271     -1725.9223      7818.7518      9167.0576      5746.0178      3421.0398      2339.6429      3733.1082     -4186.2423      0              809.13749      15192.542     -14467.149     -101.73113      53566.255      37.696158      37.696158      37.696158      1.5508279     -440.88414     -2396.6814     -2340.2013    
     90000   90000          637.25823     -961.23967      8232.7494      8976.514       5734.7286      3241.7854      2409.6716      3535.8718     -4199.6454      0              760.22329      15200.36      -14464.696     -102.71106      53055.2        37.575894      37.575894      37.575894      1.5657663     -1648.5332     -632.20235     -602.98347    
     91000   91000          637.04331      584.13111      9525.5421      9067.0581      5732.7945      3334.2636      2257.7285      3671.9546     -4152.6733      0              805.09326      15219.114     -14466.953     -101.25285      53819.281      37.755419      37.755419      37.755419      1.5435368     -501.01224      360.10645      1893.2991    
     92000   92000          643.68504      2120.866       10710.147      9085.0364      5792.5639      3292.4725      2271.5267      3633.1156     -4215.6445      0              852.12138      15240.112     -14488.758     -103.71735      52540.445      37.453975      37.453975      37.453975      1.5811066      2260.1412      1605.5684      2496.8885    
     93000   93000          636.36782      1723.6009      10367.367      9027.39        5726.7157      3300.6743      2224.0591      3691.5912     -4174.3095      0              837.77449      15183.19      -14461.631     -102.22575      53307.075      37.635263      37.635263      37.635263      1.558368       633.06028      3390.6268      1147.1155    
     94000   94000          647.96471      2189.9028      10843.766      9113.8853      5831.0769      3282.8084      2272.4476      3617.7613     -4182.0691      0              824.28939      15217.018     -14466.639     -100.60738      54164.569      37.83599       37.83599       37.83599       1.5336971      3437.0346      453.74209      2678.9318    
     95000   95000          638.22558      1645.787       10418.258      9118.2693      5743.4338      3374.8354      2365.3114      3609.7472     -4204.3492      0              873.11982      15201.296     -14470.29      -100.61319      54161.444      37.835262      37.835262      37.835262      1.5337856      1625.9228      755.70108      2555.7371    
     96000   96000          669.70495     -1521.8363      8084.7826      9310.6193      6026.7187      3283.9005      2345.2838      3634.7136     -4221.1254      0              790.7211       15184.24      -14449.933     -98.663465      55231.748      38.082863      38.082863      38.082863      1.5040633     -2886.3116     -2148.8177      469.62044    
     97000   97000          641.20993      1222.1004      9921.619       8955.899       5770.2902      3185.6088      2244.9429      3576.6337     -4221.643       0              889.59119      15170.302     -14474.218     -100.57191      54183.673      37.840437      37.840437      37.840437      1.5331564      1187.3129      1551.3963      927.59211    
     98000   98000          654.80094      874.53277      9711.3487      9016.7008      5892.5965      3124.1043      2303.6997      3514.6963     -4201.6806      0              777.61276      15200.444     -14470.668     -100.05353      54464.401      37.905676      37.905676      37.905676      1.525254       2690.6399     -890.71794      823.67636    
     99000   99000          637.8199      -562.90528      8431.0924      8875.9409      5739.7831      3136.1578      2292.6436      3507.3274     -4198.953       0              795.72107      15204.77      -14465.352     -100.56439      54187.724      37.84138       37.84138       37.84138       1.5330418     -598.09707     -689.31475     -401.30403    
    100000   100000         627.99086     -343.94798      8658.7812      8924.5009      5651.3309      3273.17        2293.4309      3658.7089     -4199.0219      0              759.36489      15246.285     -14485.598     -102.87029      52973.074      37.556495      37.556495      37.556495      1.5681937     -300.45199     -572.49218     -158.89975    
    101000   101000         648.58144     -317.46131      8823.4549      9070.5503      5836.6269      3233.9234      2409.6807      3536.8922     -4214.4606      0              765.43712      15207.075     -14470.701     -102.10501      53370.108      37.650091      37.650091      37.650091      1.5565275      34.753244     -702.202       -284.93519    
    102000   102000         634.5015       89.72052       8974.6416      8907.4647      5709.9206      3197.5442      2323.7056      3607.8591     -4209.6438      0              753.70087      15220.934     -14499.011     -106.14346      51339.531      37.166412      37.166412      37.166412      1.6180912     -253.54912      236.5311       286.17958    
    103000   103000         649.70993      720.08568      9633.4315      9089.1934      5846.7823      3242.4111      2341.4593      3549.8307     -4198.2493      0              830.72808      15205.711     -14487.069     -105.15168      51823.76       37.282896      37.282896      37.282896      1.6029721      588.4584       2037.226      -465.42742    
    104000   104000         623.15697      1335.0609      9870.0337      8850.049       5607.8305      3242.2185      2373.3676      3510.735      -4195.456       0              808.43082      15225.014     -14479.873     -104.02278      52386.177      37.417282      37.417282      37.417282      1.5857627     -19.775094      1796.6315      2228.3262    
    105000   105000         645.03057     -1162.1586      8186.7301      9078.8061      5804.6724      3274.1338      2353.4736      3640.5505     -4215.3998      0              756.94334      15207.978     -14469.412     -103.53437      52633.298      37.476026      37.476026      37.476026      1.5783173     -1311.6004     -493.41421     -1681.4611    
    106000   106000         627.52282      2344.6307      10673.951      8850.2699      5647.1189      3203.151       2302.6815      3501.0887     -4210.1335      0              898.56673      15178.384     -14467.436     -102.17548      53333.3        37.641433      37.641433      37.641433      1.5576018      682.76612      5738.0736      613.05239    
    107000   107000         641.47476      1060.3708      9866.4145      9042.0066      5772.6734      3269.3332      2295.0511      3635.9431     -4224.3931      0              812.52696      15233.315     -14483.11      -102.22017      53309.983      37.635947      37.635947      37.635947      1.5582831      1331.0923      1305.8447      544.1753     
    108000   108000         627.78863      902.77122      9686.8952      8969.7032      5649.5111      3320.1921      2267.4222      3709.4033     -4214.0163      0              808.4142       15209.005     -14460.036     -100.03761      54473.072      37.907687      37.907687      37.907687      1.5250112      654.11297      198.24066      1855.96      
    109000   109000         627.47312     -1161.9876      8119.8027      9039.8818      5646.6718      3393.21        2491.9853      3568.6124     -4215.9207      0              825.59494      15179.252     -14456.314     -100.36849      54293.491      37.865985      37.865985      37.865985      1.5300553      410.56782     -1550.4949     -2346.0358    
    110000   110000         640.67939      1213.0192      9939.5252      8989.1047      5765.5158      3223.5889      2293.1636      3607.9757     -4229.5127      0              806.14893      15209.073     -14463.26      -101.43151      53724.486      37.733239      37.733239      37.733239      1.5462604      555.37767      960.59896      2123.0808    
    111000   111000         655.33347      707.60055      9641.6753      9097.8249      5897.3888      3200.4361      2258.9265      3622.6321     -4216.6139      0              805.52028      15203.725     -14473.754     -103.40219      52700.583      37.491988      37.491988      37.491988      1.5763022      490.40763      457.68349      1174.7105    
    112000   112000         638.08987      560.19223      9456.8785      9021.7202      5742.2126      3279.5077      2309.8725      3652.3325     -4212.2254      0              802.14588      15207.564     -14480.182     -102.30831      53264.057      37.625136      37.625136      37.625136      1.5596267     -382.24149     -268.69689      2331.5151    
    113000   113000         616.07335      46.053199      8843.3968      8807.2229      5544.0844      3263.1384      2314.1058      3667.5995     -4215.42        0              781.74252      15174.991     -14459.88      -101.17773      53859.238      37.76476       37.76476       37.76476       1.5423917     -1611.2898      1853.3169     -103.86748    
    114000   114000         632.27332      165.00587      8947.7588      8818.8681      5689.869       3128.9991      2261.299       3638.3151     -4234.5219      0              725.72895      15219.753     -14481.575     -101.74165      53560.716      37.694859      37.694859      37.694859      1.5509883     -1200.8084      982.68599      713.14004    
    115000   115000         645.53843     -295.01553      8844.784       9073.0221      5809.2427      3263.7794      2341.5631      3601.0221     -4219.0975      0              827.87961      15190.944     -14478.532     -102.72538      53047.8        37.574147      37.574147      37.574147      1.5659847     -788.18314      42.680858     -139.54429    
    116000   116000         638.10673     -98.693995      8979.6003      9056.68        5742.3643      3314.3157      2395.5819      3652.3325     -4209.1252      0              741.14339      15216.355     -14481.972     -101.75877      53551.703      37.692745      37.692745      37.692745      1.5512493      1623.7589     -1301.01       -618.83092    
    117000   117000         646.26134      569.87216      9335.4167      8892.3423      5815.7482      3076.5941      2245.0424      3535.7264     -4206.0859      0              776.44087      15201.659     -14476.189     -102.2167       53311.794      37.636373      37.636373      37.636373      1.5582301      638.89309      3028.1964     -1957.473     
    118000   118000         633.51876      1060.8444      9715.4658      8884.9886      5701.0768      3183.9118      2251.2463      3634.9497     -4206.5913      0              776.97477      15192.635     -14465.303     -101.51846      53678.468      37.722463      37.722463      37.722463      1.5475859      1984.9941     -456.82782      1654.3669    
    119000   119000         647.69979     -920.73844      8179.4383      8895.7984      5828.6928      3067.1056      2279.3502      3596.3352     -4228.8283      0              699.869        15179.203     -14458.823     -102.14708      53348.13       37.644922      37.644922      37.644922      1.5571688     -771.23418     -3083.2269      1092.2458    
    120000   120000         640.40453     -212.41121      8941.0028      9108.7574      5763.0424      3345.715       2353.0233      3577.1644     -4199.9555      0              902.34959      15174.154     -14461.02      -100.62921      54152.821      37.833254      37.833254      37.833254      1.5340298     -592.57987      1128.94       -1173.5938    
    121000   121000         628.35842      2885.5818      11114.611      8877.3237      5654.6386      3222.685       2249.6318      3660.4249     -4214.845       0              775.19313      15244.528     -14492.248     -102.50206      53163.374      37.601414      37.601414      37.601414      1.5625803      2620.1682      2017.3078      4019.2694    
    122000   122000         642.44359     -371.89018      8631.0064      8917.0355      5781.392       3135.6435      2296.3647      3617.3752     -4215.9494      0              725.89302      15198.709     -14486.749     -103.3298       52737.504      37.500742      37.500742      37.500742      1.5751986     -864.57438     -1612.9678      1361.8716    
    123000   123000         648.72699      1082.4498      9763.4325      8919.0974      5837.9367      3081.1607      2313.7359      3530.6377     -4226.55        0              750.46404      15193.102     -14480.229     -101.88586      53484.904      37.677066      37.677066      37.677066      1.5531867      1318.629       342.15719      1586.5631    
    124000   124000         635.75992     -470.82995      8560.8315      8932.0773      5721.2452      3210.8321      2359.3762      3577.0791     -4227.8978      0              788.92596      15176.774     -14463.425     -100.79141      54065.676      37.812949      37.812949      37.812949      1.5365024      2075.788      -2885.5433     -602.73458    
    125000   125000         642.55618      640.84         9572.2032      9073.5316      5782.4052      3291.1264      2363.3329      3596.7019     -4213.4724      0              816.9173       15199.451     -14471.804     -102.13063      53356.721      37.646943      37.646943      37.646943      1.5569181      2596.6906     -2340.2337      1666.063     
    126000   126000         623.1995      -384.28297      8455.6153      8749.8386      5608.2131      3141.6255      2290.2489      3599.1267     -4222.6234      0              748.97052      15205.041     -14479.139     -103.79946      52498.883      37.444096      37.444096      37.444096      1.5823583     -178.52578      397.09344     -1371.4166    
    127000   127000         624.90295     -637.85102      8486.8654      8967.1038      5623.5426      3343.5612      2398.3128      3669.5657     -4204.3963      0              724.25313      15259.745     -14503.919     -105.55611      51625.201      37.23522       37.23522       37.23522       1.6091374      327.22595     -177.47342     -2063.3056    
    128000   128000         623.64579     -1278.1941      7927.1231      8922.9949      5612.2293      3310.7656      2408.7833      3626.1385     -4211.8992      0              753.83576      15206.024     -14472.117     -102.00334      53423.305      37.662596      37.662596      37.662596      1.5549776     -492.29562     -2273.3997     -1068.8869    
    129000   129000         632.35208      2439.2846      10861.315      8968.4612      5690.5778      3277.8834      2261.7293      3674.4125     -4225.2668      0              821.88036      15212.882     -14467.754     -102.4157       53208.206      37.611981      37.611981      37.611981      1.5612638      2737.7294      1474.76        3105.3644    
    130000   130000         633.64881      622.83137      9462.5075      8974.1988      5702.2472      3271.9516      2293.2775      3623.7444     -4198.9642      0              822.10094      15200.995     -14469.202     -101.36711      53758.619      37.741229      37.741229      37.741229      1.5452786      2913.6277      498.59675     -1543.7304    
    131000   131000         631.76233     -941.1459       8056.9232      8779.222       5685.2706      3093.9514      2344.8222      3452.026      -4220.0276      0              787.63449      15202.45      -14472.954     -103.55261      52624.027      37.473825      37.473825      37.473825      1.5785953     -2496.2814     -288.13446     -39.021889    
    132000   132000         646.03602      1869.6638      10456.462      9040.0307      5813.7205      3226.3102      2309.7478      3592.3639     -4221.8053      0              794.76164      15241.235     -14489.993     -104.90329      51946.47       37.312299      37.312299      37.312299      1.5991855      2286.1584      265.48037      3057.3525    
    133000   133000         649.04989      2412.8168      10798.586      8983.7964      5840.8425      3142.9539      2232.1048      3556.237      -4230.47        0              868.01229      15204.519     -14487.449     -105.66208      51573.43       37.222769      37.222769      37.222769      1.6107527      2298.0528      2612.1261      2328.2715    
    134000   134000         629.38267     -595.99106      8409.1896      8853.0404      5663.8559      3189.1845      2333.3743      3577.0002     -4209.4174      0              766.89922      15223.666     -14502.338     -106.71459      51064.765      37.099989      37.099989      37.099989      1.6267977     -2672.7035      609.74719      274.9831     
    135000   135000         621.70762     -978.87382      7941.4557      8702.6404      5594.7876      3107.8528      2370.0532      3514.8036     -4212.9472      0              708.69503      15183.643     -14456.395     -102.20161      53319.665      37.638225      37.638225      37.638225      1.5580001      140.29688     -1436.5927     -1640.3257    
    136000   136000         646.2867       770.65349      9692.0768      9094.1813      5815.9764      3278.2049      2317.767       3632.945      -4213.3454      0              805.85229      15215.711     -14480.725     -102.43654      53197.38       37.60943       37.60943       37.60943       1.5615815     -270.60679      1571.2729      1011.2944    
    137000   137000         629.50796      1468.0473      10006.45       8871.6046      5664.9834      3206.6212      2282.114       3600.8651     -4223.0802      0              809.80332      15214.634     -14477.715     -102.80737      53005.498      37.564156      37.564156      37.564156      1.5672345      3854.2948     -201.84971      751.69675    
    138000   138000         643.69301      315.0427       9246.2735      8999.9793      5792.6356      3207.3437      2223.2012      3621.7899     -4191.4093      0              840.6223       15177.467     -14464.328     -101.65676      53605.445      37.705349      37.705349      37.705349      1.5496941     -99.74479      -914.32152      1959.1944    
    139000   139000         636.67522      9.1556662      8854.507       8847.3371      5729.482       3117.855       2256.2022      3562.6949     -4225.6667      0              801.29798      15191.348     -14468.021     -101.48314      53697.152      37.726839      37.726839      37.726839      1.5470475      1215.1093     -2135.8257      948.18343    
    140000   140000         626.10145      561.7323       9187.208       8760.3181      5634.328       3125.9902      2223.4458      3620.1186     -4236.0925      0              781.62473      15216.004     -14479.111     -104.57663      52108.733      37.351109      37.351109      37.351109      1.5942058      570.92085      1774.9046     -660.62853    
    141000   141000         642.65696     -1171.2996      8047.2048      8944.091       5783.3121      3160.7789      2384.1845      3526.693      -4247.8596      0              778.60113      15195.724     -14476.564     -103.78909      52504.13       37.445344      37.445344      37.445344      1.5822002     -362.01969     -326.75253     -2825.1265    
    142000   142000         630.06559      385.22686      9220.591       8922.2589      5670.0015      3252.2574      2362.709       3595.6669     -4224.0384      0              782.4922       15204.471     -14469.043     -102.62134      53101.584      37.586841      37.586841      37.586841      1.5643986      810.47718      449.29686     -104.09346    
    143000   143000         633.09993      887.9855       9608.6527      8918.6878      5697.3078      3221.3801      2355.7401      3544.0817     -4209.5441      0              799.03883      15197.725     -14465.661     -102.28217      53277.667      37.628341      37.628341      37.628341      1.5592282      2678.918       69.296836     -84.258344    
    144000   144000         645.12527      2911.4357      11194.624      8958.5229      5805.5246      3152.9983      2270.2729      3525.463      -4220.0428      0              840.19935      15216.155     -14479.049     -103.47534      52663.327      37.483151      37.483151      37.483151      1.5774173      3318.1077      2250.6506      3165.5487    
    145000   145000         646.61348     -1588.5231      7838.6314      9080.1259      5818.9171      3261.2087      2404.154       3541.1415     -4219.7699      0              799.28634      15202.471     -14466.074     -101.68801      53588.967      37.701485      37.701485      37.701485      1.5501706     -1444.6185     -2881.3681     -439.58254    
    146000   146000         615.61342      1582.6246      9891.8127      8657.3891      5539.9455      3117.4435      2259.7227      3585.231      -4217.2354      0              753.47812      15226.505     -14490.258     -101.89074      53482.343      37.676464      37.676464      37.676464      1.5532611      1986.1699      2291.4855      470.21828    
    147000   147000         629.73889     -678.93528      8343.6584      8875.0672      5667.0616      3208.0056      2303.2622      3587.5923     -4219.0832      0              812.8643       15174.088     -14450.717     -101.53614      53669.123      37.720274      37.720274      37.720274      1.5478554      1089.3172     -2453.9489     -672.1742     
    148000   148000         651.62505     -26.137141      9060.9962      9081.1029      5864.0165      3217.0864      2376.2617      3617.8125     -4222.9193      0              692.6276       15235.252     -14481.948     -103.30895      52748.144      37.503263      37.503263      37.503263      1.5748809     -534.10306     -918.4343       1374.1259    
    149000   149000         630.1624       1249.3762      9761.6947      8803.8568      5670.8727      3132.9841      2177.501       3627.3271     -4218.6655      0              818.44512      15203.047     -14474.67      -103.66264      52568.173      37.460563      37.460563      37.460563      1.5802726      416.08487      1569.424       1762.6198    
    150000   150000         652.20592     -1556.9781      7825.4185      8994.8906      5869.2438      3125.6468      2257.8734      3608.4904     -4207.2107      0              718.041        15240.348     -14491.895     -105.80683      51502.871      37.205786      37.205786      37.205786      1.6129595     -3021.52       -991.43883     -657.97562    
    151000   151000         636.29268     -1261.4824      7988.4775      8940.298       5726.0395      3214.2585      2322.3251      3631.6465     -4236.5618      0              747.58564      15237.204     -14487.941     -105.32881      51736.611      37.261985      37.261985      37.261985      1.6056723     -362.32794     -2358.2137     -1063.9055    
    152000   152000         637.51359     -630.79167      8405.6333      8883.534       5737.0265      3146.5075      2304.9396      3530.2088     -4202.4862      0              787.8699       15206.785     -14480.809     -104.89849      51948.846      37.312868      37.312868      37.312868      1.5991124     -4174.4023      1986.0792      295.9481     
    153000   153000         651.17047     -13.173643      8999.8972      9009.8567      5859.9257      3149.931       2295.3731      3599.3549     -4234.6215      0              741.35563      15238.142     -14489.673     -105.1209       51838.935      37.286535      37.286535      37.286535      1.6025029     -2380.7517     -707.09169      3048.3225    
    154000   154000         637.50389     -430.83198      8645.6842      8971.8459      5736.9393      3234.9066      2235.3551      3704.5463     -4212.5651      0              750.55293      15243.17      -14486.153     -104.97745      51909.772      37.303511      37.303511      37.303511      1.6003161      657.10429     -397.98926     -1551.611     
    155000   155000         642.64441     -1190.6079      8000.8535      8895.134       5783.1991      3111.9349      2277.9918      3624.4904     -4215.9265      0              699.87794      15218.654     -14493.153     -105.80739      51502.601      37.205721      37.205721      37.205721      1.6129679     -3556.5042      164.4622      -179.7816     
    156000   156000         621.7866       160.42638      8768.2129      8645.8591      5595.4984      3050.3607      2201.6917      3573.9527     -4230.1704      0              772.79421      15219.839     -14487.746     -104.20276      52295.694      37.395727      37.395727      37.395727      1.5885064     -936.64754      2017.5811     -599.65444    
    157000   157000         645.59477     -705.38293      8425.5409      8970.9471      5809.7497      3161.1975      2303.2901      3601.6449     -4241.7611      0              747.91919      15230.541     -14480.437     -102.78409      53017.502      37.566992      37.566992      37.566992      1.5668796     -1857.3072      203.82982     -462.67143    
    158000   158000         614.90884     -1618.4637      7483.1195      8729.7013      5533.605       3196.0963      2310.5403      3626.0595     -4232.911       0              760.48186      15193.98      -14462.055     -103.18183      52813.133      37.518659      37.518659      37.518659      1.5729429     -1375.1227     -1646.3242     -1833.9443    
    159000   159000         649.65889      180.64936      9139.3813      9000.9013      5846.3229      3154.5784      2305.1029      3593.4596     -4235.234       0              738.03886      15237.71      -14484.499     -103.67417      52562.327      37.459174      37.459174      37.459174      1.5804484      788.34304      582.46702     -828.86199    
    160000   160000         615.10927     -335.43699      8377.3134      8634.434       5535.4086      3099.0253      2250.4057      3556.5922     -4230.2023      0              802.48394      15201.173     -14481.427     -103.68003      52559.354      37.458468      37.458468      37.458468      1.5805377      1630.2102     -759.15642     -1877.3647    
    161000   161000         639.33256      458.57739      9267.396       8916.8437      5753.3956      3163.4481      2229.7617      3604.6898     -4223.2278      0              800.36069      15224.511     -14472.648     -103.96348      52416.058      37.424395      37.424395      37.424395      1.5848586      1800.5929     -4508.4831      4083.6224    
    162000   162000         630.11926      996.65667      9603.1195      8854.633       5670.4845      3184.1484      2292.9493      3614.6637     -4224.1404      0              769.13731      15229.865     -14498.326     -105.82362      51494.7        37.203818      37.203818      37.203818      1.6132154      913.66055      1115.4092      960.90032    
    163000   163000         630.0691       1178.8331      9604.6135      8717.2673      5670.0331      3047.2342      2267.1226      3522.9117     -4219.1021      0              736.30474      15232.312     -14492.315     -105.57966      51613.689      37.232452      37.232452      37.232452      1.6094963      2008.9111     -1195.6773      2723.2653    
    164000   164000         636.38706     -1334.9721      7767.8275      8797.9576      5726.8888      3071.0687      2338.044       3554.5378     -4244.2013      0              690.10449      15215.585     -14483.001     -102.99144      52910.761      37.541763      37.541763      37.541763      1.5700406     -1.3103085     -1413.1567     -2590.4492    
    165000   165000         637.86329     -60.427199      8948.529       8994.5198      5740.1735      3254.3463      2305.5519      3668.8784     -4219.6459      0              785.24165      15210.365     -14496.045     -104.41969      52187.052      37.369813      37.369813      37.369813      1.5918133      961.51029     -1551.6828      408.89096    
    166000   166000         632.0051      -209.79666      8692.2657      8852.6251      5687.4553      3165.1697      2319.1127      3628.7474     -4233.032       0              726.31822      15206.539     -14482.515     -103.9741       52410.701      37.42312       37.42312       37.42312       1.5850206      1627.2405     -3160.1389      903.50847    
    167000   167000         636.17452     -1264.3008      8201.107       9178.6932      5724.9762      3453.717       2418.1767      3725.4589     -4248.7967      0              802.7304       15219.133     -14462.985     -102.78184      53018.66       37.567265      37.567265      37.567265      1.5668454     -846.51631     -1645.0298     -1301.3562    
    168000   168000         637.65477      1252.3517      9906.5473      8933.6985      5738.2971      3195.4014      2217.4045      3598.1001     -4210.9301      0              835.04238      15221.829     -14466.044     -102.30622      53265.147      37.625393      37.625393      37.625393      1.5595947      2958.2163     -1491.6426      2290.4815    
    169000   169000         629.49554     -2364.5756      6919.6931      8754.4248      5664.8717      3089.5531      2291.2504      3628.4092     -4225.6044      0              635.5326       15236.868     -14476.902     -102.42399      53203.899      37.610966      37.610966      37.610966      1.5613901     -2472.2605     -1111.7033     -3509.7631    
    170000   170000         613.64362      1850.7836      10189.038      8748.9079      5522.2192      3226.6887      2239.7796      3641.8798     -4238.7726      0              852.71462      15202.856     -14471.769     -102.13508      53354.395      37.646395      37.646395      37.646395      1.556986       1350.3774      2248.6307      1953.3427    
    171000   171000         642.35402     -75.652641      9040.2349      9100.6923      5780.586       3320.1063      2383.5253      3559.8816     -4212.2456      0              851.44269      15195.228     -14457.725     -99.447879      54796.097      37.98247       37.98247       37.98247       1.5160212     -625.4714      -555.08352      953.59699    
    172000   172000         635.75474     -1282.0569      7894.8576      8933.7715      5721.1985      3212.573       2369.8264      3611.7371     -4226.8084      0              718.37073      15185.125     -14445.678     -98.072849      55564.365      38.159158      38.159158      38.159158      1.4950597     -1436.2585     -1016.8256     -1393.0866    
    173000   173000         638.5537       19.047603      8941.1414      8926.0996      5746.3866      3179.713       2369.4797      3505.5538     -4211.0047      0              780.49576      15209.75      -14474.562     -100.63775      54148.224      37.832183      37.832183      37.832183      1.5341601     -196.5538       698.1327      -444.43609    
    174000   174000         629.18865     -1132.9361      8144.9743      9053.2919      5662.1099      3391.1819      2397.5061      3630.8023     -4196.8012      0              811.58108      15209.46      -14461.367     -99.126258      54973.886      38.023505      38.023505      38.023505      1.5111183      386.95119     -2617.3513     -1168.4081    
    175000   175000         612.50569     -434.01731      8440.7614      8787.1485      5511.9789      3275.1696      2422.6559      3499.6395     -4229.19        0              845.79257      15204.344     -14468.072     -99.578706      54724.105      37.965829      37.965829      37.965829      1.5180156     -759.97366     -412.00579     -130.0725     
    176000   176000         627.22524     -122.25695      8798.6454      8894.9602      5644.441       3250.5191      2334.0969      3548.3887     -4183.7684      0              812.12448      15218.514     -14478.837     -100.87922      54018.611      37.801973      37.801973      37.801973      1.5378411     -183.1211       898.57492     -1082.2247    
    177000   177000         642.84407      1771.011       10465.957      9068.2573      5784.9959      3283.2614      2276.4096      3635.3191     -4198.7575      0              829.42997      15208.414     -14467.553     -100.69979      54114.866      37.824413      37.824413      37.824413      1.5351058      347.68419      1607.3923      3357.9565    
    178000   178000         647.5681      -364.81275      8715.527       9007.5737      5827.5077      3180.066       2326.5772      3541.4583     -4219.6161      0              817.34261      15181.303     -14466.999     -99.274721      54891.674      38.004541      38.004541      38.004541      1.5133815     -787.38052     -245.87588     -61.181839    
    179000   179000         629.02503      1048.9971      9597.3817      8764.7036      5660.6375      3104.0662      2240.2232      3552.4104     -4230.0795      0              826.50437      15162.52      -14447.513     -100.11939      54428.571      37.897362      37.897362      37.897362      1.526258       684.6685      -747.77193      3210.0947    
    180000   180000         638.62166     -145.31528      8907.5585      9023.5368      5746.9981      3276.5387      2356.789       3577.0201     -4207.8007      0              834.4925       15172.887     -14456.849     -99.576259      54725.45       37.96614       37.96614       37.96614       1.5179783      93.465616     -467.90809     -61.503364    
    181000   181000         627.43619     -914.48197      8087.4054      8803.9233      5646.3394      3157.5839      2360.6092      3469.8226     -4194.6755      0              808.6092       15182.665     -14469.447     -101.43063      53724.948      37.733348      37.733348      37.733348      1.5462471      771.7462      -2282.3817     -1232.8104    
    182000   182000         628.17979     -207.24231      8601.7364      8762.1912      5653.0311      3109.1601      2334.7641      3562.2749     -4220.5156      0              709.88148      15198.733     -14475.978     -102.64715      53088.233      37.58369       37.58369       37.58369       1.564792      -389.84372     -2303.5414      2071.6581    
    183000   183000         625.45717      3082.5079      11357.442      8947.9368      5628.5301      3319.4067      2238.5826      3698.5266     -4214.5603      0              891.97191      15171.441     -14466.555     -101.67106      53597.905      37.703581      37.703581      37.703581      1.5499121      982.97888      4470.7067      3793.8382    
    184000   184000         629.71757     -1162.9542      7980.8147      8931.1068      5666.8697      3264.2371      2293.6211      3699.6551     -4243.0973      0              796.49879      15149.633     -14432.073     -97.258269      56029.741      38.265395      38.265395      38.265395      1.4826419     -2185.8914     -1292.6427     -10.328504    
    185000   185000         646.63067     -731.62151      8437.3824      9029.4044      5819.0718      3210.3326      2319.1156      3596.8324     -4222.97        0              826.9613       15138.354     -14447.96      -98.213157      55484.986      38.140978      38.140978      38.140978      1.4971986      226.63635     -481.51682     -1939.9841    
    186000   186000         637.34897      1071.4256      9716.6358      8858.5552      5735.5452      3123.0101      2221.6633      3592.4373     -4218.351       0              826.19141      15158.79      -14457.721     -99.232736      54914.898      38.0099        38.0099        38.0099        1.5127415      903.18638      2314.4767     -3.3863562    
    187000   187000         641.31515      872.31291      9901.8161      9195.5975      5771.2371      3424.3604      2383.5629      3692.7347     -4225.8256      0              856.5629       15161.929     -14444.603     -98.164436      55512.524      38.147287      38.147287      38.147287      1.4964559      61.581625      2089.0312      466.3259     
    188000   188000         625.81835     -521.85784      8388.3167      8801.5827      5631.7804      3169.8023      2305.2681      3533          -4225.0749      0              847.55936      15169.195     -14460.145     -100.35606      54300.214      37.867548      37.867548      37.867548      1.5298659     -1863.887       884.45976     -586.14628    
    189000   189000         620.21132      2.9297938      8873.4126      8871.0905      5581.3223      3289.7682      2366.7911      3564.641      -4206.6041      0              871.74586      15144.009     -14450.814     -100.2704       54346.6        37.878327      37.878327      37.878327      1.5285601     -1124.1668      987.89743      145.05879    
    190000   190000         627.46535     -675.96085      8390.4041      8925.4305      5646.6018      3278.8287      2314.9787      3680.0112     -4233.6713      0              795.46213      15178.655     -14456.607     -100.40777      54272.248      37.861046      37.861046      37.861046      1.5306542     -1594.399      -163.72143     -269.76214    
    191000   191000         646.60665     -2088.9089      7230.11        8876.4806      5818.8556      3057.625       2272.3689      3572.4502     -4245.9835      0              749.57927      15166.228     -14457.018     -100.83538      54042.1        37.807452      37.807452      37.807452      1.5371727     -3514.1736     -2545.3806     -207.17245    
    192000   192000         631.00368     -378.35243      8595.6269      8890.5667      5678.4435      3212.1232      2299.95        3639.1298     -4216.7723      0              778.83445      15176.054     -14465.073     -101.9493       53451.624      37.66925       37.66925       37.66925       1.5541538     -412.33802      661.11442     -1383.8337    
    193000   193000         610.95632     -793.60983      8067.3502      8699.0568      5498.036       3201.0208      2325.157       3605.2669     -4219.886       0              783.38783      15156.9       -14449.805     -99.841867      54579.865      37.932443      37.932443      37.932443      1.5220273      1938.2735     -2524.0389     -1795.0642    
    194000   194000         626.33656     -1449.9225      7682.823       8799.2739      5636.4438      3162.8302      2349.3688      3538.5075     -4199.6675      0              764.39911      15186.827     -14476.605     -103.21105      52798.182      37.515119      37.515119      37.515119      1.5733883     -2374.4564     -2582.9942      607.6831     
    195000   195000         633.5543       47.964131      9114.2531      9077.3085      5701.3967      3375.9118      2310.7786      3765.7015     -4220.7197      0              819.67847      15161.406     -14460.933     -103.17804      52815.071      37.519118      37.519118      37.519118      1.5728852     -2485.0534      1725.854       903.09183    
    196000   196000         627.42751     -1085.4358      8113.9921      8947.3601      5646.2613      3301.0988      2312.435       3692.6425     -4199.3524      0              781.47641      15180.816     -14466.919     -103.51144      52644.958      37.478793      37.478793      37.478793      1.5779677     -1905.1945     -818.3175      -532.79542    
    197000   197000         625.48194     -67.193029      8704.655       8756.6267      5628.753       3127.8737      2259.9082      3580.3669     -4221.1526      0              791.11892      15190.7       -14473.068     -102.74922      53035.493      37.571241      37.571241      37.571241      1.5663481     -598.78333      2051.3979     -1654.1937    
    198000   198000         650.80533     -1662.7893      7782.2377      9115.0373      5856.6398      3258.3975      2341.5676      3651.562      -4197.5636      0              760.4028       15157.376     -14454.947     -99.150156      54960.636      38.02045       38.02045       38.02045       1.5114826     -2547.2598      24.640687     -2465.7487    
    199000   199000         627.00052      419.09114      8973.2856      8645.6947      5642.4188      3003.2759      2185.0672      3522.3946     -4207.334       0              825.44471      15143.428     -14465.724     -101.67111      53597.874      37.703574      37.703574      37.703574      1.549913       2422.9726     -1888.6229      722.92378    
    200000   200000         604.74691      288.91402      8940.8666      8719.6934      5442.1571      3277.5364      2255.6435      3711.3578     -4216.586       0              847.74457      15144.585     -14465.209     -103.81433      52491.362      37.442308      37.442308      37.442308      1.582585       1357.1164     -443.09388     -47.280472    
    201000   201000         625.2155      -521.87824      8636.0269      9038.0873      5626.3553      3411.7321      2388.2972      3655.8058     -4186.1504      0              843.55221      15178.502     -14468.274     -103.15703      52825.827      37.521665      37.521665      37.521665      1.5725649     -1670.7366     -722.97053      828.0724     
    202000   202000         612.0788       280.4487       8778.0951      8565.3501      5508.1373      3057.2128      2246.1373      3591.9989     -4228.8585      0              747.79199      15173.01      -14472.867     -104.76471      52015.186      37.328745      37.328745      37.328745      1.5970729     -1003.4313      2237.1913     -392.41387    
    203000   203000         624.71414     -1927.9689      7378.3924      8843.084       5621.8435      3221.2405      2382.4827      3612.2121     -4248.0003      0              765.62893      15179.7       -14470.783     -104.6104       52091.91       37.347089      37.347089      37.347089      1.5947206     -2177.3713     -2194.6151     -1411.9202    
    204000   204000         613.21362      488.762        9092.9955      8735.1144      5518.3495      3216.7649      2323.517       3691.1277     -4243.8927      0              743.71353      15199.968     -14497.669     -108.53748      50207.134      36.891117      36.891117      36.891117      1.6545864      2009.2113      936.58585     -1479.5112    
    205000   205000         631.13377     -1941.8153      7150.2225      8603.3865      5679.6141      2923.7724      2284.6423      3527.6963     -4260.8977      0              685.76263      15163.98      -14477.411     -106.1975       51313.406      37.160106      37.160106      37.160106      1.618915      -2365.6606     -2652.8971     -806.88826    
    206000   206000         641.83448      1930.6677      10328.174      8876.3504      5775.9105      3100.4399      2177.8275      3708.505      -4235.5355      0              743.77335      15194.881     -14489.012     -105.68531      51562.09       37.22004       37.22004       37.22004       1.611107       3988.2559      989.12225      814.62504    
    207000   207000         644.66003      1778.3958      10390.692      9053.546       5801.3379      3252.2081      2256.9409      3723.1351     -4243.1712      0              808.87522      15178.364     -14471.936     -105.69893      51555.446      37.218442      37.218442      37.218442      1.6113146      1637.8368      2130.6862      1566.6644    
    208000   208000         614.97645      424.99897      9005.2447      8687.2724      5534.2133      3153.0591      2264.9167      3628.4332     -4215.1313      0              771.10573      15196.219     -14492.484     -106.22327      51300.959      37.157101      37.157101      37.157101      1.6193078      540.72063     -142.28004      876.55632    
    209000   209000         637.25924     -1327.0954      7976.2966      8997.6432      5734.7376      3262.9056      2361.9978      3681.5986     -4234.0853      0              768.89909      15153.579     -14469.083     -103.26426      52770.976      37.508674      37.508674      37.508674      1.5741995     -796.70366     -1908.5573     -1276.0253    
    210000   210000         619.98039      13.320688      8702.5533      8692.4196      5579.2442      3113.1754      2299.7033      3567.2817     -4244.2992      0              793.2442       15180.45      -14483.205     -104.46726      52163.288      37.36414       37.36414       37.36414       1.5925385      2121.1017     -212.65901     -1868.4806    
    211000   211000         629.90124      1027.3527      9636.0146      8837.3521      5668.5226      3168.8295      2228.7088      3654.0827     -4248.9009      0              840.67449      15153.996     -14459.732     -102.22974      53304.993      37.634773      37.634773      37.634773      1.5584289      300.37239      656.39647      2125.2891    
    212000   212000         619.0235       1540.7765      9784.1933      8595.7595      5570.633       3025.1265      2287.6779      3487.5144     -4244.1831      0              804.29578      15162.487     -14472.665     -103.03522      52888.28       37.536446      37.536446      37.536446      1.570708       1239.5483      1786.2968      1596.4845    
    213000   213000         631.36975      644.34548      9167.0353      8676.3133      5681.7378      2994.5756      2210.7299      3553.0845     -4266.295       0              791.31238      15193.697     -14487.954     -104.35285      52220.476      37.377789      37.377789      37.377789      1.5907944      850.21147     -503.53843      1586.3634    
    214000   214000         630.10504      577.28788      9261.9302      8817.6522      5670.3565      3147.2957      2358.2982      3511.0785     -4235.9084      0              807.60292      15181.213     -14474.989     -103.26631      52769.927      37.508425      37.508425      37.508425      1.5742308      219.49501      580.31258      932.05604    
    215000   215000         628.91519      80.657438      8810.736       8749.6986      5659.649       3090.0496      2240.2667      3596.3461     -4213.1082      0              765.18002      15189.16      -14487.795     -105.0193       51889.087      37.298555      37.298555      37.298555      1.600954      -1987.0079      1891.0494      337.9308     
    216000   216000         617.33668     -511.29502      8322.0283      8703.3744      5555.4533      3147.9212      2322.8718      3535.8686     -4198.7184      0              787.06321      15202.126     -14501.29      -106.55485      51141.317      37.118519      37.118519      37.118519      1.6243626      64.000735     -2042.8321      444.9463     
    217000   217000         638.80577      1037.3007      9636.5953      8859.3152      5748.655       3110.6602      2307.2462      3629.2249     -4236.489       0              694.61387      15220.057     -14503.992     -106.05916      51380.339      37.176256      37.176256      37.176256      1.6168061      2239.6878     -750.41096      1622.6253    
    218000   218000         612.3201       59.485855      8692.0396      8646.9178      5510.3087      3136.609       2291.2807      3589.4873     -4219.2232      0              756.28975      15212.658     -14493.883     -104.77267      52011.23       37.327798      37.327798      37.327798      1.5971943      773.922       -1166.1243      570.65982    
    219000   219000         630.98417      2566.44        10637.522      8699.8211      5678.2679      3021.5532      2148.7263      3612.8857     -4229.8997      0              772.25183      15209.353     -14491.764     -105.26049      51770.189      37.270045      37.270045      37.270045      1.6046308      2858.2016      1768.6829      3072.4354    
    220000   220000         644.80888      835.54206      9539.1223      8912.6663      5802.6774      3109.9889      2290.036       3540.2854     -4222.42        0              809.10237      15193.634     -14500.648     -105.99826      51409.858      37.183374      37.183374      37.183374      1.6158777      1750.2198      317.52097      438.88544    
    221000   221000         628.77479      275.56036      8926.5671      8712.2493      5658.3856      3053.8638      2296.1978      3548.485      -4246.5558      0              731.73036      15184.081     -14460.074     -102.18322      53329.26       37.640483      37.640483      37.640483      1.5577198     -1831.7163      2194.0844      464.31298    
    222000   222000         641.03124     -2088.614       7274.4298      8919.301       5768.6821      3150.6189      2432.7363      3544.5124     -4241.2277      0              687.3276       15189.061     -14461.79      -100.91305      54000.506      37.79775       37.79775       37.79775       1.5383567     -1483.6587     -2406.3287     -2375.8547    
    223000   223000         641.69298      1140.628       9727.2326      8839.9352      5774.6372      3065.2979      2230.2191      3548.5651     -4241.6619      0              795.83414      15209.799     -14477.458     -102.16352      53339.545      37.642902      37.642902      37.642902      1.5574194      2520.0305      583.00581      318.84758    
    224000   224000         631.2633       1680.116       10047.471      8740.2393      5680.7798      3059.4595      2354.9028      3429.6557     -4228.7005      0              781.89169      15195.012     -14473.302     -102.14276      53350.387      37.645453      37.645453      37.645453      1.5571029      2961.6156     -916.67404      2995.4065    
    225000   225000         629.82488     -302.57074      8558.2147      8786.3703      5667.8354      3118.5349      2329.6955      3578.2195     -4240.9501      0              718.55167      15230.124     -14497.106     -105.39423      51704.496      37.254274      37.254274      37.254274      1.6066696      986.14705     -1123.1158     -770.74344    
    226000   226000         641.28894      347.42537      9168.3726      8911.2447      5771.0012      3140.2434      2337.4937      3564.6997     -4234.631       0              757.01722      15219.887     -14504.223     -107.38246      50747.167      37.022914      37.022914      37.022914      1.6369789     -301.92013      142.89121      1201.305     
    227000   227000         626.34582      711.33515      9157.1609      8632.4445      5636.5271      2995.9174      2315.4893      3526.4477     -4242.0691      0              702.04764      15190.158     -14496.156     -107.73844      50579.494      36.982094      36.982094      36.982094      1.6424056      1288.2821      1149.464      -303.74071    
    228000   228000         630.46395     -1484.67        7571.7165      8700.5466      5673.5864      3026.9602      2309.1019      3569.0191     -4253.5086      0              691.88611      15187.102     -14476.641     -104.52554      52134.204      37.357194      37.357194      37.357194      1.5934269     -2605.2684     -2327.3466      478.60503    
    229000   229000         626.37273      946.78071      9463.5229      8748.0926      5636.7693      3111.3234      2306.331       3524.9301     -4249.5162      0              800.08448      15211.133     -14481.639     -105.17272      51813.394      37.28041       37.28041       37.28041       1.6032928      1118.7987      854.05637      867.48703    
    230000   230000         613.32159      1826.9537      10033.673      8628.6836      5519.3212      3109.3625      2247.3812      3573.7439     -4219.2049      0              790.69315      15192.718     -14475.969     -103.34171      52731.426      37.499301      37.499301      37.499301      1.5753802      1787.7492      2133.1554      1559.9564    
    231000   231000         639.31448     -3.3635767      8803.0263      8805.5904      5753.2329      3052.3575      2281.4909      3540.9622     -4241.5726      0              792.66974      15160.841     -14482.034     -104.25221      52270.89       37.389813      37.389813      37.389813      1.5892602      1201.2573     -255.2191      -956.12897    
    232000   232000         622.31428      1360.7715      9668.8848      8649.5464      5600.247       3049.2994      2351.0724      3485.9051     -4252.044       0              767.39326      15188.377     -14491.404     -106.09327      51363.818      37.172271      37.172271      37.172271      1.6173261     -65.697619      1959.7057      2188.3064    
    233000   233000         628.81672     -545.88058      8381.8648      8796.0805      5658.7629      3137.3176      2336.2522      3528.514      -4212.2878      0              799.32114      15182.854     -14497.336     -104.73506      52029.907      37.332266      37.332266      37.332266      1.596621      -2088.0732      352.23234      98.19918     
    234000   234000         627.01941      1390.707       9543.925       8507.8043      5642.5887      2865.2156      2131.7347      3531.4592     -4259.5177      0              747.2167       15215.268     -14500.946     -106.67099      51085.636      37.105043      37.105043      37.105043      1.6261331      590.01833      2863.0238      719.07868    
    235000   235000         635.64289      2396.1849      10619.825      8848.1752      5720.192       3127.9832      2243.063       3577.8822     -4219.9891      0              829.96817      15192.756     -14495.698     -107.48889      50696.918      37.01069       37.01069       37.01069       1.6386014     -9.5682722      3757.5436      3440.5793    
    236000   236000         617.7341       1615.1281      9792.1076      8609.0487      5559.0297      3050.019       2234.9278      3642.3795     -4231.8986      0              705.6371       15200.536     -14501.563     -108.49798      50225.413      36.895594      36.895594      36.895594      1.6539843      308.34278      1010.0028      3527.0388    
    237000   237000         630.92059     -413.35911      8503.0193      8810.2836      5677.6957      3132.5878      2319.3665      3655.8495     -4227.6265      0              680.76506      15203.045     -14498.812     -106.91448      50969.294      37.076854      37.076854      37.076854      1.6298449      144.4324       416.24343     -1800.7531    
    238000   238000         622.5802       738.28309      9214.6241      8656.3105      5602.64        3053.6704      2255.7382      3557.7246     -4237.3012      0              790.8982       15167.031     -14480.42      -105.09105      51853.659      37.290065      37.290065      37.290065      1.6020479     -1360.1456      2757.7548      817.24011    
    239000   239000         622.56795      890.2958       9406.7401      8717.1151      5602.5298      3114.5854      2213.0944      3700.2456     -4231.5668      0              729.45838      15181.233     -14477.88      -102.59883      53113.234      37.589589      37.589589      37.589589      1.5640555      606.63639      880.52114      1183.7299    
    240000   240000         646.21261      135.82009      8927.7548      8824.018       5815.3097      3008.7083      2257.3754      3604.024      -4250.9791      0              713.08202      15158.583     -14473.377     -104.05243      52371.249      37.413727      37.413727      37.413727      1.5862147     -1456.0472      631.16225      1232.3452    
    241000   241000         623.53375      1511.4524      9889.432       8736.2032      5611.2211      3124.9821      2225.4087      3645.1275     -4238.8886      0              808.08797      15158.193     -14472.947     -104.15978      52317.275      37.40087       37.40087       37.40087       1.5878511      1081.2847      1421.2008      2031.8717    
    242000   242000         625.55058      34.96777       8690.5798      8664.0447      5629.3706      3034.6741      2251.0918      3522.2075     -4246.7682      0              818.39272      15166.833     -14477.083     -104.72957      52032.638      37.332919      37.332919      37.332919      1.5965372     -968.76637      362.63181      711.03787    
    243000   243000         639.45781     -389.32603      8588.6876      8889.8266      5754.5227      3135.3039      2296.6398      3622.094      -4234.1381      0              788.0659       15134.547     -14471.904     -102.74658      53036.856      37.571563      37.571563      37.571563      1.5663078     -775.71581     -212.13448     -180.12781    
    244000   244000         625.04735     -1494.9644      7528.076       8685.5275      5624.8421      3060.6854      2264.9271      3595.34       -4250.5392      0              770.19495      15147.668     -14466.905     -102.64767      53087.961      37.583626      37.583626      37.583626      1.5648        -1267.9454     -2405.9584     -810.98953    
    245000   245000         631.68517      465.91636      9079.0377      8716.9987      5684.5763      3032.4224      2201.717       3611.7804     -4215.0369      0              746.17784      15156.906     -14469.122     -102.27597      53280.9        37.629102      37.629102      37.629102      1.5591336      1127.1818      19.570762      250.99652    
    246000   246000         626.09015      338.46434      9041.7828      8779.6927      5634.2263      3145.4665      2271.5977      3681.7258     -4249.6536      0              748.88675      15168.942     -14476.032     -102.63216      53095.984      37.58552       37.58552       37.58552       1.5645636      723.40748      1027.9673     -735.98176    
    247000   247000         619.47432     -1213.0578      7621.7905      8553.0752      5574.69        2978.3852      2252.4716      3535.2718     -4236.8344      0              744.87813      15164.886     -14482.288     -103.51899      52641.118      37.477882      37.477882      37.477882      1.5780828     -2602.2852      508.54873     -1545.4369    
    248000   248000         624.25852     -633.8586       8251.1494      8757.3756      5617.7433      3139.6323      2251.3506      3592.9675     -4244.8815      0              864.14669      15116.169     -14440.12      -99.510473      54761.629      37.974505      37.974505      37.974505      1.5169754     -770.01647     -1300.4676      168.90826    
    249000   249000         620.56435     -667.08504      8142.4522      8677.9413      5584.4993      3093.442       2262.6195      3569.2298     -4237.4064      0              809.65247      15130.051     -14440.705     -99.003732      55041.921      38.039184      38.039184      38.039184      1.5092504     -1233.3533      661.69132     -1429.5931    
    250000   250000         633.25268     -81.96446       8818.2264      8883.1109      5698.6824      3184.4285      2312.4809      3616.1309     -4235.9392      0              770.59711      15190.027     -14468.868     -100.39342      54280.005      37.862849      37.862849      37.862849      1.5304354     -1262.3221     -63.851225      1080.2799    
Loop time of 539.932 on 1 procs for 250000 steps with 3020 atoms

Performance: 40.005 ns/day, 0.600 hours/ns, 463.021 timesteps/s, 1.398 Matom-step/s
100.0% CPU use with 1 MPI tasks x 1 OpenMP threads

MPI task timing breakdown:
Section |  min time  |  avg time  |  max time  |%varavg| %total
---------------------------------------------------------------
Pair    | 126.7      | 126.7      | 126.7      |   0.0 | 23.47
Bond    | 35.131     | 35.131     | 35.131     |   0.0 |  6.51
Kspace  | 247.36     | 247.36     | 247.36     |   0.0 | 45.81
Neigh   | 17.414     | 17.414     | 17.414     |   0.0 |  3.23
Comm    | 3.7718     | 3.7718     | 3.7718     |   0.0 |  0.70
Output  | 1.4862     | 1.4862     | 1.4862     |   0.0 |  0.28
Modify  | 68.291     | 68.291     | 68.291     |   0.0 | 12.65
Other   |            | 39.78      |            |       |  7.37

Nlocal:           3020 ave        3020 max        3020 min
Histogram: 1 0 0 0 0 0 0 0 0 0
Nghost:           9680 ave        9680 max        9680 min
Histogram: 1 0 0 0 0 0 0 0 0 0
Neighs:              0 ave           0 max           0 min
Histogram: 1 0 0 0 0 0 0 0 0 0
FullNghs:  1.06893e+06 ave 1.06893e+06 max 1.06893e+06 min
Histogram: 1 0 0 0 0 0 0 0 0 0

Total # of neighbors = 1068934
Ave neighs/atom = 353.95166
Ave special neighs/atom = 11.86755
Neighbor list builds = 3999
Dangerous builds = 0
System init for write_data ...
PPPM Kokkos initialization ...
  using 12-bit tables for long-range coulomb
  G vector (1/distance) = 0.33193407
  grid = 40 40 40
  stencil order = 5
  estimated absolute RMS force accuracy = 0.00028688849
  estimated relative force accuracy = 8.6395615e-07
  using double precision cuFFT
  3d grid and FFT values/proc = 103823 64000
Generated 3 of 3 mixed pair_coeff terms from geometric mixing rule
System init for write_restart ...
PPPM Kokkos initialization ...
  using 12-bit tables for long-range coulomb
  G vector (1/distance) = 0.33193407
  grid = 40 40 40
  stencil order = 5
  estimated absolute RMS force accuracy = 0.00028688849
  estimated relative force accuracy = 8.6395615e-07
  using double precision cuFFT
  3d grid and FFT values/proc = 103823 64000
Generated 3 of 3 mixed pair_coeff terms from geometric mixing rule
STAGE COMPLETE: NPT T=650.0->625.0K P=1.0->1.0atm steps=250000
