Authorization required, but no authorization protocol specified

Authorization required, but no authorization protocol specified

Authorization required, but no authorization protocol specified

Authorization required, but no authorization protocol specified

LAMMPS (22 Jul 2025 - Update 3)
KOKKOS mode with Kokkos version 4.6.2 is enabled
  will use up to 1 GPU(s) per node
  using 1 OpenMP thread(s) per MPI task
Reading data file ...
  orthogonal box = (6.9196029 6.9196029 6.9196029) to (46.77309 46.77309 46.77309)
  1 by 1 by 1 MPI processor grid
  reading atoms ...
  4940 atoms
  reading velocities ...
  4940 velocities
  scanning bonds ...
  4 = max bonds/atom
  scanning angles ...
  12 = max angles/atom
  scanning dihedrals ...
  24 = max dihedrals/atom
  scanning impropers ...
  10 = max impropers/atom
  orthogonal box = (6.9196029 6.9196029 6.9196029) to (46.77309 46.77309 46.77309)
  1 by 1 by 1 MPI processor grid
  reading bonds ...
  4930 bonds
  reading angles ...
  9840 angles
  reading dihedrals ...
  14670 dihedrals
  reading impropers ...
  6560 impropers
Finding 1-2 1-3 1-4 neighbors ...
  special bond factors lj:    0        0        1       
  special bond factors coul:  0        0        1       
     4 = max # of 1-2 neighbors
     6 = max # of 1-3 neighbors
    10 = max # of special neighbors
  special bonds CPU = 0.003 seconds
  read_data CPU = 0.212 seconds
Finding SHAKE clusters ...
     810 = # of size 2 clusters
     820 = # of size 3 clusters
      10 = # of size 4 clusters
       0 = # of frozen angles
  find clusters CPU = 0.002 seconds
PPPM Kokkos initialization ...
  using 12-bit tables for long-range coulomb
  G vector (1/distance) = 0.29631306
  grid = 27 27 27
  stencil order = 5
  estimated absolute RMS force accuracy = 0.00035625463
  estimated relative force accuracy = 1.0728502e-06
  using double precision cuFFT
  3d grid and FFT values/proc = 39304 19683
Generated 6 of 6 mixed pair_coeff terms from sixthpower/sixthpower mixing rule
Neighbor list info ...
  update: every = 1 steps, delay = 0 steps, check = yes
  max neighbors/atom: 4000, page size: 100000
  master list distance cutoff = 11.5
  ghost atom cutoff = 11.5
  binsize = 11.5, bins = 4 4 4
  1 neighbor lists, perpetual/occasional/extra = 1 0 0
  (1) pair lj/class2/coul/long/kk, perpetual
      attributes: full, newton off, kokkos_device
      pair build: full/bin/kk/device
      stencil: full/bin/3d
      bin: kk/device
Setting up Verlet run ...
  Unit style    : real
  Current step  : 0
  Time step     : 1
Per MPI rank memory allocation (min/avg/max) = 30.1 | 30.1 | 30.1 Mbytes
   Step          Time           Temp          Press         Enthalpy        TotEng         KinEng         PotEng         E_bond        E_angle        E_dihed        E_impro         E_vdwl         E_coul         E_long         E_tail         Volume           Lx             Ly             Lz          Density          Pxx            Pyy            Pzz      
         0   0              294.5         -247.97121     -2623.1815     -2394.2655      3610.0059     -6004.2715      942.22507      2519.2669     -2844.8043      18.229298     -1327.8774     -2227.6061     -3083.7049     -373.04674      63299.311      39.853487      39.853487      39.853487      1.3449597      32.813506     -1242.6624      465.93528    
       500   500            268.60314     -66.78675      -3073.3062     -3012.0479      3292.56       -6304.6078      844.70379      2376.1962     -2839.0323      19.013315     -1384.2839     -2239.4102     -3081.7946     -375.45976      62892.497      39.767926      39.767926      39.767926      1.3536594     -195.3245      -88.183592      83.147842    
      1000   1000           269.40452      994.80873     -2147.0977     -3050.7872      3302.3834     -6353.1706      829.23499      2369.0038     -2862.6124      18.850056     -1374.9385     -2246.1174     -3086.5912     -379.10409      62287.911      39.640086      39.640086      39.640086      1.3667984      808.25878     -110.90091      2287.0683    
      1500   1500           268.69924     -700.4051      -3683.1347     -3036.2765      3293.7379     -6330.0145      845.94837      2360.7874     -2850.9089      18.225674     -1389.4524     -2229.6253     -3084.9893     -372.88797      63326.263      39.859143      39.859143      39.859143      1.3443872     -1236.5199     -286.95336     -577.74201    
      2000   2000           270.74903      33.65574      -2988.4468     -3019.1437      3318.8645     -6338.0082      850.53417      2313.6451     -2813.8545      16.757517     -1376.1125     -2242.3585     -3086.6194     -377.5743       62540.279      39.69355       39.69355       39.69355       1.361283       588.8398       95.52452      -583.3971     
      2500   2500           274.62432      113.02247     -2863.0058     -2966.6057      3366.3681     -6332.9738      817.66514      2382.5616     -2825.9067      18.648345     -1401.5861     -2238.3105     -3086.0456     -375.70217      62851.917      39.759371      39.759371      39.759371      1.3545334     -22.146607      723.51309     -362.29908    
      3000   3000           269.26901     -325.51563     -3217.8177     -2920.56        3300.7223     -6221.2824      860.56936      2440.6146     -2850.2572      18.230846     -1357.776      -2248.9121     -3083.7519     -377.11775      62615.991      39.709561      39.709561      39.709561      1.359637      -271.04585      135.8932      -841.39423    
      3500   3500           271.77408      129.28545     -2844.2007     -2961.8017      3331.4297     -6293.2314      856.51799      2366.7867     -2842.0565      17.598016     -1360.4609     -2246.2602     -3085.3564     -378.59656      62371.41       39.657791      39.657791      39.657791      1.3649686     -141.68985     -141.67157      671.21775    
      4000   4000           269.54546     -53.387792     -3081.4131     -3032.3852      3304.111      -6336.4962      847.77077      2362.5711     -2845.1189      18.387841     -1416.9389     -2224.7227     -3078.4453     -375.00543      62968.692      39.78398       39.78398       39.78398       1.3520214     -968.58071      575.455        232.96233    
      4500   4500           274.74938      117.43221     -2855.1126     -2962.8554      3367.9011     -6330.7565      834.87314      2354.9519     -2820.4571      18.382443     -1391.7939     -2243.7509     -3082.962      -375.35059      62910.789      39.771781      39.771781      39.771781      1.3532658      209.71387      742.02621     -599.44344    
      5000   5000           270.70046      181.61066     -2798.7812     -2965.4718      3318.2692     -6283.741       827.2913       2420.5899     -2852.7104      18.681429     -1373.5444     -2238.2282     -3085.8206     -375.20464      62935.26       39.776938      39.776938      39.776938      1.3527396     -145.85919      1397.5836     -706.89241    
      5500   5500           265.7991       942.77763     -2264.086      -3123.7998      3258.1879     -6381.9876      796.33502      2382.0653     -2845.8034      19.471205     -1412.9823     -2236.475      -3084.5985     -377.6535       62527.162      39.690774      39.690774      39.690774      1.3615686     -423.36969      2478.2972      773.40536    
      6000   6000           270.62396     -429.43149     -3336.2733     -2941.9629      3317.3314     -6259.2943      848.26213      2429.4273     -2843.4088      18.787072     -1391.4154     -2236.3885     -3084.5582     -375.05401      62960.537      39.782262      39.782262      39.782262      1.3521965      494.56225     -746.2951      -1036.5616    
      6500   6500           271.58687     -147.51908     -3143.9478     -3008.8458      3329.1348     -6337.9806      832.16044      2416.7833     -2861.4501      19.186494     -1416.1195     -2240.7672     -3087.774      -376.03161      62796.853      39.747757      39.747757      39.747757      1.3557211      508.48648      332.42392     -1283.4676    
      7000   7000           273.17872      1997.3465     -1168.5363     -2981.4374      3348.6478     -6330.0852      788.36726      2402.8854     -2849.0912      17.574317     -1360.184      -2242.6678     -3086.9692     -379.41755      62236.451      39.629167      39.629167      39.629167      1.3679286      2356.976       2972.5386      662.5249     
      7500   7500           268.26807     -371.23846     -3319.9205     -2978.8606      3288.4527     -6267.3132      851.52167      2398.9093     -2818.5298      18.919586     -1395.9798     -2236.6535     -3085.5006     -374.85245      62994.391      39.789391      39.789391      39.789391      1.3514698     -54.486959     -508.00549     -551.22293    
      8000   8000           270.48308     -747.03204     -3594.578      -2905.4352      3315.6044     -6221.0396      884.11734      2412.5193     -2835.2265      19.013995     -1376.5593     -2237.916      -3086.9884     -373.30869      63254.894      39.844163      39.844163      39.844163      1.3459041     -850.18662     -611.25961     -779.64989    
      8500   8500           268.41754     -793.20916     -3764.2464     -3039.6939      3290.2849     -6329.9788      878.65695      2351.1875     -2840.7627      18.039756     -1408.5817     -2242.2043     -3086.3143     -377.01274      62633.432      39.713248      39.713248      39.713248      1.3592584     -647.00196     -1183.131      -549.49452    
      9000   9000           271.78662      471.5364      -2612.649      -3045.1546      3331.5833     -6376.7379      843.64289      2302.4417     -2838.8467      17.843919     -1379.5279     -2236.2885     -3086.0032     -375.45829      62892.743      39.767978      39.767978      39.767978      1.3536541      851.36753      414.80398      148.43768    
      9500   9500           270.90684     -543.1648      -3536.3643     -3036.7493      3320.7989     -6357.5482      885.5584       2326.6659     -2868.9816      17.878247     -1385.0507     -2244.6898     -3088.9287     -374.39866      63070.743      39.80546       39.80546       39.80546       1.3498338     -2021.4266      128.71272      263.21952    
     10000   10000          269.74977      361.51027     -2623.6601     -2954.4734      3306.6155     -6261.0889      824.19191      2415.8463     -2854.4766      17.795073     -1333.3155     -2244.3457     -3086.7844     -376.33599      62746.062      39.737038      39.737038      39.737038      1.3568185      548.07826      443.17328      93.279263    
     10500   10500          269.06244      848.13027     -2276.2131     -3049.7231      3298.1902     -6347.9133      812.18227      2381.5618     -2865.3968      17.795949     -1364.1722     -2245.6505     -3084.2339     -377.60239      62535.626      39.692565      39.692565      39.692565      1.3613843     -227.22227      393.92426      2377.6888    
     11000   11000          272.20886     -183.55189     -3186.8713     -3018.9864      3336.7593     -6355.7457      868.54824      2325.8506     -2840.2449      17.204099     -1404.98       -2236.2034     -3085.9204     -376.51756      62715.804      39.73065       39.73065       39.73065       1.3574731      533.2807      -901.31769     -182.61869    
     11500   11500          268.2059       65.49217      -2898.7121     -2958.7716      3287.6905     -6246.4621      814.05245      2455.3404     -2830.4442      18.519821     -1365.5795     -2249.3423     -3089.0087     -375.53132      62880.511      39.7654        39.7654        39.7654        1.3539174      298.95324     -43.048929     -59.427798    
     12000   12000          274.79399     -854.60671     -3709.5575     -2927.7862      3368.448      -6296.2342      854.91493      2396.5985     -2846.7475      18.013737     -1402.1873     -2231.7396     -3085.0869     -376.46503      62724.555      39.732497      39.732497      39.732497      1.3572838     -1069.1751     -593.90433     -900.74073    
     12500   12500          274.41199      88.112073     -2797.9764     -2878.5808      3363.7653     -6242.3461      834.05292      2440.9407     -2839.3281      17.667712     -1375.7794     -2234.373      -3085.5269     -376.45682      62725.923      39.732786      39.732786      39.732786      1.3572542      543.74808     -1079.0747      799.66282    
     13000   13000          277.81614      284.9137      -2580.8052     -2840.4714      3405.4938     -6245.9651      880.06426      2398.1527     -2827.9274      17.339282     -1378.0128     -2249.8341     -3085.747      -377.86451      62492.245      39.683385      39.683385      39.683385      1.3623294      438.38251     -358.8973       775.25589    
     13500   13500          272.7778      -1089.9835     -4004.307      -3006.6859      3343.7333     -6350.4192      877.05799      2349.0597     -2853.2532      17.680076     -1425.7948     -2231.8036     -3083.3654     -376.26378      62758.105      39.73958       39.73958       39.73958       1.3565582     -901.14409     -1223.1346     -1145.6717    
     14000   14000          270.41383     -796.61098     -3716.7968     -2985.4213      3314.7556     -6300.1769      902.87762      2344.5836     -2845.278       18.518899     -1406.4129     -2230.7912     -3083.675      -375.09735      62953.261      39.78073       39.78073       39.78073       1.3523528     -644.81514     -671.40155     -1073.6162    
     14500   14500          273.09407     -513.69748     -3393.9576     -2925.2956      3347.6102     -6272.9058      871.2198       2421.3555     -2835.2302      18.462216     -1421.7062     -2241.8953     -3085.1115     -377.47295      62557.07       39.697102      39.697102      39.697102      1.3609176      74.478386     -1649.3886      33.817762    
     15000   15000          274.44712      306.26458     -2656.1946     -2936.1219      3364.196      -6300.3179      853.84556      2379.6666     -2849.7576      18.246591     -1373.6267     -2244.1038     -3084.5886     -376.78153      62671.867      39.721369      39.721369      39.721369      1.3584248      480.14953      120.37438      318.26983    
     15500   15500          269.70993      898.06704     -2170.0781     -2992.5181      3306.1272     -6298.6453      842.52214      2384.9251     -2842.8535      17.816729     -1366.2585     -2249.8694     -3084.9278     -376.04744      62794.209      39.747199      39.747199      39.747199      1.3557782      903.9715       850.46232      939.76731    
     16000   16000          266.60685      109.29393     -2856.0737     -2955.8288      3268.0893     -6223.9181      849.39009      2419.9074     -2852.3828      18.569858     -1333.177      -2243.0326     -3083.193      -377.3108       62583.954      39.702787      39.702787      39.702787      1.360333       1116.6163     -231.02679     -557.70773    
     16500   16500          272.80076     -84.140151     -3003.7778     -2926.3523      3344.0148     -6270.3671      849.06503      2403.911      -2846.7653      18.690889     -1372.1443     -2235.151      -3087.9735     -374.24594      63096.48       39.810874      39.810874      39.810874      1.3492832      315.83691      714.08401     -1282.3414    
     17000   17000          275.0641       668.88294     -2242.6292     -2853.1578      3371.759      -6224.9168      821.19631      2477.8228     -2857.6969      18.62876      -1363.1108     -2237.3173     -3084.4396     -377.29602      62586.405      39.703306      39.703306      39.703306      1.3602798      1149.1748     -174.18263      1031.6566    
     17500   17500          268.49485     -471.11844     -3432.7338     -3001.42        3291.2325     -6292.6525      845.80702      2376.3519     -2830.8596      17.080438     -1372.0855     -2242.9074     -3086.0394     -376.16199      62775.087      39.743164      39.743164      39.743164      1.3561912      795.16788     -1112.2119     -1096.3113    
     18000   18000          267.29416     -453.033       -3425.9488     -3008.7942      3276.5144     -6285.3086      874.9416       2393.9044     -2852.6375      18.163585     -1389.1502     -2240.6987     -3089.8318     -373.99943      63138.068      39.819619      39.819619      39.819619      1.3483944     -502.34645     -1168.5954      311.84288    
     18500   18500          280.64507     -40.050668     -2868.8873     -2832.3874      3440.171      -6272.5584      891.76629      2389.929      -2838.5109      17.857071     -1399.5295     -2243.6434     -3090.427      -377.88213      62489.331      39.682768      39.682768      39.682768      1.3623929     -89.283263      338.64029     -369.50903    
     19000   19000          268.7992       107.93231     -2914.1896     -3013.2721      3294.9634     -6308.2355      825.32697      2403.2305     -2847.2066      19.311648     -1376.2096     -2244.5736     -3088.1148     -375.13919      62946.24       39.779251      39.779251      39.779251      1.3525036     -350.06176     -414.54755      1088.4062    
     19500   19500          271.2729       404.39162     -2683.7904     -3051.9091      3325.2861     -6377.1952      812.23859      2368.7673     -2849.9352      17.846744     -1391.7422     -2246.911      -3087.4593     -378.31397      62418          39.667663      39.667663      39.667663      1.3639498      899.6377       138.49045      175.0467     
     20000   20000          266.00326      13.607545     -3032.0246     -3044.5148      3260.6904     -6305.2052      851.61487      2390.8819     -2848.6834      18.093622     -1373.3401     -2253.9366     -3089.8355     -375.18784      62938.078      39.777531      39.777531      39.777531      1.3526791      154.81021      405.94436     -519.93193    
     20500   20500          269.73254     -102.69735     -3094.1518     -3000.5696      3306.4043     -6306.9739      865.9904       2404.3138     -2842.9734      18.324453     -1421.2675     -2240.7697     -3090.5919     -377.92379      62482.443      39.68131       39.68131       39.68131       1.3625431      580.81616     -49.923901     -838.98431    
     21000   21000          270.18304      101.33921     -2895.349      -2987.5948      3311.9266     -6299.5214      837.56394      2425.1744     -2847.6625      18.950496     -1403.1685     -2241.1879     -3089.1914     -378.3284       62415.619      39.667159      39.667159      39.667159      1.3640018      178.94906     -613.98166      739.05024    
     21500   21500          274.09129     -394.93422     -3297.6371     -2938.7018      3359.8342     -6298.536       890.9675       2395.2278     -2850.1231      18.472359     -1419.1108     -2242.5158     -3091.4539     -378.91932      62318.283      39.646528      39.646528      39.646528      1.3661323      203.06633     -336.71044     -1051.1585    
     22000   22000          271.1261      -160.07534     -2994.5965     -2848.3248      3323.4867     -6171.8115      873.03041      2515.257      -2856.3226      18.361549     -1390.3365     -2241.7018     -3090.0995     -376.87924      62655.618      39.717936      39.717936      39.717936      1.3587771     -1075.2288      948.36702     -353.3642     
     22500   22500          275.14705      734.58159     -2237.053      -2908.1506      3372.7758     -6280.9264      823.06502      2425.4597     -2857.3382      18.642111     -1363.9462     -2241.1627     -3085.6461     -376.95756      62642.599      39.715185      39.715185      39.715185      1.3590595      1053.6212      1555.383      -405.25951    
     23000   23000          265.85095     -1015.9285     -3988.4293     -3057.0452      3258.8234     -6315.8686      885.02059      2360.4258     -2860.4952      18.45752      -1389.5293     -2242.6869     -3087.0611     -375.64055      62862.226      39.761545      39.761545      39.761545      1.3543112     -1263.1404     -1540.5236     -244.12157    
     23500   23500          271.05672     -629.75457     -3550.2103     -2973.9862      3322.6361     -6296.6223      879.94284      2368.9785     -2837.6919      18.315355     -1395.5597     -2240.5253     -3090.0821     -376.37264      62739.953      39.735748      39.735748      39.735748      1.3569506      587.50259     -1205.4091     -1271.3572    
     24000   24000          273.49645      751.85944     -2293.0317     -2976.1699      3352.5426     -6328.7125      855.06682      2401.1752     -2865.4726      18.88513      -1413.9411     -2235.8584     -3088.5675     -379.02353      62301.15       39.642894      39.642894      39.642894      1.366508       761.22311      914.61083      579.74437    
     24500   24500          275.88842      817.7527      -2196.9476     -2948.5489      3381.8636     -6330.4124      823.66899      2373.518      -2861.5071      18.095857     -1349.5947     -2244.3832     -3090.2102     -374.69042      63021.632      39.795126      39.795126      39.795126      1.3508857     -30.218598      1099.9228      1383.5539    
     25000   25000          276.32257      571.46407     -2481.9367     -3004.4441      3387.1854     -6391.6294      817.86479      2333.5556     -2834.5749      17.454943     -1385.3349     -2249.0195     -3091.5755     -376.64709      62694.236      39.726094      39.726094      39.726094      1.3579401      1065.88        590.54684      57.965412    
     25500   25500          267.78888      149.98661     -2928.1112     -3066.0623      3282.5787     -6348.641       838.59641      2327.0658     -2838.4742      17.7665       -1363.0174     -2239.9523     -3090.6259     -374.42551      63066.219      39.804509      39.804509      39.804509      1.3499306      349.59729     -360.76829      461.13083    
     26000   26000          268.87725      406.45093     -2678.5075     -3048.6652      3295.9201     -6344.5854      828.02049      2386.4032     -2838.016       18.935458     -1415.6176     -2240.7222     -3083.5887     -378.14594      62445.737      39.673538      39.673538      39.673538      1.363344       992.83101      218.99421      7.5275677    
     26500   26500          270.4057      -92.975948     -3051.0762     -2965.7388      3314.6559     -6280.3947      856.72373      2399.9147     -2851.0272      18.010316     -1374.6234     -2242.1439     -3087.2489     -375.20569      62935.085      39.776901      39.776901      39.776901      1.3527434     -9.755449      -699.22323      430.05084    
     27000   27000          267.05002      770.99685     -2356.0113     -3056.291       3273.5218     -6329.8127      840.49306      2323.3472     -2826.0828      17.272607     -1350.0407     -2246.4771     -3088.3249     -379.1571       62279.202      39.638238      39.638238      39.638238      1.3669896      1617.1009      347.40842      348.48121    
     27500   27500          273.49663      93.010222     -2811.3475     -2896.56        3352.5448     -6249.1048      847.6495       2439.1869     -2835.3674      18.824055     -1389.7489     -2242.8046     -3086.8443     -375.89412      62819.821      39.752602      39.752602      39.752602      1.3552254     -658.22         319.32014      617.93053    
     28000   28000          269.49637     -1091.7641     -3933.4059     -2937.1364      3303.5093     -6240.6456      879.84347      2477.5612     -2853.7135      18.947879     -1447.402      -2229.2981     -3086.5846     -377.38974      62570.863      39.700019      39.700019      39.700019      1.3606176     -743.73662     -1456.7175     -1074.8383    
     28500   28500          276.79535      205.69883     -2695.0115     -2882.8763      3392.9808     -6275.8571      876.26407      2397.7626     -2853.6182      18.453277     -1395.8864     -2234.2301     -3084.6023     -377.07208      62623.574      39.711164      39.711164      39.711164      1.3594724      430.9601      -604.25433      790.39073    
     29000   29000          270.95704     -538.59999     -3448.9093     -2955.8442      3321.4144     -6277.2586      876.60331      2381.5419     -2838.8815      18.329009     -1396.7859     -2231.2792     -3086.7862     -376.18391      62771.43       39.742392      39.742392      39.742392      1.3562702     -309.06758     -951.63049     -355.1019     
     29500   29500          270.6001       369.16261     -2632.1598     -2971.1067      3317.0388     -6288.1455      858.29236      2398.9385     -2881.2988      19.169349     -1367.0231     -2231.7796     -3084.4442     -375.08021      62956.139      39.781336      39.781336      39.781336      1.352291       371.15868      724.89423      11.43492     
     30000   30000          270.3465      -448.54133     -3398.9084     -2986.9194      3313.9302     -6300.8496      841.7969       2411.8997     -2868.3399      19.326914     -1387.3364     -2235.4962     -3082.7007     -374.93414      62980.665      39.786501      39.786501      39.786501      1.3517644     -582.6546      -1086.8297      323.86031    
     30500   30500          269.99464     -236.0401      -3216.4196     -3001.0992      3309.6172     -6310.7163      843.94914      2371.4895     -2844.5228      18.160908     -1369.5263     -2243.3648     -3086.9019     -377.51889      62549.457      39.695491      39.695491      39.695491      1.3610833     -511.96853      641.97304     -838.12479    
     31000   31000          268.39533     -640.09732     -3634.664      -3047.0693      3290.0126     -6337.0819      863.8113       2363.7738     -2854.853       17.685954     -1410.6471     -2233.4822     -3083.3707     -375.15109      62944.243      39.77883       39.77883       39.77883       1.3525466     -1519.3618     -515.88437      114.95426    
     31500   31500          273.21541      1252.0056     -1775.47       -2920.2718      3349.0976     -6269.3693      836.93133      2400.2475     -2850.8229      18.709712     -1354.555      -2239.2248     -3080.6552     -376.62933      62697.193      39.726719      39.726719      39.726719      1.3578761      1033.8174      1761.5684      960.63116    
     32000   32000          267.37774     -414.8705      -3361.8512     -2981.6655      3277.5389     -6259.2045      864.82558      2415.8425     -2847.5289      17.977936     -1387.6328     -2236.5595     -3086.1293     -375.79839      62835.825      39.755978      39.755978      39.755978      1.3548803     -957.12672      198.44602     -485.9308     
     32500   32500          269.16543      283.99559     -2768.3834     -3028.5687      3299.4526     -6328.0213      820.47764      2393.5425     -2845.9501      19.440916     -1396.9414     -2235.6557     -3082.9352     -375.89539      62819.609      39.752558      39.752558      39.752558      1.35523        125.01395     -310.21817      1037.191     
     33000   33000          266.02239      382.05959     -2739.5102     -3090.3055      3260.9249     -6351.2304      815.08718      2389.3998     -2848.7066      18.091678     -1409.8955     -2229.993      -3085.214      -375.07275      62957.391      39.7816        39.7816        39.7816        1.3522641      320.04588     -125.63512      951.76802    
     33500   33500          267.22374      214.56834     -2762.9627     -2960.2955      3275.6512     -6235.9467      865.46162      2465.0678     -2852.4169      18.989604     -1400.1453     -2244.6301     -3088.2735     -374.45925      63060.538      39.803313      39.803313      39.803313      1.3500522      1370.5087     -409.16455     -317.63917    
     34000   34000          270.98532      139.02946     -2853.3577     -2981.0246      3321.7609     -6302.7855      805.61844      2422.3571     -2846.4206      18.382155     -1370.0658     -2245.7238     -3086.933      -375.03051      62964.481      39.783093      39.783093      39.783093      1.3521118      226.91025      392.8377      -202.65956    
     34500   34500          270.9501      -293.31676     -3319.7912     -3051.4199      3321.3293     -6372.7492      861.40256      2361.5878     -2890.136       18.339609     -1397.7532     -2239.5913     -3086.5987     -376.39083      62736.92       39.735108      39.735108      39.735108      1.3570162      763.14936     -1494.5393     -148.56036    
     35000   35000          268.83193      1324.1854     -1762.7296     -2970.5063      3295.3646     -6265.8708      817.77344      2449.3459     -2863.9956      18.819116     -1360.5141     -2240.4844     -3086.8152     -377.57245      62540.585      39.693614      39.693614      39.693614      1.3612764      1896.2452      492.50068      1583.8104    
     35500   35500          271.95263     -895.17751     -3725.4259     -2903.1329      3333.6183     -6236.7512      877.59504      2425.6686     -2838.5404      18.129845     -1391.4953     -2240.8439     -3087.2652     -374.90455      62985.636      39.787548      39.787548      39.787548      1.3516577     -1165.8944     -1064.674      -454.96417    
     36000   36000          271.36433      583.33495     -2450.7424     -2984.2079      3326.4069     -6310.6148      838.09273      2430.1899     -2866.1264      19.43765      -1415.2528     -2231.549      -3085.4068     -376.57347      62706.493      39.728683      39.728683      39.728683      1.3576747     -208.34199     -78.866989      2037.2138    
     36500   36500          270.70457     -545.80426     -3517.8054     -3015.9481      3318.3196     -6334.2677      836.99246      2378.3123     -2844.3613      17.944349     -1391.5228     -2240.6351     -3090.9977     -374.5371       63047.43       39.800555      39.800555      39.800555      1.3503329     -781.49441     -457.58349     -398.33486    
     37000   37000          273.33223      803.18141     -2229.2913     -2961.65        3350.5296     -6312.1796      818.7418       2403.3557     -2820.6277      18.147337     -1397.7188     -2245.051      -3089.0269     -377.68344      62522.205      39.689726      39.689726      39.689726      1.3616765      969.76003      906.12822      533.65597    
     37500   37500          268.7619       411.07893     -2561.5696     -2939.5178      3294.5061     -6234.0239      861.90927      2408.7161     -2850.5903      18.489232     -1350.7995     -2239.7403     -3082.0084     -374.56838      63042.165      39.799447      39.799447      39.799447      1.3504457      1834.2974     -392.32014     -208.74051    
     38000   38000          269.87295     -534.94555     -3385.3615     -2893.2748      3308.1255     -6201.4003      863.97281      2473.939      -2850.241       19.143317     -1397.989      -2232.3658     -3077.8596     -374.37435      63074.839      39.806322      39.806322      39.806322      1.3497461     -1122.0456     -478.61641     -4.1746649    
     38500   38500          268.75452      649.92521     -2423.1351     -3015.8943      3294.4156     -6310.3099      827.80595      2418.6069     -2860.7938      18.618955     -1377.9587     -2250.6498     -3085.9394     -377.59237      62537.286      39.692916      39.692916      39.692916      1.3613482      1332.3415      179.45762      437.97647    
     39000   39000          268.56051      520.51472     -2464.8694     -2943.3105      3292.0374     -6235.3479      848.63181      2429.5724     -2836.5454      18.82331      -1367.8012     -2240.202      -3087.8268     -374.66462      63025.971      39.796039      39.796039      39.796039      1.3507927      794.53347      1000.7234     -233.71274    
     39500   39500          275.66228     -39.916574     -2932.0502     -2895.311       3379.0915     -6274.4025      861.51175      2400.0149     -2850.2062      18.665163     -1369.5819     -2246.2808     -3088.5254     -374.1634       63110.399      39.813801      39.813801      39.813801      1.3489856     -1073.5927     -455.76864      1409.6116    
     40000   40000          278.96942     -54.242466     -2880.7107     -2831.317       3419.6308     -6250.9478      854.40902      2423.5462     -2843.8065      18.305521     -1361.5799     -2250.3245     -3091.4976     -378.18655      62439.03       39.672118      39.672118      39.672118      1.3634904      496.21123      101.96719     -760.90582    
     40500   40500          273.53486     -1298.5796     -4120.006      -2929.8763      3353.0135     -6282.8897      910.37406      2361.6848     -2842.271       18.151087     -1399.753      -2239.6988     -3091.3769     -375.76162      62841.973      39.757274      39.757274      39.757274      1.3547477     -2238.7061     -661.77776     -995.25506    
     41000   41000          264.16801     -72.082545     -3099.4142     -3033.489       3238.1938     -6271.6828      867.64007      2405.2232     -2837.8016      17.911763     -1400.8776     -2234.9123     -3088.8663     -376.54509      62711.218      39.729681      39.729681      39.729681      1.3575724      502.69268      39.821873     -758.76218    
     41500   41500          273.61365      733.43754     -2316.9573     -2989.39        3353.9792     -6343.3692      827.80613      2368.6282     -2847.7718      17.669908     -1376.1463     -2247.6406     -3085.9147     -375.62325      62865.123      39.762156      39.762156      39.762156      1.3542488      1185.403       426.21081      588.69886    
     42000   42000          269.80396      9.854073      -2943.9891     -2953.0231      3307.2797     -6260.3029      863.99931      2425.8874     -2844.6093      19.436427     -1395.0487     -2242.7747     -3087.1933     -375.6413       62862.102      39.761519      39.761519      39.761519      1.3543139     -724.18645     -204.63802      958.38669    
     42500   42500          270.71857     -61.760767     -3019.4055     -2962.6013      3318.4912     -6281.0925      859.20145      2375.8554     -2852.4759      18.900108     -1350.0172     -2240.5365     -3092.0199     -374.4299       63065.481      39.804353      39.804353      39.804353      1.3499464     -186.70691     -432.91901      434.34361    
     43000   43000          268.75615     -177.09206     -3177.5494     -3015.2517      3294.4356     -6309.6873      859.03131      2360.8098     -2861.5206      17.794837     -1369.398      -2233.3635     -3083.0411     -375.77233      62840.182      39.756897      39.756897      39.756897      1.3547863     -831.32218     -529.05885      829.10487    
     43500   43500          266.13614      68.007179     -3011.9878     -3074.2995      3262.3193     -6336.6188      853.57491      2396.4821     -2885.0335      18.791888     -1402.0891     -2236.271      -3082.0741     -375.85811      62825.841      39.753872      39.753872      39.753872      1.3550956     -1369.7377      1576.9218     -3.1625544    
     44000   44000          268.04733      73.066313     -2911.4723     -2978.777       3285.7469     -6264.5239      830.09454      2446.9356     -2858.2532      19.32777      -1380.9332     -2236.6726     -3085.0227     -373.86094      63161.458      39.824535      39.824535      39.824535      1.3478951     -98.691587     -370.74273      688.63326    
     44500   44500          267.67789      782.84278     -2301.4084     -3019.2321      3281.2182     -6300.4503      866.67075      2347.0248     -2862.1949      17.336791     -1336.8913     -2246.2328     -3086.1636     -375.57344      62873.46       39.763914      39.763914      39.763914      1.3540693      511.99831      571.23949      1265.2905    
     45000   45000          271.37338     -127.70886     -3072.0297     -2954.8472      3326.5178     -6281.365       892.32778      2365.2222     -2847.6005      19.563058     -1397.8545     -2231.5096     -3081.5134     -375.31533      62916.699      39.773027      39.773027      39.773027      1.3531387     -591.41216      785.09909     -576.81351    
     45500   45500          272.77698     -216.64681     -3149.8619     -2951.5322      3343.7233     -6295.2555      837.95799      2397.0585     -2848.2145      17.851017     -1380.9578     -2238.0417     -3080.9089     -376.18604      62771.073      39.742317      39.742317      39.742317      1.3562779      459.55692     -1535.8505      426.35318    
     46000   46000          272.28909      85.381951     -2880.7892     -2959.1668      3337.7426     -6296.9095      856.11394      2376.4035     -2847.249       18.3016       -1374.417      -2236.9976     -3089.0649     -375.15629      62943.371      39.778646      39.778646      39.778646      1.3525653     -965.45995      286.56556      935.04025    
     46500   46500          273.0833       89.462713     -2772.0203     -2854.2869      3347.4781     -6201.7651      879.14153      2410.5491     -2829.1716      17.815771     -1354.2852     -2236.8243     -3088.9904     -374.50391      63053.018      39.801731      39.801731      39.801731      1.3502132     -260.06105      1234.2912     -705.84206    
     47000   47000          271.89062     -243.88932     -3202.5674     -2977.9802      3332.8582     -6310.8384      852.41651      2370.6103     -2829.2361      18.282355     -1396.6076     -2239.8416     -3086.4621     -373.97785      63141.712      39.820385      39.820385      39.820385      1.3483166     -1078.5419      466.51701     -119.64303    
     47500   47500          264.56134      197.37921     -2861.7376     -3042.4478      3243.0152     -6285.463       853.13029      2373.1951     -2828.365       17.844126     -1375.553      -2238.8843     -3086.8303     -376.14631      62777.704      39.743717      39.743717      39.743717      1.3561346     -23.106768      292.72029      322.52412    
     48000   48000          273.32552     -732.65235     -3643.3718     -2961.8083      3350.4473     -6312.2557      869.9096       2336.3464     -2838.0591      17.203714     -1370.1334     -2238.1599     -3089.3629     -370.19432      63787.044      39.955585      39.955585      39.955585      1.3346757     -1300.3151     -167.51862     -730.12333    
     48500   48500          272.2547       131.65073     -2822.5089     -2942.6171      3337.3212     -6279.9383      833.91918      2445.1934     -2854.2649      19.24809      -1390.9714     -2245.6324     -3087.4303     -377.47541      62556.662      39.697015      39.697015      39.697015      1.3609265     -1200.0816      1217.5227      377.51111    
     49000   49000          271.43167     -548.96291     -3325.1153     -2818.5048      3327.2323     -6145.7371      888.30786      2490.2358     -2848.7574      18.383321     -1373.4224     -2237.6074     -3082.8768     -373.1702       63278.369      39.849092      39.849092      39.849092      1.3454048      81.467682     -549.67807     -1178.6783    
     49500   49500          273.06791      591.1904      -2356.4864     -2897.559       3347.2896     -6244.8486      857.6843       2408.0078     -2849.3724      18.536771     -1354.6162     -2239.3482     -3085.7407     -376.27897      62755.571      39.739045      39.739045      39.739045      1.3566129     -268.58573      285.3992       1756.7577    
     50000   50000          271.98148      664.96094     -2334.5761     -2943.0078      3333.972      -6276.9798      820.07841      2391.6513     -2838.6989      17.580118     -1334.7872     -2249.5736     -3083.23       -376.37643      62739.321      39.735615      39.735615      39.735615      1.3569643      1298.5989      277.2887       418.99517    
     50500   50500          269.73944     -6.282398      -3036.075      -3030.2901      3306.4888     -6336.7789      831.27809      2378.6779     -2848.9924      17.723024     -1395.0156     -2236.4286     -3084.0212     -373.9918       63139.357      39.81989       39.81989       39.81989       1.3483669     -0.43611248    -950.24106      931.82998    
     51000   51000          270.61336      254.57199     -2797.4674     -3029.73        3317.2015     -6346.9314      850.10665      2341.2252     -2860.9823      17.650479     -1356.3081     -2248.2656     -3090.3578     -377.45873      62559.426      39.6976        39.6976        39.6976        1.3608664     -727.80072      602.56405      888.95263    
     51500   51500          272.16392      406.25207     -2606.2574     -2980.293       3336.2084     -6316.5013      819.18929      2398.1586     -2839.5613      17.643796     -1387.4352     -2239.6376     -3084.8588     -374.04242      63130.812      39.818093      39.818093      39.818093      1.3485494      287.50417      773.87002      157.38203    
     52000   52000          277.31114      64.979004     -2831.4393     -2891.1745      3399.3034     -6290.4778      874.84333      2361.3758     -2856.5363      17.734428     -1372.8355     -2234.1191     -3080.9405     -374.6118       63034.858      39.797909      39.797909      39.797909      1.3506022      234.53707     -587.96719      548.36713    
     52500   52500          273.33411     -228.21589     -3074.1385     -2864.2319      3350.5527     -6214.7845      863.27092      2430.0692     -2861.191       18.23416      -1337.5826     -2243.9688     -3083.6164     -374.41889      63067.335      39.804743      39.804743      39.804743      1.3499067     -67.590384     -804.63219      187.57489    
     53000   53000          273.1403       98.285636     -2838.3468     -2928.0482      3348.1769     -6276.225       829.16639      2410.0674     -2828.0011      17.968402     -1372.015      -2249.8604     -3083.5507     -377.3367       62579.657      39.701879      39.701879      39.701879      1.3604264     -551.8279       310.80727      535.87754    
     53500   53500          270.0731      -6.9357642     -3001.4964     -2995.1053      3310.5789     -6305.6842      842.16196      2379.1578     -2836.5532      18.756227     -1391.0057     -2233.4616     -3084.7396     -373.72664      63184.154      39.829305      39.829305      39.829305      1.3474109     -341.4142      -377.48261      698.08953    
     54000   54000          268.19592     -890.66135     -3839.7706     -3022.0576      3287.5683     -6309.6259      840.31451      2405.5779     -2855.0627      18.162219     -1400.7943     -2232.817      -3085.0066     -375.10236      62952.421      39.780553      39.780553      39.780553      1.3523709     -350.48678     -1800.1379     -521.35932    
     54500   54500          272.04594      223.2784      -2656.0429     -2861.0585      3334.7622     -6195.8207      877.63212      2472.9942     -2853.4853      18.958121     -1387.125      -2241.2886     -3083.5061     -375.05749      62959.952      39.782139      39.782139      39.782139      1.3522091      469.92173     -137.43505      337.34852    
     55000   55000          273.74825     -77.612321     -2912.9818     -2841.5327      3355.6292     -6197.1619      876.72195      2456.3859     -2844.2093      18.516607     -1382.3163     -2235.8383     -3086.4224     -374.08652      63123.37       39.816528      39.816528      39.816528      1.3487084     -454.90257     -223.99523      446.06084    
     55500   55500          277.58716      50.352383     -2861.8992     -2907.9052      3402.6869     -6310.5921      844.52652      2403.6208     -2861.8093      17.742548     -1393.9439     -2236.4003     -3084.3284     -376.91502      62649.67       39.716679      39.716679      39.716679      1.3589061      591.69714     -1279.8799      839.23987    
     56000   56000          270.64008      291.98055     -2681.452      -2947.617       3317.5289     -6265.1459      860.34408      2453.1969     -2856.0812      18.337398     -1415.1646     -2242.558      -3083.2205     -377.78188      62505.914      39.686278      39.686278      39.686278      1.3620314     -1270.5396      1301.7898      844.69151    
     56500   56500          275.75899      947.19519     -2114.0574     -2981.1881      3380.277      -6361.4651      819.50789      2335.0239     -2834.5126      17.76139      -1362.4416     -2249.1825     -3087.6215     -376.17769      62772.467      39.742611      39.742611      39.742611      1.3562478      874.9273       767.32137      1199.3369    
     57000   57000          272.47373     -585.55941     -3480.4261     -2941.0781      3340.006      -6281.084       849.88261      2397.6071     -2840.2951      18.244781     -1385.597      -2234.8302     -3086.0961     -373.88664      63157.115      39.823622      39.823622      39.823622      1.3479878     -36.252655     -1257.2435     -463.18207    
     57500   57500          273.59257     -50.346235     -2944.8246     -2898.8955      3353.7209     -6252.6164      869.54367      2462.561      -2840.7233      18.818649     -1438.0814     -2240.3643     -3084.3707     -377.50037      62552.527      39.696141      39.696141      39.696141      1.3610165      641.77745     -396.54621     -396.26994    
     58000   58000          274.99656     -995.74167     -3745.5485     -2833.6153      3370.9311     -6204.5464      881.61789      2451.4911     -2844.3488      17.277143     -1387.1723     -2238.1691     -3085.2424     -376.02939      62797.224      39.747835      39.747835      39.747835      1.3557131     -1315.2434     -1643.2546     -28.726977    
     58500   58500          271.73832      409.1209      -2547.1377     -2921.9486      3330.9913     -6252.9399      811.56022      2494.7316     -2862.2999      18.875651     -1391.1581     -2241.0138     -3083.6356     -375.9046       62818.071      39.752233      39.752233      39.752233      1.3552632      608.92656      124.91602      493.52012    
     59000   59000          273.08656      144.85905     -2825.496      -2957.2416      3347.5182     -6304.7598      840.65248      2393.0441     -2814.3669      17.918302     -1416.5021     -2238.764      -3086.7416     -378.65837      62361.229      39.655633      39.655633      39.655633      1.3651915      164.81001     -5.6828606      275.44999    
     59500   59500          269.93382     -220.13571     -3203.0123     -3001.8801      3308.8715     -6310.7516      868.96749      2349.9332     -2827.2572      18.044165     -1400.3501     -2234.8818     -3085.2074     -376.91801      62649.173      39.716574      39.716574      39.716574      1.3589169      403.76912     -1031.1564     -33.019868    
     60000   60000          273.76223      407.41086     -2608.6779     -2980.2932      3355.8006     -6336.0938      825.8331       2388.157      -2842.3664      18.320753     -1401.5517     -2239.0195     -3085.4671     -377.55226      62543.93       39.694322      39.694322      39.694322      1.3612036      740.51915     -1022.8199      1504.5333    
     60500   60500          275.50184      217.57924     -2701.4102     -2899.4321      3377.1248     -6276.5569      847.75592      2421.0859     -2854.8255      18.919439     -1387.492      -2237.2654     -3084.7353     -378.39233      62405.074      39.664925      39.664925      39.664925      1.3642323      292.8843       646.37962     -286.52621    
     61000   61000          273.48312     -53.785062     -2975.0263     -2925.5819      3352.3792     -6277.9611      828.60794      2372.1828     -2815.3698      17.828102     -1359.6698     -2235.1309     -3086.4094     -374.61292      63034.669      39.79787       39.79787       39.79787       1.3506063     -856.26585     -235.01623      929.92689    
     61500   61500          265.99693     -377.9416      -3438.4656     -3094.4911      3260.6128     -6355.1039      875.12352      2347.0749     -2839.513       17.884936     -1435.4083     -2234.6935     -3085.5724     -378.38729      62405.905      39.665101      39.665101      39.665101      1.3642142     -300.06039     -548.39715     -285.36726    
     62000   62000          270.20637      706.13459     -2339.8556     -2983.9907      3312.2125     -6296.2032      841.09878      2358.0296     -2836.7036      17.879815     -1335.8826     -2253.3177     -3087.3074     -377.52756      62548.02       39.695187      39.695187      39.695187      1.3611145      2.0564828      1199.7344      916.61288    
     62500   62500          268.97968     -560.91636     -3549.8149     -3034.8714      3297.1757     -6332.047       867.4519       2368.981      -2839.4346      18.179622     -1422.5546     -2238.6838     -3085.9866     -375.12553      62948.532      39.779733      39.779733      39.779733      1.3524544     -174.53011     -37.673774     -1470.5452    
     63000   63000          268.83689     -1218.3869     -4155.3153     -3040.9795      3295.4254     -6336.4049      881.40894      2354.8167     -2831.6386      16.996533     -1443.5496     -2227.1224     -3087.3164     -376.53666      62712.624      39.729978      39.729978      39.729978      1.357542      -394.74615     -1249.1452     -2011.2695    
     63500   63500          275.81875     -430.96164     -3274.7769     -2879.9058      3381.0095     -6260.9153      845.7552       2453.1293     -2867.722       19.094673     -1390.5021     -2235.6842     -3084.9863     -375.85593      62826.205      39.753949      39.753949      39.753949      1.3550877     -35.071265     -1602.7309      344.91723    
     64000   64000          271.41831      209.64364     -2722.0288     -2913.5148      3327.0686     -6240.5834      871.84113      2435.3395     -2846.6879      18.415827     -1394.2887     -2239.8516     -3085.3517     -377.03588      62629.588      39.712435      39.712435      39.712435      1.3593418      61.558564      252.13794      315.23442    
     64500   64500          271.21781      167.82733     -2816.8654     -2970.0858      3324.6109     -6294.6967      844.16821      2375.0848     -2824.7061      18.314303     -1376.289      -2244.0574     -3087.2115     -377.21072      62600.558      39.706298      39.706298      39.706298      1.3599722     -22.238943     -343.74467      869.4656     
     65000   65000          268.06196     -16.837234     -3004.2079     -2988.6767      3285.9262     -6274.6028      869.68269      2385.613      -2846.3484      17.750734     -1363.9806     -2250.1789     -3087.1414     -373.33831      63249.876      39.84311       39.84311       39.84311       1.3460108     -52.943325     -449.19882      451.63044    
     65500   65500          269.99967      687.68606     -2397.5641     -3021.8192      3309.6788     -6331.498       829.16258      2411.8932     -2854.9139      17.83411      -1406.001      -2245.4578     -3084.0152     -379.37285      62243.784      39.630723      39.630723      39.630723      1.3677674      1214.2451      43.407359      805.40568    
     66000   66000          273.86776      317.10939     -2615.4227     -2905.439       3357.0942     -6262.5332      853.81005      2412.958      -2856.8154      18.044737     -1361.2422     -2244.2987     -3084.9896     -376.5519       62710.085      39.729442      39.729442      39.729442      1.3575969      949.14473     -1129.3944      1131.5779    
     66500   66500          272.02005     -410.19783     -3316.2126     -2940.3937      3334.4448     -6274.8385      860.21315      2421.8474     -2857.7828      18.995197     -1410.9562     -2226.4774     -3080.6778     -375.88318      62821.65       39.752988      39.752988      39.752988      1.355186      -643.14093     -161.62307     -425.82948    
     67000   67000          270.19146     -69.463091     -3082.9876     -3019.7433      3312.0298     -6331.7731      837.98461      2408.4203     -2863.9308      19.188055     -1407.5346     -2239.0607     -3086.8399     -378.24263      62429.774      39.670157      39.670157      39.670157      1.3636926     -967.8976       802.94514     -43.436812    
     67500   67500          264.05728      525.49211     -2647.4215     -3129.0528      3236.8364     -6365.8892      820.7547       2382.6369     -2871.3146      18.416212     -1373.5062     -2251.8035     -3091.0727     -375.74189      62845.273      39.75797       39.75797       39.75797       1.3546766      744.40593      422.48855      409.58186    
     68000   68000          274.92241     -26.35506      -2975.8942     -2951.6423      3370.0221     -6321.6644      843.62622      2399.1705     -2867.5114      19.515332     -1391.3142     -2242.189      -3082.9619     -374.24557      63096.542      39.810887      39.810887      39.810887      1.3492819     -544.79146     -682.11969      1147.846     
     68500   68500          272.25778     -152.55017     -3125.128      -2986.8348      3337.3589     -6324.1937      858.52811      2376.8212     -2847.047       17.964006     -1400.5586     -2242.8049     -3087.0966     -379.88308      62160.183      39.612972      39.612972      39.612972      1.369607      -417.6889      -362.15716      322.19556    
     69000   69000          272.30256     -445.04464     -3316.2824     -2909.7832      3337.9079     -6247.6911      885.82275      2374.6856     -2832.5404      18.279587     -1365.4503     -2243.9958     -3084.4925     -377.0353       62629.684      39.712455      39.712455      39.712455      1.3593397      114.49523     -298.40993     -1151.2192    
     69500   69500          270.08005      567.07373     -2500.1871     -3017.713       3310.664      -6328.377       852.71466      2377.2835     -2849.775       17.59454      -1407.0229     -2236.1586     -3083.0132     -377.35107      62577.276      39.701375      39.701375      39.701375      1.3604782      881.01627     -111.49646      931.70138    
     70000   70000          266.25341      700.66697     -2401.9915     -3044.1701      3263.7568     -6307.9269      835.24158      2392.2818     -2867.2183      19.365987     -1354.3375     -2246.1559     -3087.1046     -375.74562      62844.648      39.757839      39.757839      39.757839      1.35469        796.96985      1116.237       188.79405    
     70500   70500          269.19634      927.78494     -2101.265      -2946.9882      3299.8314     -6246.8196      802.95375      2445.8398     -2826.2793      18.830441     -1364.4303     -2237.1999     -3086.534      -377.79585      62503.602      39.685789      39.685789      39.685789      1.3620818      1573.6504      1303.7419     -94.03747     
     71000   71000          270.61601     -15.486995     -3041.2571     -3027.0544      3317.234      -6344.2883      840.64891      2352.4109     -2858.7506      17.833486     -1360.542      -2245.8926     -3089.9965     -375.52032      62882.354      39.765788      39.765788      39.765788      1.3538777     -169.12055      152.52466     -29.865104    
     71500   71500          272.97299     -321.40343     -3268.505      -2973.5355      3346.126      -6319.6615      870.94988      2393.626      -2856.179       19.020235     -1413.7418     -2247.3246     -3086.0123     -375.24208      62928.981      39.775615      39.775615      39.775615      1.3528746     -1486.3214     -479.41591      1001.527     
     72000   72000          278.06566     -241.85196     -3169.6599     -2948.2914      3408.5524     -6356.8438      857.62321      2337.2774     -2859.4481      17.653932     -1375.5928     -2247.5295     -3086.8279     -376.24593      62761.082      39.740208      39.740208      39.740208      1.3564938     -426.63439      312.1874      -611.10889    
     72500   72500          274.71623      176.54376     -2699.7936     -2861.0289      3367.4948     -6228.5237      863.3728       2446.8255     -2840.471       18.186186     -1376.3096     -2252.5951     -3087.5325     -377.07723      62622.72       39.710983      39.710983      39.710983      1.3594909      864.11122     -661.37764      326.89769    
     73000   73000          271.53841     -128.93649     -2985.1697     -2867.3489      3328.5407     -6195.8897      876.07676      2437.7896     -2829.4868      17.763545     -1375.1777     -2242.4817     -3080.3734     -376.87043      62657.082      39.718245      39.718245      39.718245      1.3587454     -14.112604     -260.01768     -112.67919    
     73500   73500          272.75475     -753.12922     -3691.3017     -3005.9754      3343.4508     -6349.4262      881.68914      2350.5987     -2842.93        17.653163     -1432.3986     -2238.6894     -3085.3492     -378.45153      62395.313      39.662856      39.662856      39.662856      1.3644458     -1649.5182     -1284.7741      674.90461    
     74000   74000          272.99087      1247.6282     -1833.368      -2971.0676      3346.3451     -6317.4127      839.02281      2366.4906     -2827.3023      18.019467     -1368.4027     -2254.9445     -3090.2961     -377.65537      62526.852      39.690709      39.690709      39.690709      1.3615753      746.46082      1840.0714      1156.3523    
     74500   74500          271.24945     -597.33451     -3494.3303     -2945.9622      3324.9987     -6270.9608      873.33874      2408.6017     -2862.4649      18.378733     -1376.1145     -2245.3928     -3087.3078     -375.13148      62947.534      39.779523      39.779523      39.779523      1.3524759     -1091.6155     -436.60669     -263.78138    
     75000   75000          269.01182      113.35321     -2863.4496     -2966.724       3297.5696     -6264.2936      866.38237      2381.0292     -2827.1505      18.742711     -1379.4016     -2238.6405     -3085.2553     -377.98923      62471.625      39.67902       39.67902       39.67902       1.362779       246.71522      877.7463      -784.40188    
     75500   75500          268.78558      432.52754     -2637.8441     -3032.8589      3294.7964     -6327.6553      846.63736      2366.8124     -2844.2119      17.747634     -1378.7638     -2247.1933     -3088.6837     -377.08431      62621.544      39.710735      39.710735      39.710735      1.3595165      976.7506       570.31665     -249.48462    
     76000   76000          269.21392      238.01393     -2787.2381     -3003.791       3300.047      -6303.838       840.82457      2410.0727     -2845.4339      19.124552     -1406.9263     -2237.232      -3084.2677     -378.50929      62385.791      39.660839      39.660839      39.660839      1.364654       825.05037     -13.650393     -97.358185    
     76500   76500          267.92197      651.35604     -2451.6671     -3045.7736      3284.2102     -6329.9838      839.69837      2353.8325     -2835.9305      18.579542     -1385.4939     -2237.1286     -3083.5413     -377.56547      62541.74       39.693859      39.693859      39.693859      1.3612512     -13.872973      1451.0286      516.91248    
     77000   77000          272.28111      1238.4913     -1854.6472     -2984.1046      3337.6449     -6321.7495      837.30811      2346.1448     -2839.3556      17.807698     -1350.0054     -2248.8304     -3084.8186     -377.62543      62531.81       39.691758      39.691758      39.691758      1.3614674      1130.4041      1643.7905      941.27923    
     77500   77500          269.55818     -506.41776     -3378.0838     -2915.05        3304.2669     -6219.317       850.37551      2468.7895     -2824.5616      18.416926     -1406.9296     -2238.7812     -3086.6264     -376.64693      62694.263      39.7261        39.7261        39.7261        1.3579396     -649.30021     -760.20068     -109.75238    
     78000   78000          274.61648     -534.92927     -3399.8635     -2911.4202      3366.272      -6277.6922      870.29817      2418.3042     -2854.4795      19.036997     -1398.263      -2241.4677     -3091.1213     -377.15542      62609.738      39.708239      39.708239      39.708239      1.3597728      336.45183     -947.27329     -993.96635    
     78500   78500          271.79833      27.13873      -2900.904      -2925.863       3331.7269     -6257.5899      832.66788      2414.7866     -2830.5716      18.221615     -1355.5212     -2250.616      -3086.5571     -374.45569      63061.137      39.803439      39.803439      39.803439      1.3500394     -538.82524      550.0703       70.171131    
     79000   79000          265.85158     -99.28856      -3065.1944     -2974.1975      3258.8312     -6233.0287      881.46354      2394.1656     -2805.0575      18.986197     -1394.7947     -2240.6426     -3087.1493     -375.76021      62842.209      39.757324      39.757324      39.757324      1.3547426     -165.66953      485.90179     -618.09794    
     79500   79500          263.8216       621.81287     -2492.362      -3059.2094      3233.9474     -6293.1568      842.97831      2395.5956     -2843.5955      18.929476     -1381.3654     -2241.9959     -3083.7033     -377.77366      62507.274      39.686566      39.686566      39.686566      1.3620018      1056.0945      80.370737      728.97333    
     80000   80000          266.52639     -237.04223     -3304.111      -3086.6536      3267.103      -6353.7567      864.10988      2342.142      -2842.6683      18.252484     -1416.3242     -2235.1006     -3084.168      -375.39611      62903.16       39.770174      39.770174      39.770174      1.3534299      205.41808     -454.86859     -461.67619    
     80500   80500          269.14162     -935.63735     -3899.4766     -3045.6508      3299.1607     -6344.8115      849.4582       2333.7238     -2820.0747      17.703191     -1400.0976     -2240.7058     -3084.8185     -377.37784      62572.836      39.700436      39.700436      39.700436      1.3605747     -457.05938     -640.19385     -1709.6588    
     81000   81000          271.72177     -1062.7781     -3938.6305     -2966.4421      3330.7885     -6297.2306      868.29047      2390.4337     -2837.0336      17.904008     -1424.5314     -2228.3618     -3083.932      -376.46992      62723.74       39.732325      39.732325      39.732325      1.3573014     -982.74115     -1691.249      -514.34411    
     81500   81500          278.47575     -127.57228     -3049.6816     -2933.0695      3413.5793     -6346.6488      871.98001      2364.1741     -2873.4076      18.226888     -1398.9865     -2243.6089     -3085.0267     -376.74801      62677.442      39.722547      39.722547      39.722547      1.358304      -596.79852     -109.80461      323.8863     
     82000   82000          275.43324      604.16665     -2356.187      -2911.6812      3376.2839     -6287.9651      839.69171      2392.5164     -2858.3612      18.124364     -1341.0734     -2247.2096     -3091.6534     -374.55477      63044.456      39.799929      39.799929      39.799929      1.3503966      939.1581       1144.2298     -270.88798    
     82500   82500          269.21883      890.72561     -2140.9351     -2958.4007      3300.1072     -6258.5079      838.87135      2423.2358     -2846.6138      18.461879     -1355.6299     -2247.9384     -3088.8948     -375.24298      62928.831      39.775583      39.775583      39.775583      1.3528778      1651.3105     -138.25118      1159.1175    
     83000   83000          271.08251     -99.398175     -3115.4775     -3024.6891      3322.9523     -6347.6414      833.09729      2337.7904     -2814.9959      17.001389     -1397.9577     -2235.7808     -3086.796      -377.03926      62629.026      39.712316      39.712316      39.712316      1.359354       313.50139      393.66568     -1005.3616    
     83500   83500          266.97995      1411.2539     -1787.7883     -3075.194       3272.6628     -6347.8568      864.65424      2307.7287     -2814.662       17.091394     -1397.0804     -2237.596      -3087.9927     -377.50947      62551.018      39.695821      39.695821      39.695821      1.3610493      2891.9842      502.03331      839.74413    
     84000   84000          267.3222       47.032395     -2974.5337     -3017.6384      3276.8581     -6294.4966      851.02493      2400.0657     -2850.3027      18.314512     -1381.2772     -2246.8192     -3085.5026     -375.76033      62842.189      39.75732       39.75732       39.75732       1.3547431     -693.20647     -60.229689      894.53335    
     84500   84500          271.94267     -473.90945     -3435.3477     -2998.2704      3333.4963     -6331.7666      843.33463      2363.677      -2830.6199      17.982714     -1411.8597     -2230.8508     -3083.4307     -373.40079      63239.291      39.840887      39.840887      39.840887      1.3462361     -1200.4884      28.85928      -250.09927    
     85000   85000          275.53603      514.13975     -2454.4752     -2925.9605      3377.544      -6303.5045      840.50397      2383.0618     -2832.2659      17.639059     -1385.2874     -2242.7533     -3084.4026     -375.53563      62879.79       39.765248      39.765248      39.765248      1.353933       765.85169      782.74903     -6.1814692    
     85500   85500          276.1363       596.8493      -2341.963      -2889.0568      3384.9021     -6273.9589      823.86405      2431.1768     -2871.1353      18.173117     -1340.6022     -2248.3135     -3087.1219     -375.69985      62852.305      39.759453      39.759453      39.759453      1.354525       433.24074      916.20316      441.10402    
     86000   86000          272.7535       677.64638     -2299.2133     -2918.5375      3343.4354     -6261.973       850.09151      2408.6307     -2857.7449      16.498962     -1352.4955     -2243.4436     -3083.5102     -376.81064      62667.025      39.720346      39.720346      39.720346      1.3585298      637.71262      843.88532      551.3412     
     86500   86500          271.20935      444.58735     -2527.4575     -2933.8563      3324.5071     -6258.3634      862.5628       2428.8375     -2839.5113      18.234242     -1410.9353     -2233.1295     -3084.4218     -376.74092      62678.622      39.722796      39.722796      39.722796      1.3582784      430.81953      773.63029      129.31222    
     87000   87000          275.51064     -208.49488     -3190.1334     -2998.0136      3377.2327     -6375.2463      850.55084      2351.5662     -2864.3189      17.800255     -1394.3953     -2247.7131     -3088.7363     -373.73301      63183.077      39.829078      39.829078      39.829078      1.3474339      264.97386     -226.82166     -663.63686    
     87500   87500          272.58651      661.30369     -2279.6775     -2889.6713      3341.3885     -6231.0598      850.74028      2401.4552     -2852.7483      18.71558      -1315.7401     -2245.4159     -3088.0666     -373.34779      63248.269      39.842772      39.842772      39.842772      1.346045      -505.03098      1382.6074      1106.3347    
     88000   88000          271.89266     -497.76249     -3341.8711     -2884.2866      3332.8833     -6217.1698      873.20405      2420.4228     -2847.0319      17.79881      -1363.7983     -2233.0414     -3084.7237     -374.61829      63033.767      39.79768       39.79768       39.79768       1.3506256     -1082.2869     -398.80735     -12.193245    
     88500   88500          267.94797      578.52899     -2475.9041     -3006.3156      3284.5289     -6290.8445      846.69399      2396.9905     -2846.872       18.68453      -1379.8676     -2239.8771     -3086.5968     -375.6214       62865.432      39.762221      39.762221      39.762221      1.3542422      152.41117     -82.790347      1665.9661    
     89000   89000          269.33261      47.468624     -2960.9308     -3004.5089      3301.5019     -6306.0108      853.39126      2377.0182     -2849.6665      17.419828     -1369.8623     -2248.8225     -3085.4888     -375.12568      62948.508      39.779728      39.779728      39.779728      1.3524549      1134.7836     -105.6921      -886.68561    
     89500   89500          271.67153      501.19326     -2469.2252     -2929.4435      3330.1726     -6259.6161      819.93967      2435.8427     -2853.6699      18.042296     -1341.7822     -2251.4851     -3086.5036     -375.04165      62962.612      39.782699      39.782699      39.782699      1.352152       602.79306      474.9276       425.85911    
     90000   90000          266.05619     -288.31105     -3235.1004     -2968.7439      3261.3392     -6230.0831      842.44487      2472.7561     -2869.3094      18.555658     -1370.7603     -2239.8358     -3083.9343     -372.7659       63347.001      39.863493      39.863493      39.863493      1.3439471     -2579.2182      650.83859      1063.4465    
     90500   90500          272.63859      272.23142     -2696.4298     -2944.887       3342.0268     -6286.9138      848.77094      2433.5576     -2859.6346      19.84369      -1409.4456     -2232.5873     -3087.4187     -377.333        62580.271      39.702009      39.702009      39.702009      1.3604131     -242.64779     -271.35126      1330.6933    
     91000   91000          268.96547     -420.12827     -3404.4265     -3018.8807      3297.0015     -6315.8822      850.12634      2377.5002     -2847.1027      17.838761     -1394.3211     -2236.0586     -3083.8651     -375.2701       62924.282      39.774625      39.774625      39.774625      1.3529756     -781.96579     -377.35658     -101.06243    
     91500   91500          268.16708     -701.00822     -3663.1882     -3020.39        3287.2148     -6307.6047      855.59529      2411.4291     -2866.7053      18.816918     -1392.9667     -2244.1241     -3089.65       -375.56626      62874.661      39.764167      39.764167      39.764167      1.3540434     -630.11911     -568.76697     -904.13859    
     92000   92000          267.11683     -113.90605     -3131.2697     -3026.7563      3274.3407     -6301.0971      829.0307       2389.9135     -2858.2817      18.682605     -1344.5446     -2245.9735     -3089.9241     -375.32996      62914.246      39.77251       39.77251       39.77251       1.3531914     -349.38061      315.90547     -308.24302    
     92500   92500          270.47873      64.821625     -2913.1236     -2972.629       3315.5512     -6288.1802      860.49746      2381.6223     -2843.9351      18.982703     -1379.2368     -2241.1876     -3084.9231     -375.14745      62944.854      39.778959      39.778959      39.778959      1.3525334      224.07452     -713.7375       684.12786    
     93000   93000          271.59034     -158.37373     -3171.4643     -3025.9234      3329.1773     -6355.1008      871.34386      2331.7682     -2852.5141      17.723507     -1415.6794     -2224.0005     -3083.7423     -374.74531      63012.401      39.793183      39.793183      39.793183      1.3510836     -1161.9074     -300.96259      987.74874    
     93500   93500          273.01356     -268.09513     -3168.7036     -2923.5287      3346.6234     -6270.1521      834.80779      2440.7395     -2824.6307      18.495714     -1421.3039     -2231.6322     -3086.6283     -376.57462      62706.302      39.728643      39.728643      39.728643      1.3576788      433.27184     -629.76586     -607.79138    
     94000   94000          272.08665     -81.864224     -3001.0103     -2926.3093      3335.2612     -6261.5705      869.56137      2402.3948     -2838.7328      18.556417     -1381.6924     -2241.8911     -3089.7667     -377.4033       62568.614      39.699543      39.699543      39.699543      1.3606665     -526.5077       830.21188     -549.29686    
     94500   94500          266.38932      124.53227     -2976.9247     -3091.319       3265.4228     -6356.7417      829.01747      2315.4779     -2842.2231      17.732562     -1358.871      -2235.6048     -3082.2707     -374.90021      62986.365      39.787701      39.787701      39.787701      1.351642       363.42075     -462.04765      472.22371    
     95000   95000          274.73419     -275.01173     -3179.1263     -2926.2047      3367.7149     -6293.9196      840.80767      2401.7079     -2865.0004      18.810836     -1369.9566     -2235.4679     -3084.8212     -374.45827      63060.703      39.803348      39.803348      39.803348      1.3500487     -816.60105      184.72243     -193.15658    
     95500   95500          272.13247     -232.23837     -3146.0853     -2933.4887      3335.8228     -6269.3115      864.47192      2414.7605     -2817.5998      17.761018     -1423.6687     -2235.4507     -3089.5857     -376.19731      62769.194      39.741921      39.741921      39.741921      1.3563185      705.94017     -1589.5161      186.86083    
     96000   96000          271.66202     -66.812865     -3029.8683     -2968.4772      3330.056      -6298.5333      849.95074      2409.4275     -2866.9085      18.394274     -1389.7263     -2235.2465     -3084.4244     -374.79418      63004.184      39.791453      39.791453      39.791453      1.3512598     -1055.826      -40.258708      895.64613    
     96500   96500          264.17838     -668.53972     -3680.115      -3065.2754      3238.3209     -6303.5962      841.00796      2395.3555     -2854.0082      18.262486     -1386.9793     -2232.023      -3085.2117     -374.4583       63060.698      39.803347      39.803347      39.803347      1.3500488     -659.82256     -1351.6873      5.8906706    
     97000   97000          275.05883     -910.54027     -3828.6136     -2993.5619      3371.6944     -6365.2563      883.49495      2335.6837     -2836.599       18.026164     -1442.9267     -2237.8429     -3085.0924     -375.51209      62883.733      39.766079      39.766079      39.766079      1.3538481     -473.26978     -1197.588      -1060.763     
     97500   97500          265.25102     -1070.9869     -3957.0344     -2972.0163      3251.4694     -6223.4857      881.64509      2456.1456     -2850.5704      19.128556     -1411.2602     -2236.4535     -3082.1208     -374.43639      63064.387      39.804123      39.804123      39.804123      1.3499698     -1357.0304     -1041.1159     -814.81444    
     98000   98000          268.86061     -218.87419     -3257.7        -3056.5899      3295.7161     -6352.306       836.42482      2378.8922     -2846.674       17.840501     -1413.2761     -2238.8745     -3086.639      -374.7992       63003.34       39.791275      39.791275      39.791275      1.3512779     -647.5524      -478.75928      469.68913    
     98500   98500          276.01171     -586.18506     -3506.7623     -2966.9526      3383.3749     -6350.3275      822.58077      2360.4081     -2854.1881      18.422005     -1379.6869     -2232.8553     -3085.008      -373.96609      63143.698      39.820802      39.820802      39.820802      1.3482742      405.35585     -857.55078     -1306.3602    
     99000   99000          271.896       -271.41711     -3175.2869     -2928.4913      3332.9241     -6261.4154      842.85641      2425.4245     -2842.0277      18.020968     -1374.5614     -2242.8703     -3088.2579     -378.73717      62348.255      39.652883      39.652883      39.652883      1.3654756     -1076.3613      841.79304     -579.68305    
     99500   99500          266.44321      540.50559     -2498.517      -2995.4428      3266.0833     -6261.5262      817.8448       2436.6766     -2835.1012      18.510053     -1361.3533     -2249.0035     -3089.0996     -374.58186      63039.896      39.79897       39.79897       39.79897       1.3504943     -114.61585     -21.785407      1757.918     
    100000   100000         268.03732      622.02026     -2424.9272     -2994.6803      3285.6242     -6280.3044      816.72276      2402.1599     -2816.9509      17.450504     -1370.4719     -2242.7411     -3086.4736     -375.97241      62806.741      39.749843      39.749843      39.749843      1.3555077      411.62835     -499.34082      1953.7733    
    100500   100500         269.16329      768.56211     -2317.181      -3024.2015      3299.4264     -6323.6279      799.43748      2371.5129     -2834.2415      18.510159     -1352.8471     -2241.0633     -3084.9365     -374.35624      63077.89       39.806964      39.806964      39.806964      1.3496808     -12.049687      1377.0298      940.70623    
    101000   101000         267.95693     -378.5284      -3410.2693     -3061.2195      3284.6387     -6345.8581      841.49955      2336.0146     -2852.3089      17.078837     -1354.0514     -2246.4859     -3087.6049     -373.46437      63228.527      39.838626      39.838626      39.838626      1.3464653     -339.64528     -167.08109     -628.85884    
    101500   101500         268.67154      152.32243     -2820.9583     -2960.3154      3293.3984     -6253.7138      851.35069      2404.1366     -2844.0077      17.40552      -1360.8181     -2232.8532     -3088.9276     -376.42003      62732.055      39.734081      39.734081      39.734081      1.3571215      544.28826      866.20815     -953.52913    
    102000   102000         270.22035     -340.14266     -3328.888      -3016.5217      3312.3839     -6328.9055      834.38414      2348.8265     -2820.3062      17.91499      -1383.3314     -2239.2792     -3087.1143     -375.00324      62969.06       39.784057      39.784057      39.784057      1.3520135     -193.28007      841.92737     -1669.0753    
    102500   102500         258.94586     -898.75417     -3870.151      -3039.6221      3174.1802     -6213.8023      869.20551      2415.7694     -2862.0422      17.616997     -1319.0551     -2247.7553     -3087.5416     -372.66988      63363.322      39.866917      39.866917      39.866917      1.3436009      94.146444     -1700.5107     -1089.8983    
    103000   103000         266.84068      1150.6475     -1904.1431     -2965.7455      3270.9556     -6236.7011      837.54272      2464.0999     -2878.0243      19.844918     -1354.8372     -2242.1613     -3083.1659     -373.26608      63262.115      39.845679      39.845679      39.845679      1.3457505      2003.1433      141.46538      1307.3339    
    103500   103500         265.25133     -1010.0992     -3877.1619     -2950.016       3251.4732     -6201.4892      888.31259      2393.1047     -2833.1793      17.844824     -1339.4037     -2243.2977     -3084.8705     -375.19243      62937.308      39.777369      39.777369      39.777369      1.3526956     -774.82729     -1627.1848     -628.28542    
    104000   104000         271.15422      649.28374     -2288.7685     -2883.9945      3323.8313     -6207.8259      857.59043      2406.9166     -2832.7917      17.70065      -1329.0457     -2242.8166     -3085.3796     -375.65635      62859.584      39.760988      39.760988      39.760988      1.3543682      16.131725      1579.5842      352.13529    
    104500   104500         278.13555      6.3623773     -2864.5841     -2870.4077      3409.4091     -6279.8168      857.92722      2371.5902     -2849.723       17.730573     -1350.1689     -2240.8168     -3086.3561     -376.24278      62761.607      39.740319      39.740319      39.740319      1.3564825     -98.165311      548.91613     -431.66369    
    105000   105000         274.34593     -948.73338     -3779.5681     -2898.3897      3362.9555     -6261.3453      861.07207      2357.8297     -2842.7601      17.174839     -1339.5782     -2235.4167     -3079.6669     -370.78186      63685.967      39.934469      39.934469      39.934469      1.336794      -691.56042     -1409.6172     -745.02254    
    105500   105500         263.35319     -437.18254     -3427.5997     -3028.613       3228.2057     -6256.8187      878.28572      2373.1801     -2823.8927      17.576407     -1376.7838     -2240.4001     -3084.7843     -377.34837      62577.723      39.70147       39.70147       39.70147       1.3604685     -373.94265     -512.936       -424.66897    
    106000   106000         271.60129     -762.61807     -3693.7285     -2988.4942      3329.3116     -6317.8058      844.69958      2388.6705     -2852.8806      18.745571     -1387.5052     -2243.0279     -3086.5078     -372.40184      63408.928      39.876479      39.876479      39.876479      1.3426346      127.4142      -130.85768     -2284.4107    
    106500   106500         267.33608      145.98736     -2854.7181     -2988.638       3277.0283     -6265.6662      851.90409      2387.821      -2839.6375      17.675071     -1347.699      -2247.8419     -3087.888      -375.41225      62900.455      39.769604      39.769604      39.769604      1.3534881     -1075.5423     -423.14752      1936.6519    
    107000   107000         272.51678     -903.52075     -3749.0237     -2917.184       3340.5338     -6257.7178      875.40551      2416.5186     -2857.9097      18.705993     -1383.3984     -2242.0766     -3084.9632     -374.05599      63128.522      39.817612      39.817612      39.817612      1.3485983     -751.81345     -1371.2108     -587.53804    
    107500   107500         271.75661      263.89796     -2734.6963     -2977.3245      3331.2155     -6308.54        856.81045      2348.4906     -2843.2767      18.263687     -1363.1677     -2240.0501     -3085.6103     -374.56982      63041.923      39.799396      39.799396      39.799396      1.3504509     -252.63412      925.1892       119.13881    
    108000   108000         263.67269      435.82563     -2704.1851     -3103.4378      3232.1221     -6335.5599      826.80726      2379.0191     -2853.0637      18.533811     -1376.3974     -2244.6336     -3085.8252     -375.92662      62814.39       39.751457      39.751457      39.751457      1.3553426      311.22747      1089.8907     -93.641327    
    108500   108500         270.00906     -667.06138     -3569.0312     -2958.6847      3309.7939     -6268.4786      867.02748      2407.1981     -2849.0424      17.749023     -1382.037      -2244.4728     -3084.9009     -376.38082      62738.589      39.73546       39.73546       39.73546       1.3569801     -452.31857     -480.81884     -1068.0467    
    109000   109000         267.46582     -840.89941     -3725.6691     -2944.4492      3278.6186     -6223.0678      874.02775      2425.5083     -2836.6816      17.788467     -1377.7047     -2238.7573     -3087.2487     -370.68828      63702.046      39.93783       39.93783       39.93783       1.3364566     -1664.5507     -1028.6671      170.5196     
    109500   109500         268.31385     -36.903915     -3074.8512     -3041.2392      3289.0139     -6330.2531      831.44634      2424.9012     -2862.4426      18.554588     -1413.4189     -2242.2763     -3087.0175     -378.10811      62451.984      39.674861      39.674861      39.674861      1.3632076      106.91068     -645.27398      427.65156    
    110000   110000         266.71784     -203.43965     -3254.8159     -3068.2629      3269.4499     -6337.7128      845.33845      2373.1361     -2860.266       17.970253     -1385.8635     -2240.8656     -3087.1625     -375.55311      62876.863      39.764631      39.764631      39.764631      1.353996      -892.04148     -183.55077      465.27331    
    110500   110500         272.07708     -826.7207      -3707.7003     -2952.476       3335.1438     -6287.6199      867.05255      2417.7893     -2839.4976      17.789303     -1419.4722     -2243.6169     -3087.6644     -376.98233      62638.483      39.714315      39.714315      39.714315      1.3591488     -959.56368     -347.51648     -1173.0819    
    111000   111000         273.35685     -94.040233     -3017.1896     -2931.276       3350.8313     -6282.1073      853.70012      2366.3552     -2825.9728      17.168686     -1364.3448     -2241.0812     -3087.9325     -376.95546      62642.949      39.715259      39.715259      39.715259      1.3590519      25.257819      35.647541     -343.02606    
    111500   111500         268.3309       666.05177     -2306.3885     -2920.4042      3289.2229     -6209.627       839.88004      2458.0423     -2862.3181      18.948758     -1328.2274     -2246.1841     -3089.7686     -373.56539      63211.428      39.835035      39.835035      39.835035      1.3468296      547.33657      79.451556      1371.3672    
    112000   112000         269.82452     -72.33637      -3073.7912     -3007.868       3307.5318     -6315.3998      834.19011      2396.5662     -2856.9678      18.145677     -1380.3575     -2241.2043     -3085.7723     -377.88241      62489.285      39.682758      39.682758      39.682758      1.3623939     -191.62746      312.46178     -337.84342    
    112500   112500         271.5711      -364.32852     -3270.4829     -2934.1164      3328.9415     -6263.058       843.04725      2414.576      -2809.6535      18.330436     -1385.4121     -2249.9778     -3093.9683     -373.00841      63305.815      39.854852      39.854852      39.854852      1.3448215      218.85435     -1018.427      -293.41294    
    113000   113000         271.28488      334.04305     -2658.1859     -2964.6809      3325.433      -6290.1138      840.38915      2405.1055     -2854.4076      17.696985     -1350.7506     -2254.3557     -3093.7916     -375.33345      62913.662      39.772387      39.772387      39.772387      1.353204       1001.6763      991.46369     -991.01081    
    113500   113500         266.78404     -279.41793     -3309.3227     -3051.4769      3270.2613     -6321.7381      855.40656      2338.9423     -2814.4769      18.075468     -1399.2633     -2235.0043     -3085.4179     -373.1919       63274.689      39.848319      39.848319      39.848319      1.345483       580.39718     -1121.9199     -296.73107    
    114000   114000         263.45844      687.81592     -2409.4083     -3037.1105      3229.4958     -6266.6063      850.01893      2379.6564     -2816.6937      16.704328     -1373.409      -2240.4904     -3082.3928     -377.36071      62575.676      39.701037      39.701037      39.701037      1.360513       363.33508     -472.0686       2172.1813    
    114500   114500         264.51009      623.34113     -2414.2005     -2985.4478      3242.387      -6227.8348      858.24041      2446.7045     -2837.8466      18.56028      -1386.7567     -2239.1292     -3087.6075     -375.78526      62838.02       39.756441      39.756441      39.756441      1.3548329      314.9775      -147.60502      1702.6509    
    115000   115000         270.69393     -137.30638     -3062.2286     -2935.8932      3318.1891     -6254.0823      843.87833      2382.5168     -2827.7385      17.03272      -1334.3849     -2246.5823     -3088.8045     -374.28613      63089.706      39.809449      39.809449      39.809449      1.3494281     -542.45792      5.954537       124.58425    
    115500   115500         272.9708      -184.75115     -3105.6325     -2936.0106      3346.0991     -6282.1098      864.27559      2379.881      -2842.1722      19.272469     -1359.0419     -2250.9811     -3093.3437     -375.09682      62953.35       39.780748      39.780748      39.780748      1.3523509     -1255.0251     -33.595668      734.36733    
    116000   116000         272.32401     -638.81868     -3485.4197     -2896.824       3338.1708     -6234.9948      857.75681      2428.0249     -2845.5584      18.367658     -1363.5368     -2236.5724     -3093.4765     -373.76504      63177.662      39.827941      39.827941      39.827941      1.3475494      95.063363     -1525.593      -485.92639    
    116500   116500         268.70591     -251.89242     -3268.7012     -3038.5237      3293.8198     -6332.3435      821.22797      2381.6141     -2850.8283      17.412819     -1364.7784     -2246.7081     -3090.2835     -376.86897      62657.324      39.718297      39.718297      39.718297      1.3587401      198.7671      -1062.552       108.10761    
    117000   117000         268.82404      515.49146     -2470.4419     -2944.6259      3295.2678     -6239.8937      853.24601      2407.9524     -2832.4219      18.13891      -1348.0186     -2248.5486     -3090.2421     -374.38005      63073.879      39.80612       39.80612       39.80612       1.3497667      1111.481      -437.29985      872.29323    
    117500   117500         266.43089      814.6304      -2246.3457     -2993.1494      3265.9324     -6259.0818      823.38567      2431.8449     -2837.9804      18.776115     -1359.5367     -2245.5609     -3090.0104     -375.65769      62859.358      39.76094       39.76094       39.76094       1.354373       438.31375      1296.3426      709.23486    
    118000   118000         273.79038     -1077.2517     -4005.2766     -3013.5215      3356.1456     -6369.6671      882.31859      2328.1282     -2861.0382      18.166524     -1414.5487     -2236.4312     -3086.2624     -374.06828      63126.447      39.817176      39.817176      39.817176      1.3486427     -566.78878     -1029.8778     -1635.0885    
    118500   118500         273.2746      -357.56351     -3251.4654     -2922.1799      3349.8231     -6272.0031      844.55957      2390.6119     -2829.1938      18.228211     -1367.9972     -2237.3759     -3090.8358     -373.95444      63145.665      39.821216      39.821216      39.821216      1.3482322     -394.33646     -176.97755     -501.37653    
    119000   119000         268.3821      -69.086671     -3109.0941     -3045.8618      3289.8505     -6335.7123      889.3706       2316.3124     -2875.1452      17.499546     -1361.6572     -2234.5135     -3087.579      -376.26457      62757.972      39.739552      39.739552      39.739552      1.356561      -523.93709      623.5775      -306.90043    
    119500   119500         268.55982      104.87902     -2826.4458     -2923.0345      3292.029      -6215.0635      855.8231       2458.7736     -2842.2524      19.639896     -1382.7267     -2239.3071     -3085.0139     -373.93872      63148.319      39.821773      39.821773      39.821773      1.3481755      134.95209      712.11917     -532.43421    
    120000   120000         277.87432     -6.6543523     -2914.8622     -2908.7851      3406.2069     -6314.9921      860.28424      2390.359      -2857.3509      17.938631     -1394.7471     -2242.1283     -3089.3476     -377.09199      62620.268      39.710465      39.710465      39.710465      1.3595442     -604.26429      1691.6911     -1107.3899    
    120500   120500         270.96529     -157.7511      -3112.5526     -2968.6721      3321.5155     -6290.1876      858.39242      2382.0172     -2838.1223      19.485336     -1378.6124     -2247.1459     -3086.202      -377.57962      62539.396      39.693363      39.693363      39.693363      1.3613022     -136.10427     -392.51316      55.364134    
    121000   121000         269.7522      -40.940402     -2974.4057     -2936.392       3306.6453     -6243.0373      850.61348      2441.5944     -2854.1556      18.547726     -1381.4335     -2233.709      -3084.4949     -370.89442      63666.64       39.930429      39.930429      39.930429      1.3371998      624.12553      360.6348      -1107.5815    
    121500   121500         275.21043      115.10453     -2746.3241     -2851.8001      3373.5527     -6225.3529      865.1081       2389.1586     -2823.4731      17.645695     -1352.69       -2234.6901     -3086.412      -375.81737      62832.651      39.755308      39.755308      39.755308      1.3549487     -204.96002     -70.329507      620.60312    
    122000   122000         275.80522      320.22973     -2616.4572     -2909.5724      3380.8437     -6290.4161      857.48598      2361.3419     -2843.0393      18.460607     -1356.7021     -2238.905      -3089.0583     -376.23693      62762.584      39.740525      39.740525      39.740525      1.3564614     -238.68674     -596.02752      1795.4034    
    122500   122500         266.26669      41.663193     -2948.2651     -2986.4559      3263.9196     -6250.3754      867.13396      2431.3773     -2858.6723      18.530125     -1378.5566     -2241.7871     -3088.4007     -375.69219      62853.586      39.759723      39.759723      39.759723      1.3544974      170.84272      623.19153     -669.04467    
    123000   123000         263.73202     -163.61071     -3196.4955     -3046.6995      3232.8494     -6279.549       873.39912      2395.1553     -2845.674       18.763835     -1390.7213     -2240.2545     -3090.2174     -376.14013      62778.735      39.743934      39.743934      39.743934      1.3561124     -174.86745      288.31094     -604.2756     
    123500   123500         266.78802      29.620594     -3007.7886     -3034.9068      3270.3101     -6305.2169      822.70726      2396.4859     -2818.4614      18.903183     -1392.3036     -2243.5245     -3089.0238     -376.15917      62775.558      39.743264      39.743264      39.743264      1.356181      -321.19686     -556.82105      966.8797     
    124000   124000         270.53318      757.74014     -2297.5903     -2993.1358      3316.2186     -6309.3544      802.82247      2393.2328     -2838.0634      18.542953     -1356.4301     -2242.7043     -3086.7548     -375.17411      62940.381      39.778016      39.778016      39.778016      1.3526296      850.01162      1128.3209      294.88788    
    124500   124500         268.68677      29.998692     -2919.0402     -2946.4162      3293.5851     -6240.0014      856.10375      2448.9606     -2850.9899      18.80601      -1370.4305     -2253.3945     -3089.0569     -377.37225      62573.764      39.700632      39.700632      39.700632      1.3605546     -439.09787      269.98943      259.10452    
    125000   125000         271.21723     -96.00162      -3116.0883     -3028.252       3324.6038     -6352.8557      814.90666      2386.5132     -2851.113       17.707868     -1392.4685     -2240.8386     -3087.5633     -376.39378      62736.429      39.735004      39.735004      39.735004      1.3570269     -260.20063      351.07415     -378.87838    
    125500   125500         268.60132      402.05624     -2651.9355     -3019.4424      3292.5377     -6311.98        838.64408      2338.9877     -2833.6645      18.398285     -1342.3805     -2244.2431     -3087.722      -376.75544      62676.207      39.722286      39.722286      39.722286      1.3583308      1358.0581     -465.43588      313.5465     
    126000   126000         272.94754     -144.82855     -3109.7562     -2976.9734      3345.814      -6322.7873      865.24242      2311.5798     -2826.0667      17.319686     -1364.2971     -2241.3832     -3085.1822     -375.62143      62865.428      39.76222       39.76222       39.76222       1.3542423      401.77501     -587.5674      -248.69325    
    126500   126500         275.3038       539.68269     -2430.0454     -2925.4792      3374.6972     -6300.1764      859.00905      2374.2808     -2861.7343      17.762507     -1353.1746     -2246.039      -3090.2809     -375.13794      62946.451      39.779295      39.779295      39.779295      1.3524991      703.37694      429.46018      486.21095    
    127000   127000         270.86187     -1928.3828     -4725.8263     -2940.3518      3320.2477     -6260.5995      911.70927      2375.0874     -2866.5543      17.610229     -1375.0458     -2238.6965     -3084.71       -371.94413      63486.959      39.89283       39.89283       39.89283       1.3409844     -1220.7245     -2541.4781     -2022.9457    
    127500   127500         267.56585     -75.543427     -3094.4815     -3025.167       3279.8448     -6305.0118      831.81576      2396.877      -2850.7529      17.95947      -1379.0683     -2237.0412     -3084.8017     -375.32762      62914.639      39.772593      39.772593      39.772593      1.353183      -250.32169     -101.63894      125.33035    
    128000   128000         269.45218     -630.71029     -3555.8015     -2978.1246      3302.9676     -6281.0923      847.57836      2381.1902     -2820.0606      17.77863      -1382.8594     -2239.5247     -3085.1948     -375.99586      62802.824      39.749017      39.749017      39.749017      1.3555922     -370.93234      23.207901     -1544.4064    
    128500   128500         272.79825      345.94543     -2630.7496     -2948.2707      3343.984      -6292.2547      838.775        2437.3836     -2873.1933      18.626806     -1388.7404     -2239.5806     -3085.5257     -375.2089       62934.545      39.776787      39.776787      39.776787      1.352755       926.43645      257.00984     -145.61       
    129000   129000         267.97582     -1075.4164     -3995.2697     -3002.8915      3284.8702     -6287.7617      864.2227       2389.4658     -2835.1152      18.757869     -1402.6665     -2234.15       -3088.2764     -373.19651      63273.908      39.848155      39.848155      39.848155      1.3454996     -458.48888     -868.84943     -1898.911     
    129500   129500         270.77671      388.40462     -2641.5242     -2995.3317      3319.2038     -6314.5355      848.42298      2404.3731     -2872.3029      18.983723     -1391.1184     -2237.3962     -3085.4978     -378.05546      62460.682      39.676703      39.676703      39.676703      1.3630178      966.14417     -693.56604      892.63574    
    130000   130000         268.07283     -245.2426      -3202.0113     -2976.9495      3286.0594     -6263.0089      916.70335      2335.6191     -2826.3107      17.9482       -1377.9992     -2241.0735     -3087.8962     -375.26005      62925.968      39.77498       39.77498       39.77498       1.3529394      78.748539     -1002.8656      188.3893     
    130500   130500         264.44573      514.87866     -2555.7071     -3028.4472      3241.5981     -6270.0453      862.99642      2413.0665     -2856.0835      18.154103     -1383.2071     -2236.7043     -3088.2675     -375.07707      62956.665      39.781447      39.781447      39.781447      1.3522797      703.32748      361.23024      480.07826    
    131000   131000         272.91786     -506.70474     -3438.5776     -2976.1928      3345.4502     -6321.643       886.66495      2307.7842     -2820.5968      16.349165     -1371.5032     -2250.0451     -3090.2963     -377.38927      62570.94       39.700035      39.700035      39.700035      1.360616      -840.37275      43.094635     -722.8361     
    131500   131500         271.73098     -225.73967     -3099.503      -2891.6102      3330.9014     -6222.5116      849.97725      2433.3323     -2829.5176      19.034287     -1368.0645     -2240.9221     -3086.3512     -373.94403      63147.422      39.821585      39.821585      39.821585      1.3481947     -1371.174       745.68706     -51.73204     
    132000   132000         273.33786      1032.934      -2069.5409     -3007.8918      3350.5986     -6358.4904      836.01774      2349.989      -2848.35        18.144259     -1387.0719     -2239.8534     -3087.3662     -379.09267      62289.787      39.640484      39.640484      39.640484      1.3667573      1409.4946      265.26471      1424.0426    
    132500   132500         272.93472     -182.91506     -3120.4313     -2953.1374      3345.6568     -6298.7942      849.71768      2395.1639     -2831.0705      18.800129     -1400.3978     -2239.4329     -3091.5746     -376.53686      62712.589      39.729971      39.729971      39.729971      1.3575427      38.10014       223.57563     -810.42096    
    133000   133000         278.05942      1123.5044     -1909.486      -2936.1149      3408.4758     -6344.5907      782.67902      2369.3265     -2818.139       17.779071     -1366.5589     -2244.7648     -3084.9126     -376.87683      62656.018      39.718021      39.718021      39.718021      1.3587684      1909.2196      1274.2371      187.05643    
    133500   133500         270.83889      612.76021     -2393.8593     -2957.0821      3319.966      -6277.0481      845.0796       2350.9687     -2824.5358      17.502655     -1332.7825     -2243.7374     -3089.5434     -374.66956      63025.141      39.795864      39.795864      39.795864      1.3508105     -59.91563       1652.0685      246.12774    
    134000   134000         268.76232     -45.995803     -3063.602      -3021.7123      3294.5112     -6316.2235      850.70495      2380.8756     -2842.7327      17.737955     -1399.0494     -2235.5959     -3088.1641     -378.13687      62447.234      39.673855      39.673855      39.673855      1.3633113     -236.15651      399.21586     -301.04676    
    134500   134500         268.83855      69.759669     -2977.8938     -3041.8456      3295.4457     -6337.2913      853.72791      2306.8805     -2841.6844      16.985342     -1346.4277     -2239.4268     -3087.3462     -375.65551      62859.725      39.761018      39.761018      39.761018      1.3543651     -1355.8279      881.45083      683.65613    
    135000   135000         266.37822     -577.08142     -3600.6414     -3071.1139      3265.2868     -6336.4006      857.77317      2310.686      -2836.5615      18.494037     -1360.1232     -2238.3154     -3088.3537     -375.30703      62918.09       39.77332       39.77332       39.77332       1.3531088     -295.00266     -472.74406     -963.49753    
    135500   135500         272.76641     -386.14472     -3336.8673     -2982.4462      3343.5937     -6326.0399      830.10743      2382.2825     -2852.0032      18.391974     -1374.1042     -2241.5053     -3089.2091     -375.20508      62935.187      39.776922      39.776922      39.776922      1.3527412     -294.19714     -280.38657     -583.85045    
    136000   136000         272.73345      734.13069     -2276.4335     -2951.9763      3343.1897     -6295.166       840.64233      2373.8649     -2868.6319      18.856631     -1344.0245     -2232.3206     -3083.5528     -374.24728      63096.255      39.810826      39.810826      39.810826      1.349288       1815.4786      316.66123      70.252197    
    136500   136500         268.99252      382.20867     -2655.9095     -3007.067       3297.333      -6304.4         839.72451      2370.4729     -2856.9363      18.593434     -1349.1113     -2240.3925     -3086.7507     -374.83208      62997.814      39.790112      39.790112      39.790112      1.3513964     -87.814386      121.15052      1113.2899    
    137000   137000         274.60592     -13.668826     -2955.4423     -2942.8622      3366.1426     -6309.0047      851.82129      2396.4973     -2854.8072      19.022749     -1389.0838     -2241.5468     -3090.9083     -374.18149      63107.348      39.813159      39.813159      39.813159      1.3490508      181.32354      488.87286     -711.20288    
    137500   137500         267.94317      1181.5133     -1862.9421     -2940.7032      3284.47       -6225.1732      828.9946       2441.842      -2853.5718      18.350721     -1335.9153     -2235.8335     -3089.04       -377.53241      62547.216      39.695017      39.695017      39.695017      1.361132       1174.4752      746.24136      1623.8233    
    138000   138000         272.1834       967.18927     -1991.7898     -2882.3895      3336.4471     -6218.8367      803.26714      2471.042      -2851.3466      18.464852     -1335.4678     -2236.9205     -3087.8758     -373.99605      63138.639      39.819739      39.819739      39.819739      1.3483822      1107.6825      1397.0934      396.7919     
    138500   138500         273.20066     -728.47713     -3649.242      -2982.7465      3348.9167     -6331.6632      840.13584      2334.7707     -2853.3175      16.984933     -1339.7509     -2243.493      -3086.9933     -376.40627      62734.347      39.734565      39.734565      39.734565      1.3570719     -538.52864     -1258.7943     -388.10846    
    139000   139000         265.34769      159.77532     -2916.6712     -3063.118       3252.6545     -6315.7725      854.42809      2386.1405     -2880.3295      18.660179     -1360.865      -2244.8723     -3088.9344     -375.72301      62848.432      39.758636      39.758636      39.758636      1.3546085      120.70803      1182.3557     -823.73782    
    139500   139500         270.16064     -662.98171     -3680.8306     -3068.6865      3311.652      -6380.3385      864.16603      2312.0475     -2864.0891      18.452281     -1384.356      -2238.6818     -3087.8774     -372.98039      63310.571      39.85585       39.85585       39.85585       1.3447204     -1089.3485     -406.15017     -493.44646    
    140000   140000         271.92054      668.81195     -2399.2512     -3012.5422      3333.225      -6345.7672      822.50521      2369.9385     -2865.3053      18.3889       -1365.0136     -2241.2201     -3085.0608     -375.55672      62876.259      39.764504      39.764504      39.764504      1.354009       634.71145      1243.484       128.24042    
    140500   140500         272.64318     -974.33022     -3863.6057     -2963.9272      3342.0831     -6306.0103      863.06763      2385.2965     -2854.6035      18.770216     -1392.1885     -2239.2086     -3087.144      -372.95542      63314.81       39.85674       39.85674       39.85674       1.3446304     -1307.5111      137.27464     -1752.7542    
    141000   141000         268.23133      257.95924     -2748.5341     -2984.0056      3288.0023     -6272.0079      858.91888      2395.3674     -2862.1449      18.834322     -1368.9059     -2233.8279     -3080.2499     -377.26889      62590.907      39.704258      39.704258      39.704258      1.3601819      793.83553      258.66188     -278.61967    
    141500   141500         266.37748     -1185.6329     -4116.8349     -3025.0613      3265.2777     -6290.339       886.77875      2401.8725     -2857.594       18.666603     -1429.5393     -2231.6093     -3078.9141     -373.98637      63140.273      39.820082      39.820082      39.820082      1.3483473     -670.12616     -992.26963     -1894.5028    
    142000   142000         267.12151     -174.69277     -3170.8214     -3008.9236      3274.3981     -6283.3216      854.62717      2379.3632     -2849.2235      17.700422     -1363.5794     -2235.9555     -3086.254      -371.59692      63546.279      39.90525       39.90525       39.90525       1.3397326     -82.383156      825.03794     -1266.7331    
    142500   142500         269.35022      831.7845      -2179.1589     -2943.1012      3301.7178     -6244.819       821.36177      2424.4648     -2844.5257      18.501419     -1341.2965     -2237.4582     -3085.8667     -374.96295      62975.826      39.785482      39.785482      39.785482      1.3518682      1546.1741      142.10717      807.07221    
    143000   143000         266.59862      305.44596     -2662.2565     -2940.5139      3267.9884     -6208.5022      854.54896      2482.9321     -2852.2364      19.24202      -1390.4329     -2237.914      -3084.642      -378.0296       62464.955      39.677607      39.677607      39.677607      1.3629245      456.60972     -643.16426      1102.8924    
    143500   143500         275.42764      241.48207     -2746.8458     -2967.4539      3376.2153     -6343.6692      804.08033      2392.6291     -2851.7163      18.382722     -1372.6308     -2245.4597     -3088.9545     -376.96536      62641.304      39.714911      39.714911      39.714911      1.3590876      864.03995     -318.72847      179.13473    
    144000   144000         270.9452       934.11253     -2166.1903     -3021.0097      3321.2691     -6342.2788      851.26285      2346.1892     -2842.3254      17.641719     -1372.6927     -2250.0424     -3092.3122     -376.32488      62747.914      39.737429      39.737429      39.737429      1.3567785      498.7308       1847.5885      456.01828    
    144500   144500         271.88848      123.25404     -2840.2122     -2952.8005      3332.832      -6285.6325      878.28352      2390.3692     -2875.1262      18.368        -1369.6206     -2239.0593     -3088.8471     -377.00392      62634.897      39.713557      39.713557      39.713557      1.3592266      85.263783     -461.92862      746.42696    
    145000   145000         278.17027     -34.7832       -2905.0726     -2873.2216      3409.8346     -6283.0562      856.77214      2427.4899     -2879.3836      20.173403     -1393.7351     -2228.8522     -3085.5208     -376.08432      62788.052      39.7459        39.7459        39.7459        1.3559111      970.63803     -343.97782     -731.00981    
    145500   145500         267.56602     -459.55617     -3406.9836     -2987.0659      3279.8469     -6266.9128      826.26843      2435.4982     -2843.2695      19.076323     -1372.2683     -2242.123      -3090.095      -376.88819      62654.13       39.717622      39.717622      39.717622      1.3588094     -1308.7018      496.48016     -566.44683    
    146000   146000         271.76365     -128.10338     -3125.1667     -3007.8918      3331.3017     -6339.1936      830.83418      2387.8252     -2877.4315      18.356874     -1362.3601     -2247.7124     -3088.7058     -376.17828      62772.368      39.74259       39.74259       39.74259       1.3562499      786.97294     -955.00738     -216.27572    
    146500   146500         266.77409     -1178.2205     -4147.45       -3065.5103      3270.1394     -6335.6497      833.51766      2410.5701     -2858.9322      19.239012     -1411.886      -2240.8383     -3087.3199     -375.02625      62965.197      39.783244      39.783244      39.783244      1.3520964     -884.17433     -1019.4043     -1631.0829    
    147000   147000         269.60776      174.16034     -2782.7707     -2942.1978      3304.8747     -6247.0725      860.41413      2421.6699     -2858.4179      18.507688     -1362.6936     -2240.3069     -3086.2458     -376.20547      62767.832      39.741633      39.741633      39.741633      1.3563479      978.87111      779.5865      -1235.9766    
    147500   147500         274.31127      590.99374     -2363.5148     -2907.2901      3362.5308     -6269.8209      824.89577      2432.792      -2859.5534      19.324201     -1357.6725     -2240.4243     -3089.1826     -374.28423      63090.026      39.809516      39.809516      39.809516      1.3494212     -181.72734      1628.0129      326.69569    
    148000   148000         269.49295     -6.5733844     -3121.8022     -3115.7809      3303.4673     -6419.2482      808.9728       2337.3015     -2851.7103      17.94749      -1412.2792     -2231.4932     -3087.9873     -375.95152      62810.231      39.750579      39.750579      39.750579      1.3554324     -13.105521     -477.30993      470.6953     
    148500   148500         268.74716      689.69937     -2412.7082     -3043.8455      3294.3254     -6338.1709      809.36513      2377.4445     -2858.5171      18.672948     -1351.6483     -2245.6759     -3087.8122     -376.33455      62746.302      39.737089      39.737089      39.737089      1.3568133      1052.5197      998.98438      17.594047    
    149000   149000         273.25784     -205.99904     -3203.585      -3014.573       3349.6177     -6364.1908      856.05746      2353.4573     -2844.373       19.226904     -1422.6478     -2238.3132     -3087.5985     -375.33071      62914.121      39.772484      39.772484      39.772484      1.3531941     -388.4031      -294.10832      64.514304    
    149500   149500         268.34955      559.9308      -2477.9338     -2985.8183      3289.4515     -6275.2698      810.3732       2405.6662     -2835.8472      18.23589      -1333.4172     -2251.8296     -3088.451      -379.67108      62194.892      39.620344      39.620344      39.620344      1.3688426      515.22104     -337.40024      1501.9716    
    150000   150000         270.22452     -147.31565     -3171.4645     -3035.0284      3312.435      -6347.4634      835.38858      2340.5808     -2847.0109      17.529004     -1368.6035     -2239.0761     -3086.2713     -371.84126      63504.522      39.896508      39.896508      39.896508      1.3406135      184.01619     -470.27572     -155.68741    
    150500   150500         272.83137      1350.3703     -1692.1102     -2928.4254      3344.39       -6272.8155      823.68063      2439.8153     -2891.4082      18.101311     -1326.1611     -2249.4055     -3087.4378     -376.15063      62776.983      39.743564      39.743564      39.743564      1.3561502      1031.8581      1294.4897      1724.7632    
    151000   151000         272.15223     -131.69458     -3062.5047     -2941.5367      3336.0651     -6277.6018      861.06961      2377.579      -2850.7962      17.707007     -1355.118      -2239.1158     -3088.9273     -374.91748      62983.464      39.78709       39.78709       39.78709       1.3517043     -904.52387     -69.002593      578.44274    
    151500   151500         274.92965     -614.28752     -3465.7821     -2900.5077      3370.1109     -6270.6187      870.23218      2374.5288     -2828.9657      18.104796     -1376.2397     -2238.839      -3089.4401     -374.24026      63097.439      39.811075      39.811075      39.811075      1.3492627      234.02882     -1232.0688     -844.82255    
    152000   152000         270.51627      630.24205     -2403.4197     -2979.5949      3316.0114     -6295.6063      835.36572      2395.409      -2849.7387      17.266991     -1357.8592     -2243.482      -3092.5681     -376.69596      62686.103      39.724377      39.724377      39.724377      1.3581163      1384.9596     -265.4404       771.20695    
    152500   152500         272.54173     -456.41231     -3361.5372     -2943.4792      3340.8396     -6284.3188      851.9837       2402.4873     -2857.1381      18.132896     -1358.7621     -2251.2787     -3089.7437     -375.97501      62806.306      39.749751      39.749751      39.749751      1.3555171     -402.46282     -213.43554     -753.33858    
    153000   153000         272.58981     -758.72771     -3615.9232     -2915.9265      3341.429      -6257.3555      869.91041      2409.4297     -2858.6666      17.818602     -1364.6973     -2241.1679     -3089.9824     -373.27428      63260.725      39.845388      39.845388      39.845388      1.34578       -249.47025     -1137.1995     -889.51339    
    153500   153500         273.66867      1085.3759     -1997.8728     -2989.2987      3354.6536     -6343.9523      826.93162      2351.0666     -2874.9499      17.846964     -1335.0549     -2245.7291     -3084.0636     -377.01451      62633.138      39.713185      39.713185      39.713185      1.3592648      1117.4763      1214.0138      924.63769    
    154000   154000         270.35078      84.089295     -2982.3829     -3059.5854      3313.9827     -6373.568       826.27741      2391.8291     -2883.1139      19.124063     -1398.6575     -2239.0743     -3089.953      -375.10019      62952.785      39.780629      39.780629      39.780629      1.352363       406.34452     -48.658251     -105.41839    
    154500   154500         263.9603      -469.28831     -3478.273      -3041.4925      3235.6477     -6277.1402      855.33333      2378.6264     -2869.3192      18.153121     -1332.2818     -2240.1658     -3087.4862     -370.01103      63818.642      39.962181      39.962181      39.962181      1.3340149     -987.71169      71.626629     -491.77986    
    155000   155000         268.24369      624.68675     -2450.193      -3024.3481      3288.1538     -6312.5019      837.1588       2359.6669     -2858.6702      18.114663     -1344.9539     -2237.8352     -3085.9829     -374.68925      63021.828      39.795167      39.795167      39.795167      1.3508815      477.80942      1505.3342     -109.08339    
    155500   155500         272.86864      35.799486     -2866.1073     -2899.1616      3344.8468     -6244.0084      855.82751      2388.7056     -2848.7921      19.265995     -1328.4931     -2243.1448     -3087.3776     -372.98128      63310.421      39.855819      39.855819      39.855819      1.3447236      316.12703     -20.191644     -188.53693    
    156000   156000         269.47508     -301.3182      -3306.0627     -3029.5068      3303.2483     -6332.7551      840.39896      2351.582      -2851.9853      18.876535     -1362.259      -2242.6647     -3086.7036     -375.21537      62933.46       39.776558      39.776558      39.776558      1.3527783      462.71626     -544.22699     -822.44388    
    156500   156500         268.02856     -389.95349     -3310.8305     -2953.845       3285.5168     -6239.3618      839.68099      2447.1671     -2847.271       19.617268     -1374.9166     -2237.9075     -3085.7319     -376.18408      62771.401      39.742386      39.742386      39.742386      1.3562708      73.93473      -1424.4303      180.63513    
    157000   157000         272.22608      662.24224     -2423.5869     -3031.1362      3336.9703     -6368.1065      812.46024      2337.7617     -2845.8315      17.753516     -1354.4276     -2245.1012     -3090.7217     -375.38205      62905.517      39.77067       39.77067       39.77067       1.3533792      976.5033       737.91322      272.31021    
    157500   157500         269.55219     -369.11079     -3309.4002     -2971.8401      3304.1936     -6276.0337      844.09847      2428.3771     -2844.6578      19.043382     -1403.1553     -2235.1162     -3084.6233     -376.5683       62707.354      39.728865      39.728865      39.728865      1.3576561     -576.63465     -848.33886      317.64112    
    158000   158000         268.73265      43.677535     -2925.0785     -2965.1079      3294.1476     -6259.2555      862.41657      2392.0328     -2857.7779      18.154384     -1351.3677     -2236.023      -3086.6907     -375.76526      62841.364      39.757146      39.757146      39.757146      1.3547608      904.33202     -1114.631       341.33155    
    158500   158500         264.97642      511.48839     -2558.9684     -3029.2575      3248.1034     -6277.3608      844.22067      2425.2362     -2873.318       18.502985     -1369.4013     -2234.1842     -3088.4172     -374.54936      63045.366      39.800121      39.800121      39.800121      1.3503771     -292.19497      284.84118      1541.819     
    159000   159000         270.98675      280.12774     -2761.0894     -3017.8292      3321.7785     -6339.6078      823.45462      2381.0011     -2860.6888      19.359738     -1366.3476     -2244.9357     -3091.4511     -375.75169      62843.634      39.757625      39.757625      39.757625      1.3547119      383.3616      -53.824688      510.84631    
    159500   159500         270.09146      1032.134      -1996.6724     -2945.1081      3310.8039     -6255.912       808.72195      2434.5712     -2851.6456      18.662406     -1345.1975     -2237.0719     -3083.9526     -374.77131      63008.03       39.792262      39.792262      39.792262      1.3511773      1693.8913      1159.3064      243.20433    
    160000   160000         269.67648      462.19249     -2586.4826     -3008.0317      3305.717      -6313.7487      864.22774      2348.8726     -2862.7805      17.695452     -1356.4336     -2238.3117     -3087.0186     -377.58339      62538.772      39.693231      39.693231      39.693231      1.3613158      805.39322     -1157.8233      1739.0076    
    160500   160500         268.76248     -849.15141     -3778.5356     -2998.7964      3294.5132     -6293.3096      859.84687      2408.1326     -2843.8598      19.372171     -1407.635      -2239.2504     -3089.916      -375.03684      62963.419      39.782869      39.782869      39.782869      1.3521346     -1071.6262     -1719.748       243.91987    
    161000   161000         275.31846      327.38002     -2568.6412     -2869.6561      3374.877      -6244.533       830.30401      2455.6145     -2864.6587      19.752522     -1369.9898     -2230.8992     -3084.6564     -374.54362      63046.332      39.800324      39.800324      39.800324      1.3503564      1692.4073     -964.43356      254.16634    
    161500   161500         273.89323      493.39453     -2445.0018     -2896.7553      3357.4064     -6254.1617      841.65289      2397.264      -2853.0834      18.373045     -1326.7083     -2244.5603     -3087.0996     -376.12389      62781.447      39.744506      39.744506      39.744506      1.3560538      161.5656       1092.0775      226.54048    
    162000   162000         267.90336      386.45386     -2624.1983     -2978.5455      3283.9821     -6262.5276      836.41426      2434.2192     -2875.2297      18.276268     -1361.099      -2232.4365     -3082.6721     -375.58369      62871.744      39.763552      39.763552      39.763552      1.3541062      409.83612     -84.004564      833.53002    
    162500   162500         262.81468     -643.95276     -3703.2486     -3111.3048      3221.6046     -6332.9094      878.17563      2385.088      -2876.2776      18.140496     -1423.3666     -2229.7741     -3084.8951     -374.63788      63030.471      39.796986      39.796986      39.796986      1.3506962     -1782.2925     -97.954696     -51.611076    
    163000   163000         270.66141      1207.3042     -1832.5091     -2945.4005      3317.7904     -6263.191       812.05354      2387.815      -2826.759       18.505264     -1321.2178     -2246.3977     -3087.1902     -373.59581      63206.28       39.833953      39.833953      39.833953      1.3469392      1447.697       1175.2183      998.99724    
    163500   163500         272.12876     -485.08654     -3449.0614     -3001.7673      3335.7774     -6337.5447      877.03306      2361.6309     -2899.5225      18.9831       -1376.7994     -2234.8593     -3084.0106     -373.47728      63226.34       39.838167      39.838167      39.838167      1.3465119     -589.1512      -943.99863      77.890218    
    164000   164000         277.11141      349.64196     -2593.1926     -2914.3262      3396.8551     -6311.1813      830.95664      2416.5019     -2883.1049      18.032455     -1371.9687     -2237.0458     -3084.553      -374.95222      62977.629      39.785862      39.785862      39.785862      1.3518296     -76.517105      64.79298       1060.65      
    164500   164500         273.91012     -753.05027     -3533.5499     -2840.8523      3357.6134     -6198.4657      879.41167      2452.7511     -2891.5695      19.315208     -1344.6912     -2232.1614     -3081.5216     -374.38501      63073.043      39.805944      39.805944      39.805944      1.3497846     -310.01939     -1607.1795     -341.95189    
    165000   165000         271.77993     -305.27005     -3179.3819     -2899.9627      3331.5014     -6231.4641      851.06923      2435.5836     -2862.1466      19.187806     -1344.1015     -2243.1058     -3087.9507     -376.24103      62761.899      39.740381      39.740381      39.740381      1.3564762      785.67868     -108.63934     -1592.8495    
    165500   165500         266.29832     -259.58664     -3257.2811     -3018.7328      3264.3073     -6283.0401      848.69871      2423.4079     -2851.8399      19.017109     -1400.3004     -2233.0274     -3088.9961     -374.75209      63011.26       39.792943      39.792943      39.792943      1.351108      -1418.6473      523.77858      116.10876    
    166000   166000         270.67654      266.07079     -2808.995      -3053.6385      3317.9759     -6371.6145      833.78449      2347.9733     -2863.4412      18.136572     -1387.7463     -2236.9612     -3083.3602     -374.54295      63046.445      39.800348      39.800348      39.800348      1.350354      -37.602242      387.90556      447.90906    
    166500   166500         264.25461     -178.87908     -3191.9647     -3027.276       3239.2554     -6266.5314      878.334        2390.7568     -2856.2792      17.847226     -1372.8767     -2234.6529     -3089.6606     -374.05354      63128.936      39.817699      39.817699      39.817699      1.3485895     -630.40873      13.025158      80.746339    
    167000   167000         271.34885     -498.78294     -3424.482      -2968.8148      3326.2172     -6295.032       832.00342      2430.6748     -2837.8265      18.653655     -1423.4529     -2230.0869     -3084.9976     -376.9658       62641.231      39.714896      39.714896      39.714896      1.3590892      366.17645     -1755.9169     -106.60836    
    167500   167500         273.67052     -195.37897     -3098.6552     -2918.9153      3354.6764     -6273.5916      829.50536      2386.3105     -2868.0764      18.609111     -1317.3311     -2239.8767     -3082.7325     -374.34445      63079.876      39.807381      39.807381      39.807381      1.3496383     -1442.8517      160.28555      696.4293     
    168000   168000         271.25937     -355.96742     -3272.1522     -2944.9661      3325.1203     -6270.0864      860.58618      2453.2235     -2881.9054      18.944872     -1403.8694     -2232.9044     -3084.1618     -374.67401      63024.392      39.795707      39.795707      39.795707      1.3508265     -686.24785      257.70609     -639.36049    
    168500   168500         269.36752      66.490841     -2992.4952     -3053.431       3301.9298     -6355.3608      828.56822      2370.6368     -2870.3657      18.910396     -1381.079      -2238.2866     -3083.7449     -375.77514      62839.713      39.756798      39.756798      39.756798      1.3547964      1884.9645     -1005.1121     -680.37985    
    169000   169000         266.34655      751.4826      -2396.4448     -3084.0012      3264.8986     -6348.8998      784.82019      2412.1822     -2853.6429      19.296539     -1389.1512     -2239.3799     -3083.0249     -376.3992       62735.525      39.734814      39.734814      39.734814      1.3570464      1902.4617      547.5578      -195.57174    
    169500   169500         267.17254      161.9463      -2832.032      -2980.9983      3275.0236     -6256.0219      835.96027      2425.6084     -2844.7257      18.72237      -1374.0238     -2235.4842     -3082.0793     -374.38711      63072.688      39.805869      39.805869      39.805869      1.3497921     -422.12345     -308.61161      1216.574     
    170000   170000         272.47445     -659.60756     -3540.9331     -2937.8522      3340.0148     -6277.867       869.60255      2417.2451     -2865.4907      19.397311     -1406.1477     -2231.6645     -3080.8089     -376.65884      62692.281      39.725682      39.725682      39.725682      1.3579825     -588.33147     -1153.8414     -236.64978    
    170500   170500         270.84321      413.4181      -2595.597      -2974.9741      3320.019      -6294.9932      880.92963      2338.6789     -2844.0585      17.990497     -1368.314      -2236.6214     -3083.5983     -375.28087      62922.476      39.774244      39.774244      39.774244      1.3530144      612.03894     -23.726196      651.94155    
    171000   171000         269.42547      584.61387     -2503.1996     -3039.5475      3302.6402     -6342.1877      814.00748      2382.7824     -2851.2858      18.507962     -1385.9777     -2236.0567     -3084.1653     -375.37091      62907.382      39.771064      39.771064      39.771064      1.3533391     -1038.3798      1491.227       1300.9944    
    171500   171500         268.0591      -103.75081     -3106.5002     -3011.1728      3285.8911     -6297.0639      885.06764      2397.9539     -2880.8969      18.79262      -1400.7558     -2234.0491     -3083.1762     -374.81074      63001.401      39.790867      39.790867      39.790867      1.3513195      125.38665     -22.40105      -414.23804    
    172000   172000         270.96634     -395.04419     -3317.9928     -2955.5503      3321.5283     -6277.0786      859.59545      2408.7246     -2839.6329      18.603252     -1394.9049     -2242.4582     -3087.0059     -375.35713      62909.693      39.77155       39.77155       39.77155       1.3532894     -1395.9033      609.56672     -398.79602    
    172500   172500         268.0392       175.48759     -2834.5243     -2994.7067      3285.6471     -6280.3538      850.09917      2410.6997     -2839.0431      18.5955       -1402.2675     -2235.3644     -3083.0731     -377.28534      62588.178      39.703681      39.703681      39.703681      1.3602412      273.0441      -297.57338      550.99204    
    173000   173000         271.8138       202.43835     -2695.1387     -2880.4796      3331.9165     -6212.3961      875.68154      2471.0576     -2857.39        19.928838     -1399.6617     -2235.5869     -3086.4255     -376.14887      62777.277      39.743626      39.743626      39.743626      1.3561439      1627.9415     -1386.0306      365.4042     
    173500   173500         272.62111     -578.27801     -3409.879      -2878.4241      3341.8126     -6220.2367      892.95981      2469.2843     -2879.4779      19.175982     -1409.9405     -2226.2819     -3085.9564     -374.72131      63016.437      39.794032      39.794032      39.794032      1.350997      -667.75483      142.08213     -1209.1613    
    174000   174000         275.54575      448.02915     -2540.5061     -2951.3516      3377.6631     -6329.0147      849.3252       2376.9933     -2863.4889      18.68411      -1386.9544     -2240.0621     -3083.5118     -375.54832      62877.665      39.7648        39.7648        39.7648        1.3539787      496.56918      345.10606      502.41223    
    174500   174500         267.55946      287.02165     -2751.6597     -3013.9696      3279.7664     -6293.736       848.99576      2425.4399     -2854.4863      19.668643     -1414.7931     -2233.1685     -3085.3924     -376.82354      62664.88       39.719893      39.719893      39.719893      1.3585763      354.91654      530.51279     -24.364372    
    175000   175000         269.96428      198.52316     -2850.6975     -3032.4359      3309.245      -6341.6809      818.5754       2358.4189     -2829.9196      18.207765     -1387.6641     -2239.3127     -3079.9867     -376.1859       62771.096      39.742322      39.742322      39.742322      1.3562774     -626.73169      518.05896      704.24221    
    175500   175500         274.41738      310.01906     -2677.1646     -2960.6952      3363.8315     -6324.5267      845.78411      2369.6143     -2837.9629      18.099306     -1392.7115     -2241.5851     -3085.7649     -376.55349      62709.82       39.729386      39.729386      39.729386      1.3576027      547.34989      25.382226      357.32508    
    176000   176000         271.26859      162.84592     -2801.8        -2951.4833      3325.2333     -6276.7166      834.49084      2418.7695     -2860.2948      17.904767     -1357.8064     -2243.9254     -3085.8551     -374.66358      63026.146      39.796076      39.796076      39.796076      1.3507889      920.14642     -43.840892     -387.76777    
    176500   176500         271.05025      12.968606     -2995.202      -3007.0768      3322.5569     -6329.6337      846.22694      2398.8616     -2860.0865      18.785145     -1408.089      -2238.4301     -3086.9017     -376.10001      62785.432      39.745347      39.745347      39.745347      1.3559677      65.242713     -294.40897      268.07208    
    177000   177000         272.73744     -28.655742     -2990.356      -2964.093       3343.2386     -6307.3316      825.33926      2431.1406     -2859.4902      18.870405     -1412.9177     -2227.8591     -3082.415      -375.75542      62843.011      39.757493      39.757493      39.757493      1.3547253     -921.25551      276.01809      559.27019    
    177500   177500         273.06285      635.24861     -2325.8668     -2904.0571      3347.2275     -6251.2846      864.79732      2450.1672     -2875.3729      18.611147     -1386.4799     -2242.574      -3080.4335     -378.36511      62409.565      39.665876      39.665876      39.665876      1.3641342      1042.419       540.02017      323.30664    
    178000   178000         276.33477     -555.10103     -3363.9458     -2857.9183      3387.335      -6245.2534      873.85335      2413.5416     -2830.0189      18.227141     -1405.4054     -2236.879      -3078.5721     -377.7775       62506.639      39.686431      39.686431      39.686431      1.3620156      719.7846      -2026.9512     -358.13654    
    178500   178500         266.7763       702.05473     -2339.73       -2980.67        3270.1664     -6250.8364      840.97569      2468.2129     -2883.1281      20.000901     -1380.1248     -2232.9781     -3083.7948     -377.2174       62599.45       39.706064      39.706064      39.706064      1.3599963      821.63995      997.84838      286.67586    
    179000   179000         272.32117     -716.78696     -3658.6065     -3000.0769      3338.136      -6338.2128      857.58726      2411.3733     -2870.08        19.646171     -1447.4178     -2229.3903     -3079.9315     -374.84599      62995.475      39.789619      39.789619      39.789619      1.3514466      404.51176     -1624.3385     -930.53415    
    179500   179500         271.38037      221.26284     -2706.0331     -2908.9924      3326.6035     -6235.5959      896.07296      2447.5744     -2861.0375      19.82938      -1420.3322     -2232.4915     -3085.2114     -375.43753      62896.22       39.768711      39.768711      39.768711      1.3535793      269.48961     -361.00518      755.30409    
    180000   180000         275.8229      -144.17587     -2965.2717     -2833.1113      3381.0605     -6214.1717      895.69886      2414.7124     -2859.3015      19.569097     -1364.2104     -2235.1397     -3085.5005     -375.68954      62854.03       39.759817      39.759817      39.759817      1.3544878      839.87269     -301.18244     -971.21786    
    180500   180500         268.86995     -748.81079     -3714.9898     -3029.1336      3295.8305     -6324.9641      891.81458      2350.2282     -2869.5923      18.098597     -1377.0975     -2248.3534     -3090.0623     -375.9907       62803.685      39.749198      39.749198      39.749198      1.3555736     -1283.0118     -719.51855     -243.90201    
    181000   181000         269.23057     -685.02709     -3614.0487     -2984.3634      3300.251      -6284.6144      868.6567       2429.9984     -2853.5516      19.724668     -1413.6553     -2246.2746     -3089.5127     -374.64704      63028.929      39.796662      39.796662      39.796662      1.3507293     -1346.7383     -742.1583       33.815326    
    181500   181500         276.64651     -634.93237     -3429.0469     -2848.9895      3391.1563     -6240.1458      891.45289      2446.7783     -2862.0749      19.161795     -1421.0501     -2232.8736     -3081.5402     -376.95946      62642.285      39.715119      39.715119      39.715119      1.3590663     -1344.566       415.73423     -975.96536    
    182000   182000         273.70552     -55.783463     -3004.4783     -2953.6374      3355.1053     -6308.7427      868.44493      2419.397      -2860.3559      19.38746      -1440.9775     -2231.4354     -3083.2034     -377.8597       62493.041      39.683553      39.683553      39.683553      1.362312      -77.07049       50.460315     -140.74021    
    182500   182500         262.88501      182.41006     -2894.656      -3063.6917      3222.4667     -6286.1584      825.69355      2371.7974     -2844.2077      17.746348     -1341.2482     -2232.4999     -3083.4399     -371.62791      63540.98       39.904141      39.904141      39.904141      1.3398443      567.71815      236.0398      -256.52777    
    183000   183000         270.45108     -403.46352     -3372.4324     -3004.7897      3315.2121     -6320.0018      852.07782      2404.5461     -2856.8283      18.563642     -1420.9904     -2231.751      -3085.6197     -377.93437      62480.694      39.68094       39.68094       39.68094       1.3625812     -563.04955     -279.20545     -368.13556    
    183500   183500         271.28268      49.150263     -2924.0311     -2969.1225      3325.406      -6294.5285      842.68802      2411.511      -2856.4369      19.322496     -1393.4164     -2234.4707     -3083.726      -375.37895      62906.035      39.77078       39.77078       39.77078       1.3533681      200.06197     -375.25357      322.64239    
    184000   184000         272.09611      63.210872     -2854.1232     -2912.0027      3335.3772     -6247.3799      870.80006      2424.8519     -2857.284       18.710434     -1380.8649     -2236.5811     -3087.0123     -376.1013       62785.216      39.745302      39.745302      39.745302      1.3559724     -649.24088      1208.1252     -369.25174    
    184500   184500         261.21601     -298.90591     -3351.055      -3078.0459      3202.0079     -6280.0538      845.09285      2422.2878     -2839.7332      19.793906     -1392.1005     -2246.359      -3089.0357     -377.04695      62627.748      39.712046      39.712046      39.712046      1.3593818     -418.63623     -874.89339      396.81191    
    185000   185000         269.56701      186.01915     -2765.8545     -2935.8405      3304.3752     -6240.2157      843.10735      2494.1972     -2866.0785      18.869576     -1408.8353     -2232.6313     -3088.8448     -376.86235      62658.426      39.718529      39.718529      39.718529      1.3587162      391.02308      784.31333     -617.27895    
    185500   185500         276.01734     -130.40068     -3029.6688     -2909.6094      3383.4439     -6293.0533      869.89316      2371.4973     -2877.1156      18.339282     -1344.0553     -2244.22       -3087.3921     -374.04332      63130.66       39.818061      39.818061      39.818061      1.3485527      192.57147     -526.07144     -57.702079    
    186000   186000         272.09995     -1258.7793     -4111.3279     -2951.633       3335.4241     -6287.0571      895.99296      2429.8438     -2876.1901      18.634803     -1437.0868     -2232.8386     -3085.4133     -373.80403      63171.074      39.826556      39.826556      39.826556      1.3476899     -1463.2097     -78.71512      -2234.4131    
    186500   186500         269.1793      -126.80626     -3151.1747     -3034.7493      3299.6227     -6334.372       851.14168      2365.2466     -2872.4412      18.730095     -1380.3819     -2232.616      -3084.0513     -375.08627      62955.122      39.781122      39.781122      39.781122      1.3523128     -896.1307       736.40889     -220.69696    
    187000   187000         268.45644     -261.79084     -3218.0925     -2977.1296      3290.7617     -6267.8913      857.17868      2407.3121     -2867.2069      19.250921     -1359.4455     -2238.0138     -3086.9667     -374.14704      63113.158      39.814381      39.814381      39.814381      1.3489266      0.7655196     -445.20257     -340.93546    
    187500   187500         272.40524      233.61727     -2660.9165     -2874.5596      3339.1665     -6213.7261      843.09949      2459.3069     -2853.8096      18.772836     -1371.1279     -2227.379      -3082.5888     -376.57723      62705.866      39.728551      39.728551      39.728551      1.3576883      255.92088      119.8811       325.04984    
    188000   188000         271.42312      223.52959     -2705.2945     -2910.8746      3327.1276     -6238.0022      849.27949      2457.2194     -2851.4011      19.427439     -1384.2725     -2240.3147     -3087.9402     -374.44849      63062.349      39.803694      39.803694      39.803694      1.3500135      276.92219      360.83445      32.832109    
    188500   188500         272.04571     -971.40664     -3787.4848     -2899.0569      3334.7594     -6233.8162      887.77393      2422.4421     -2833.365       17.774432     -1403.8195     -2238.3085     -3086.3138     -376.54507      62711.222      39.729682      39.729682      39.729682      1.3575723     -215.73577     -2901.6711      203.18695    
    189000   189000         268.18924      566.58013     -2387.9123     -2906.9872      3287.4863     -6194.4736      859.66411      2471.5952     -2867.0141      19.384524     -1359.3571     -2235.653      -3083.0932     -375.89748      62819.26       39.752484      39.752484      39.752484      1.3552375      978.52162     -693.61604      1414.8348    
    189500   189500         274.07494      226.93377     -2714.1723     -2922.9574      3359.6337     -6282.5912      820.55467      2405.7794     -2860.7594      18.548047     -1347.4112     -2239.8264     -3079.4763     -374.31543      63084.767      39.80841       39.80841       39.80841       1.3495337     -165.80297      381.10547      465.49879    
    190000   190000         267.27546      185.61714     -2836.6845     -3006.4293      3276.2851     -6282.7145      828.30371      2425.6015     -2866.5621      19.313152     -1379.3889     -2228.4852     -3081.4966     -376.58207      62705.061      39.728381      39.728381      39.728381      1.3577057     -588.54124     -28.097078      1173.4897    
    190500   190500         268.54824     -104.10365     -3050.8513     -2955.1556      3291.8871     -6247.0427      834.04128      2424.0374     -2853.9039      18.524461     -1361.1953     -2228.6683     -3079.8782     -374.63798      63030.453      39.796982      39.796982      39.796982      1.3506966     -421.10404      503.07913     -394.28605    
    191000   191000         266.30096     -1164.4805     -4065.3264     -3005.2313      3264.3397     -6269.571       909.28454      2412.3534     -2860.8048      18.5975       -1440.1444     -2227.0482     -3081.8091     -378.29059      62421.858      39.66848       39.66848       39.66848       1.3638655     -1358.5458     -678.01784     -1456.878     
    191500   191500         269.96321     -102.49416     -3113.8364     -3020.3871      3309.2318     -6329.6189      871.52183      2401.0413     -2888.4077      19.207554     -1414.9261     -2234.7663     -3083.2895     -377.71215      62517.453      39.68872       39.68872       39.68872       1.36178        940.30279     -327.60462     -920.18065    
    192000   192000         274.5192      -342.51488     -3259.7067     -2944.3624      3365.0796     -6309.442       835.4597       2399.6031     -2854.605       18.12705      -1391.2405     -2233.793      -3082.9933     -374.05248      63129.114      39.817736      39.817736      39.817736      1.3485857     -1206.0591      93.451925      85.062477    
    192500   192500         267.39745     -203.58466     -3258.8315     -3072.5897      3277.7806     -6350.3702      825.6981       2398.8951     -2879.5811      19.059585     -1397.5199     -2239.3191     -3077.6029     -376.44886      62727.25       39.733066      39.733066      39.733066      1.3572254     -338.89176     -144.08216     -127.78007    
    193000   193000         272.96984      630.72898     -2316.8765     -2893.4907      3346.0874     -6239.5781      862.26819      2446.6599     -2875.5962      18.676109     -1375.2488     -2241.1932     -3075.1442     -376.69997      62685.435      39.724236      39.724236      39.724236      1.3581308      905.86579      908.36278      77.95837     
    193500   193500         275.33167      228.78228     -2707.0524     -2916.1333      3375.0389     -6291.1721      823.73775      2394.7884     -2844.0146      18.352834     -1362.9287     -2240.9054     -3080.2024     -376.8307       62663.688      39.719641      39.719641      39.719641      1.3586021     -1346.9981      1220.085       813.25989    
    194000   194000         265.50172     -279.74022     -3338.1805     -3081.6092      3254.5425     -6336.1517      863.44025      2370.771      -2862.0588      19.135674     -1402.1186     -2238.1747     -3087.1466     -375.47839      62889.375      39.767268      39.767268      39.767268      1.3537266     -1049.131      -409.7799       619.69027    
    194500   194500         273.94343      311.74516     -2687.1686     -2971.7817      3358.0217     -6329.8034      891.61855      2357.2795     -2876.7365      18.221443     -1400.0054     -2236.6179     -3083.5631     -377.20983      62600.706      39.70633       39.70633       39.70633       1.359969       117.24763      121.93533      696.05252    
    195000   195000         277.64506      384.96745     -2584.3928     -2935.6757      3403.3966     -6339.0723      835.84573      2373.8134     -2849.5451      18.109599     -1399.0137     -2235.5073     -3082.7748     -377.4028       62568.698      39.699561      39.699561      39.699561      1.3606647      1285.8625      369.76751     -500.72767    
    195500   195500         274.51012     -562.82072     -3367.288      -2850.0542      3364.9683     -6215.0225      860.23308      2446.6247     -2844.7744      19.061206     -1380.4181     -2235.5189     -3080.23       -374.73248      63014.559      39.793637      39.793637      39.793637      1.3510373     -485.92791     -1650.13        447.5958     
    196000   196000         275.80887     -294.12234     -3153.9015     -2886.0942      3380.8884     -6266.9826      877.03269      2425.6046     -2843.8285      19.056791     -1435.1899     -2229.2487     -3080.4095     -378.21936      62433.614      39.670971      39.670971      39.670971      1.3636087     -47.88527      -271.04539     -563.43637    
    196500   196500         268.11731     -474.63226     -3442.7506     -3007.0124      3286.6047     -6293.6171      861.98492      2421.4923     -2864.4155      18.042796     -1401.0802     -2243.7804     -3085.8609     -375.11956      62949.535      39.779945      39.779945      39.779945      1.3524329      1164.0316     -1516.0233     -1071.9051    
    197000   197000         270.43115     -130.23473     -3114.6694     -2995.2236      3314.9679     -6310.1914      834.40275      2372.6982     -2849.4929      17.547729     -1362.1293     -2239.3057     -3083.9122     -375.48605      62888.093      39.766998      39.766998      39.766998      1.3537542     -657.96399      323.20701     -55.94722     
    197500   197500         270.30978      574.66675     -2447.6794     -2973.4963      3313.4801     -6286.9764      874.36352      2388.6476     -2862.2935      18.113159     -1374.3204     -2243.9904     -3087.4963     -376.37405      62739.718      39.735699      39.735699      39.735699      1.3569557      1362.6834     -31.332111      392.64899    
    198000   198000         270.6414       442.69204     -2521.3582     -2926.0989      3317.5452     -6243.6441      855.2952       2430.3996     -2854.7261      18.545756     -1361.9684     -2246.6726     -3084.5175     -376.67167      62690.145      39.72523       39.72523       39.72523       1.3580288      496.38006      871.53414     -39.838091    
    198500   198500         272.51677     -289.98604     -3256.1854     -2989.4334      3340.5336     -6329.967       849.47584      2389.7032     -2857.4169      18.999428     -1410.1994     -2238.6805     -3081.8487     -374.37561      63074.627      39.806277      39.806277      39.806277      1.3497507      227.71254     -1703.5225      605.85182    
    199000   199000         274.07619      357.14002     -2637.1037     -2964.0895      3359.6491     -6323.7386      842.98536      2371.6622     -2855.1553      17.796291     -1378.836      -2240.2062     -3081.985      -376.13845      62779.015      39.743993      39.743993      39.743993      1.3561063      202.00728      365.49257      503.92021    
    199500   199500         268.39575     -406.27722     -3378.637      -3002.4508      3290.0178     -6292.4686      866.62131      2330.8145     -2847.5115      17.113282     -1344.1231     -2232.5322     -3082.8509     -371.92704      63489.876      39.893441      39.893441      39.893441      1.3409228     -1883.2015      830.07888     -165.70904    
    200000   200000         271.42904      337.8756      -2658.2073     -2968.9839      3327.2001     -6296.1839      868.61611      2393.1859     -2873.5573      18.274877     -1376.7853     -2237.5133     -3088.4049     -374.40928      63068.954      39.805084      39.805084      39.805084      1.3498721      31.512683      50.367735      931.74638    
Loop time of 608.928 on 1 procs for 200000 steps with 4940 atoms

Performance: 28.378 ns/day, 0.846 hours/ns, 328.446 timesteps/s, 1.623 Matom-step/s
100.0% CPU use with 1 MPI tasks x 1 OpenMP threads

MPI task timing breakdown:
Section |  min time  |  avg time  |  max time  |%varavg| %total
---------------------------------------------------------------
Pair    | 224.6      | 224.6      | 224.6      |   0.0 | 36.88
Bond    | 74.298     | 74.298     | 74.298     |   0.0 | 12.20
Kspace  | 162.36     | 162.36     | 162.36     |   0.0 | 26.66
Neigh   | 26.167     | 26.167     | 26.167     |   0.0 |  4.30
Comm    | 4.2805     | 4.2805     | 4.2805     |   0.0 |  0.70
Output  | 0.052042   | 0.052042   | 0.052042   |   0.0 |  0.01
Modify  | 100.22     | 100.22     | 100.22     |   0.0 | 16.46
Other   |            | 16.95      |            |       |  2.78

Nlocal:           4940 ave        4940 max        4940 min
Histogram: 1 0 0 0 0 0 0 0 0 0
Nghost:          14437 ave       14437 max       14437 min
Histogram: 1 0 0 0 0 0 0 0 0 0
Neighs:              0 ave           0 max           0 min
Histogram: 1 0 0 0 0 0 0 0 0 0
FullNghs:  2.44983e+06 ave 2.44983e+06 max 2.44983e+06 min
Histogram: 1 0 0 0 0 0 0 0 0 0

Total # of neighbors = 2449832
Ave neighs/atom = 495.91741
Ave special neighs/atom = 5.9797571
Neighbor list builds = 4322
Dangerous builds = 0
WARNING: No fixes with time integration, atoms won't move
For more information see https://docs.lammps.org/err0028 (src/verlet.cpp:60)
PPPM Kokkos initialization ...
  using 12-bit tables for long-range coulomb
  G vector (1/distance) = 0.29640413
  grid = 27 27 27
  stencil order = 5
  estimated absolute RMS force accuracy = 0.00035501903
  estimated relative force accuracy = 1.0691293e-06
  using double precision cuFFT
  3d grid and FFT values/proc = 39304 19683
Generated 6 of 6 mixed pair_coeff terms from sixthpower/sixthpower mixing rule
Setting up Verlet run ...
  Unit style    : real
  Current step  : 200000
  Time step     : 1
Per MPI rank memory allocation (min/avg/max) = 29.28 | 29.28 | 29.28 Mbytes
   Step          Time           Temp          Press         Enthalpy        TotEng         KinEng         PotEng         E_bond        E_angle        E_dihed        E_impro         E_vdwl         E_coul         E_long         E_tail         Volume           Lx             Ly             Lz          Density          Pxx            Pyy            Pzz      
    200000   200000         225.99852      3089.6026     -127.17977     -2968.9839      3327.2001     -6296.184       868.61614      2393.1859     -2873.5573      18.274877     -1376.7853     -2236.6852     -3089.233      -374.40928      63068.954      39.805084      39.805084      39.805084      1.3498721      2860.3196      2731.4198      3677.0685    
Loop time of 6.6364e-05 on 1 procs for 0 steps with 4940 atoms

101.0% CPU use with 1 MPI tasks x 1 OpenMP threads

MPI task timing breakdown:
Section |  min time  |  avg time  |  max time  |%varavg| %total
---------------------------------------------------------------
Pair    | 0          | 0          | 0          |   0.0 |  0.00
Bond    | 0          | 0          | 0          |   0.0 |  0.00
Kspace  | 0          | 0          | 0          |   0.0 |  0.00
Neigh   | 0          | 0          | 0          |   0.0 |  0.00
Comm    | 0          | 0          | 0          |   0.0 |  0.00
Output  | 0          | 0          | 0          |   0.0 |  0.00
Modify  | 0          | 0          | 0          |   0.0 |  0.00
Other   |            | 6.636e-05  |            |       |100.00

Nlocal:           4940 ave        4940 max        4940 min
Histogram: 1 0 0 0 0 0 0 0 0 0
Nghost:          14437 ave       14437 max       14437 min
Histogram: 1 0 0 0 0 0 0 0 0 0
Neighs:              0 ave           0 max           0 min
Histogram: 1 0 0 0 0 0 0 0 0 0
FullNghs:   2.4518e+06 ave  2.4518e+06 max  2.4518e+06 min
Histogram: 1 0 0 0 0 0 0 0 0 0

Total # of neighbors = 2451802
Ave neighs/atom = 496.31619
Ave special neighs/atom = 5.9797571
Neighbor list builds = 0
Dangerous builds = 0
System init for write_data ...
PPPM Kokkos initialization ...
  using 12-bit tables for long-range coulomb
  G vector (1/distance) = 0.29640413
  grid = 27 27 27
  stencil order = 5
  estimated absolute RMS force accuracy = 0.00035501903
  estimated relative force accuracy = 1.0691293e-06
  using double precision cuFFT
  3d grid and FFT values/proc = 39304 19683
Generated 6 of 6 mixed pair_coeff terms from sixthpower/sixthpower mixing rule
STAGE COMPLETE: Tg step T=271.0K P=1.0atm steps=200000
