LAMMPS (22 Jul 2025 - Update 3)
KOKKOS mode with Kokkos version 4.6.2 is enabled
  will use up to 1 GPU(s) per node
  using 1 OpenMP thread(s) per MPI task
package kokkos
package kokkos
# ============================================================
# PolyJarvis LAMMPS Engine - NPT Compression Template
# ============================================================
# Stage: High-pressure NPT compression (density packing step)
# Purpose: Compress low-density amorphous cell to target density
#          before switching to full PPPM electrostatics.
#
# Design choice: Uses lj/charmm/coul/charmm (short-range Coulomb, no PPPM)
# to avoid PPPM instability at low density while preserving short-range
# electrostatics for polar/charged systems (PEG, PMMA, etc.).
# Switch to lj/charmm/coul/long + pppm AFTER reaching ~0.8 g/cm3.
#
# Tunable parameters:
#   DATA_FILE        - input .data file
#   READ_COMMAND     - "read_data" or "read_restart"
#   LOG_FILE, LOG_APPEND
#   DUMP_FILE, LAST_DUMP_FILE, WRITE_DATA_FILE
#   RESTART_BLOCK, RESTART_FILE_1/2, RESTART_FREQ
#   PAIR_STYLE_BLOCK - pair style lines (injected by generator based on use_pppm)
#                      Default (use_pppm=False): lj/charmm/coul/charmm 8.0 12.0
#                      Override (use_pppm=True):  lj/charmm/coul/long 8.0 12.0 + pppm
#   BOND_STYLE, ANGLE_STYLE, DIHEDRAL_STYLE, IMPROPER_STYLE
#   GPU_PACKAGE
#   T_START, T_FINAL - temperature ramp during compression
#   T_DAMP
#   P_START, P_FINAL - pressure ramp (e.g. 1 -> 50000 atm)
#   P_DAMP
#   TIMESTEP, N_STEPS
#   THERMO_FREQ, DUMP_FREQ
#   SHAKE_BLOCK, UNSHAKE_BLOCK
#   INIT_VELOCITY_BLOCK
# ============================================================

log npt_densify.log
