LAMMPS (22 Jul 2025 - Update 3)
OMP_NUM_THREADS environment is not set. Defaulting to 1 thread.
  using 1 OpenMP thread(s) per MPI task
Reading data file ...
  orthogonal box = (2.7598921 2.7598921 2.7598921) to (47.77485 47.77485 47.77485)
  1 by 1 by 1 MPI processor grid
  reading atoms ...
  3600 atoms
  reading velocities ...
  3600 velocities
  scanning bonds ...
  2 = max bonds/atom
  scanning angles ...
  1 = max angles/atom
  scanning dihedrals ...
  2 = max dihedrals/atom
  orthogonal box = (2.7598921 2.7598921 2.7598921) to (47.77485 47.77485 47.77485)
  1 by 1 by 1 MPI processor grid
  reading bonds ...
  3590 bonds
  reading angles ...
  3580 angles
  reading dihedrals ...
  3570 dihedrals
Finding 1-2 1-3 1-4 neighbors ...
  special bond factors lj:    0        0        0       
  special bond factors coul:  0        0        0       
     2 = max # of 1-2 neighbors
     2 = max # of 1-3 neighbors
     4 = max # of 1-4 neighbors
     6 = max # of special neighbors
  special bonds CPU = 0.001 seconds
  read_data CPU = 0.034 seconds

CITE-CITE-CITE-CITE-CITE-CITE-CITE-CITE-CITE-CITE-CITE-CITE-CITE

Your simulation uses code contributions which should be cited:
- GPU package (short-range, long-range and three-body potentials): doi:10.1016/j.cpc.2010.12.021, doi:10.1016/j.cpc.2011.10.012, doi:10.1016/j.cpc.2013.08.002, doi:10.1016/j.commatsci.2014.10.068, doi:10.1016/j.cpc.2016.10.020, doi:10.3233/APC200086
The log file lists these citations in BibTeX format.

CITE-CITE-CITE-CITE-CITE-CITE-CITE-CITE-CITE-CITE-CITE-CITE-CITE


--------------------------------------------------------------------------
- Using acceleration for lj/cut:
-  with 1 proc(s) per device.
-  with 1 thread(s) per proc.
-  Horizontal vector operations: ENABLED
-  Shared memory system: No
--------------------------------------------------------------------------
Device 0: NVIDIA A800 40GB Active, 108 CUs, 20/39 GB, 1.4 GHZ (Mixed Precision)
--------------------------------------------------------------------------

Initializing Device and compiling on process 0...Done.
Initializing Device 0 on core 0...Done.

Generated 1 of 1 mixed pair_coeff terms from arithmetic mixing rule
Setting up Verlet run ...
  Unit style    : real
  Current step  : 0
  Time step     : 2
Per MPI rank memory allocation (min/avg/max) = 14.8 | 14.8 | 14.8 Mbytes
   Step          Time           Temp          Press         Enthalpy        TotEng         KinEng         PotEng         E_bond        E_angle        E_dihed        E_impro         E_vdwl         E_coul         E_long         E_tail         Volume           Lx             Ly             Lz          Density          Pxx            Pyy            Pzz      
         0   0              110.74801      91.326183     -1388.4115     -1509.9018      1188.0975     -2697.9993      403.1765       425.73964      1201.1911      0             -4728.1066      0              0             -151.00278      91215.897      45.014958      45.014958      45.014958      0.91962965     88.043999     -33.573081      219.50763    
       500   1000           100.00565     -10.202312     -1743.7491     -1730.1556      1072.8542     -2803.0098      351.38626      396.47513      1191.0596      0             -4741.9308      0              0             -150.76425      91360.214      45.038685      45.038685      45.038685      0.91817696    -238.51504      74.988112      132.91999    
      1000   2000           103.45668      237.11248     -1375.2637     -1691.0562      1109.8766     -2800.9327      367.24312      394.1651       1173.971       0             -4736.312       0              0             -150.82871      91321.166      45.032268      45.032268      45.032268      0.91856956     776.32222     -95.293772      30.309001    
      1500   3000           99.728216      181.08641     -1469.8441     -1711.6093      1069.8779     -2781.4871      362.97521      403.73746      1184.3158      0             -4732.5156      0              0             -150.46083      91544.45       45.06894       45.06894       45.06894       0.9163291      506.58159      56.023583     -19.345943    
      2000   4000           102.57761     -103.96758     -1829.9391     -1691.0843      1100.4459     -2791.5303      361.63186      407.18534      1176.2643      0             -4736.6118      0              0             -150.4072       91577.091      45.074296      45.074296      45.074296      0.91600249    -361.62704      38.475793      11.248497    
      2500   5000           98.648827      255.67428     -1392.9156     -1733.4739      1058.2982     -2791.7721      373.38788      406.56075      1174.8751      0             -4746.5958      0              0             -150.80889      91333.169      45.03424       45.03424       45.03424       0.91844884     40.789033      421.56023      304.67358    
      3000   6000           100.73626     -186.62206     -1935.1327     -1686.4172      1080.6921     -2767.1092      369.69067      394.41618      1202.3591      0             -4733.5751      0              0             -150.72711      91382.727      45.042384      45.042384      45.042384      0.91795076    -505.81292      342.98082     -397.03409    
      3500   7000           99.940774     -118.21351     -1870.9157     -1713.231       1072.1582     -2785.3892      364.3418       399.95818      1193.2867      0             -4742.9758      0              0             -150.59445      91463.224      45.055606      45.055606      45.055606      0.91714287    -341.56233      145.21628     -158.29448    
      4000   8000           98.97774       143.62749     -1531.3284     -1722.8023      1061.8268     -2784.6291      365.8146       400.49182      1188.3158      0             -4739.2513      0              0             -150.68125      91410.536      45.046953      45.046953      45.046953      0.9176715      441.09853     -33.12281       22.90676     
      4500   9000           100.75621     -159.75562     -1908.0786     -1695.2661      1080.9061     -2776.1721      374.83789      402.91408      1183.5459      0             -4737.47        0              0             -150.79618      91340.868      45.035506      45.035506      45.035506      0.91837143    -165.38429      115.90779     -429.79035    
      5000   10000          100.99981      56.183875     -1624.3535     -1699.4083      1083.5195     -2782.9278      372.2873       399.57226      1188.9853      0             -4743.7726      0              0             -150.37122      91599.001      45.07789       45.07789       45.07789       0.91578338     206.55264      88.916197     -126.91721    
      5500   11000          99.86149       152.58061     -1519.6295     -1723.6621      1071.3076     -2794.9697      364.99837      397.03123      1181.4217      0             -4738.421       0              0             -150.22118      91690.495      45.092894      45.092894      45.092894      0.91486957     107.48913      508.47529     -158.22259    
      6000   12000          98.673999     -23.993883     -1746.73       -1714.8558      1058.5683     -2773.4241      371.76796      403.28295      1192.0334      0             -4740.5083      0              0             -151.21412      91088.411      44.993976      44.993976      44.993976      0.92091675     117.68944     -609.02503      419.35394    
      6500   13000          98.057868     -226.33291     -2050.8808     -1748.5274      1051.9585     -2800.4859      358.82999      389.76114      1184.5692      0             -4733.6462      0              0             -150.37105      91599.11       45.077908      45.077908      45.077908      0.91578229    -191.05599      43.102343     -531.04508    
      7000   14000          101.21567      73.542481     -1617.7273     -1715.6793      1085.8352     -2801.5145      368.45959      400.60989      1180.9159      0             -4751.4999      0              0             -150.81897      91327.067      45.033237      45.033237      45.033237      0.91851021     318.46056      52.969559     -150.80268    
      7500   15000          99.326619      55.033601     -1633.2608     -1706.5041      1065.5695     -2772.0736      377.55555      411.67696      1175.9055      0             -4737.2117      0              0             -150.93551      91256.553      45.021644      45.021644      45.021644      0.91921995     362.59888      159.79647     -357.29455    
      8000   16000          99.701912     -85.526352     -1846.2413     -1732.314       1069.5957     -2801.9097      353.45381      408.83646      1179.8103      0             -4744.0102      0              0             -150.80085      91338.038      45.035041      45.035041      45.035041      0.91839988    -168.14846     -187.25175      98.821146    
      8500   17000          98.494857      89.872621     -1638.9244     -1758.3894      1056.6465     -2815.0359      366.49722      374.28133      1200.6976      0             -4756.5121      0              0             -151.11854      91146.025      45.003461      45.003461      45.003461      0.92033463     531.70035     -427.90574      165.82325    
      9000   18000          101.9386       18.888082     -1673.9854     -1699.1906      1093.5908     -2792.7813      365.43029      402.71247      1186.2737      0             -4747.1978      0              0             -150.53215      91501.08       45.061821      45.061821      45.061821      0.91676343    -228.96276      268.35101      17.275996    
      9500   19000          100.76209     -151.66668     -1934.4462     -1732.3638      1080.9692     -2813.3331      350.65383      396.71862      1194.2915      0             -4754.997       0              0             -150.76243      91361.318      45.038867      45.038867      45.038867      0.91816586     24.525476     -373.65523     -105.87029    
     10000   20000          100.94733      118.83514     -1565.2521     -1722.7271      1082.9565     -2805.6836      369.62118      396.25982      1191.2248      0             -4762.7894      0              0             -151.58786      90863.832      44.956968      44.956968      44.956968      0.92319289     156.38372      81.599546      118.52214    
     10500   21000          101.83948      40.718661     -1641.4025     -1695.5611      1092.5274     -2788.0885      371.99121      401.71631      1184.2625      0             -4746.0586      0              0             -151.02787      91200.742      45.012464      45.012464      45.012464      0.91978247     238.54067     -375.78886      259.40417    
     11000   22000          100.19451      412.57073     -1200.9115     -1750.6366      1074.8803     -2825.5169      374.86646      377.57926      1168.5735      0             -4746.5362      0              0             -150.75933      91363.195      45.039175      45.039175      45.039175      0.91814701     412.09135      523.64904      301.97179    
     11500   23000          99.678867     -204.66499     -1984.1755     -1710.8474      1069.3484     -2780.1958      381.78205      392.38668      1173.4665      0             -4727.8311      0              0             -150.41481      91572.456      45.073535      45.073535      45.073535      0.91604885     77.540453     -167.0552      -524.48021    
     12000   24000          99.223193     -41.912074     -1769.8203     -1714.2598      1064.46       -2778.7198      379.95677      410.81505      1179.9781      0             -4749.4697      0              0             -151.53193      90897.368      44.962498      44.962498      44.962498      0.92285228     49.544737     -36.203443     -139.07752    
     12500   25000          101.43274     -114.07908     -1874.1694     -1722.702       1088.1638     -2810.8658      368.65184      393.96863      1184.7325      0             -4758.2188      0              0             -151.29275      91041.071      44.98618       44.98618       44.98618       0.92139561     247.6193      -236.81092     -353.04561    
     13000   26000          99.030342      185.23856     -1485.3924     -1731.2915      1062.3911     -2793.6826      372.03762      391.14134      1195.5355      0             -4752.397       0              0             -151.3233       91022.691      44.983153      44.983153      44.983153      0.92158167     460.65695      130.6629      -35.604177    
     13500   27000          100.79532     -163.06389     -1910.1654     -1693.0942      1081.3257     -2774.4198      366.75271      399.46878      1204.4082      0             -4745.0496      0              0             -150.89922      91278.497      45.025253      45.025253      45.025253      0.91899896    -13.21099      -133.58741     -342.39326    
     14000   28000          100.5048      -465.82903     -2331.6682     -1712.018       1078.209      -2790.227       363.2516       409.5279       1187.4104      0             -4750.4169      0              0             -151.01195      91210.36       45.014047      45.014047      45.014047      0.91968548    -309.01527     -671.59718     -416.87464    
     14500   29000          98.702861     -72.581312     -1832.2881     -1735.5935      1058.8779     -2794.4714      356.47827      415.20069      1184.5279      0             -4750.6783      0              0             -150.78353      91348.533      45.036765      45.036765      45.036765      0.91829437    -175.56572     -19.723801     -22.454411    
     15000   30000          99.322325     -166.34787     -1966.5779     -1744.5699      1065.5235     -2810.0934      357.27015      388.16076      1187.2594      0             -4742.7837      0              0             -150.51508      91511.457      45.063525      45.063525      45.063525      0.91665947    -215.20382     -128.01325     -155.82655    
     15500   31000          98.651171     -51.682062     -1815.4142     -1746.4985      1058.3234     -2804.8219      365.98517      388.93353      1190.1997      0             -4749.9403      0              0             -150.64449      91432.843      45.050617      45.050617      45.050617      0.91744762    -77.061243      309.63143     -387.61637    
     16000   32000          99.142003     -293.77206     -2136.2106     -1745.0447      1063.589      -2808.6337      350.51354      404.68943      1176.1032      0             -4739.9399      0              0             -150.86235      91300.807      45.028921      45.028921      45.028921      0.91877439    -305.27034     -372.48334     -203.56248    
     16500   33000          100.79302     -237.54509     -2044.054      -1727.5094      1081.301      -2808.8104      366.22755      389.56521      1171.2758      0             -4735.879       0              0             -150.7449       91371.942      45.040612      45.040612      45.040612      0.91805911    -153.91031     -867.19216      308.46719    
     17000   34000          100.72612     -173.2387      -1952.1822     -1721.6952      1080.5833     -2802.2785      378.05438      385.41423      1176.6812      0             -4742.4283      0              0             -150.98366      91227.446      45.016857      45.016857      45.016857      0.91951323     156.58373     -134.40782     -541.892      
     17500   35000          99.503438     -54.036653     -1810.253      -1738.2197      1067.4665     -2805.6862      366.52286      391.00954      1186.4508      0             -4749.6694      0              0             -150.69083      91404.724      45.045998      45.045998      45.045998      0.91772985     204.438       -364.00943     -2.5385316    
     18000   36000          100.55301     -89.393392     -1840.3509     -1720.9215      1078.7262     -2799.6477      361.26337      383.06824      1180.4945      0             -4724.4738      0              0             -150.35764      91607.275      45.079247      45.079247      45.079247      0.91570067     172.7287      -204.11382     -236.79506    
     18500   37000          99.259997      245.53017     -1408.4571     -1734.8123      1064.8548     -2799.6671      369.45346      396.66239      1180.717       0             -4746.5         0              0             -151.12825      91140.165      45.002496      45.002496      45.002496      0.9203938      259.04356      461.32261      16.224337    
     19000   38000          100.61414      277.87332     -1316.1673     -1686.817       1079.382      -2766.199       376.08473      410.53603      1187.7152      0             -4740.535       0              0             -150.5964       91462.037      45.055411      45.055411      45.055411      0.91715477     586.02989     -74.037021      321.62709    
     19500   39000          100.05361      318.166       -1318.4629     -1741.5135      1073.3687     -2814.8822      355.69436      382.77063      1194.7164      0             -4748.0637      0              0             -151.07505      91172.262      45.007778      45.007778      45.007778      0.92006978     712.62528      253.52705     -11.654327    
     20000   40000          100.82215      1.6432714     -1700.8762     -1703.0652      1081.6135     -2784.6787      354.47825      421.21108      1179.6769      0             -4740.045       0              0             -150.79741      91340.122      45.035383      45.035383      45.035383      0.91837893     23.179194      223.21734     -241.46672    
     20500   41000          99.489312      207.09945     -1437.9627     -1713.351       1067.3149     -2780.6659      365.46801      410.11172      1188.2068      0             -4744.4524      0              0             -151.06535      91178.115      45.008741      45.008741      45.008741      0.92001073     692.85479     -60.386856     -11.16958     
     21000   42000          99.257728     -329.26555     -2156.9938     -1718.9217      1064.8305     -2783.7522      374.23912      397.20525      1190.5862      0             -4745.7828      0              0             -150.9844       91226.998      45.016784      45.016784      45.016784      0.91951774    -382.92737     -268.026       -336.84328    
     21500   43000          101.20843      4.1535047     -1714.4096     -1719.9467      1085.7575     -2805.7042      359.27318      400.6582       1178.9096      0             -4744.5451      0              0             -150.684        91408.867      45.046679      45.046679      45.046679      0.91768826     429.52964     -586.5893       169.52017    
     22000   44000          99.037637     -162.42925     -1956.4648     -1739.79        1062.4694     -2802.2594      370.28921      394.14747      1178.4314      0             -4745.1275      0              0             -150.58693      91467.79       45.056356      45.056356      45.056356      0.91709708     131.40101     -255.45321     -363.23553    
     22500   45000          103.57829     -159.03322     -1863.7171     -1651.5839      1111.1812     -2762.7651      380.41542      412.67034      1195.8132      0             -4751.6641      0              0             -150.59499      91462.894      45.055552      45.055552      45.055552      0.91714617    -363.1979       386.01667     -499.91842    
     23000   46000          99.273585      233.13244     -1407.9204     -1719.0714      1065.0006     -2784.072       371.40458      407.63495      1183.3356      0             -4746.4471      0              0             -150.50913      91515.072      45.064118      45.064118      45.064118      0.91662326     700.25371     -265.37446      264.51806    
     23500   47000          101.822        50.892517     -1643.7256     -1711.7596      1092.3399     -2804.0994      372.78764      386.73537      1171.8336      0             -4735.4561      0              0             -150.26566      91663.353      45.088444      45.088444      45.088444      0.91514046     22.218384      354.54834     -224.08918    
     24000   48000          99.301325     -5.0065866     -1721.6161     -1714.9707      1065.2982     -2780.2689      372.59905      408.58453      1191.5311      0             -4752.9836      0              0             -151.33977      91012.785      44.981521      44.981521      44.981521      0.92168198     118.51452     -144.97071      11.436436    
     24500   49000          98.296141     -72.540108     -1841.6587     -1745.1004      1054.5146     -2799.6151      366.84412      408.25291      1176.2889      0             -4751.0009      0              0             -150.91075      91271.524      45.024106      45.024106      45.024106      0.91906917    -32.551523     -157.01079     -28.058008    
     25000   50000          99.727967     -25.714614     -1747.8837     -1713.7467      1069.8752     -2783.6219      372.06463      403.76998      1192.3509      0             -4751.8075      0              0             -151.31663      91026.704      44.983814      44.983814      44.983814      0.92154104     105.01464     -240.93375      58.775276    
     25500   51000          97.921344      86.743597     -1626.7771     -1742.3587      1050.4939     -2792.8525      365.67135      396.93423      1190.9923      0             -4746.4505      0              0             -150.75789      91364.069      45.039319      45.039319      45.039319      0.91813822     285.5234      -34.940444      9.6478306    
     26000   52000          99.9985        32.939363     -1674.2692     -1718.0658      1072.7774     -2790.8433      369.71279      398.25748      1192.1565      0             -4750.9701      0              0             -151.07964      91169.491      45.007322      45.007322      45.007322      0.92009775     151.09814     -106.13795      53.857891    
     26500   53000          99.306971     -157.32113     -1937.279      -1727.9691      1065.3588     -2793.3279      364.9738       398.3893       1193.8483      0             -4750.5393      0              0             -150.98324      91227.701      45.016899      45.016899      45.016899      0.91951066    -20.111703      44.156955     -496.00865    
     27000   54000          103.2231      -37.788795     -1747.5228     -1697.3306      1107.3707     -2804.7013      359.85764      405.09689      1180.6831      0             -4750.339       0              0             -151.23707      91074.591      44.991701      44.991701      44.991701      0.92105649    -348.5406      -291.4047       526.57891    
     27500   55000          100.68868      21.358229     -1701.2806     -1729.7252      1080.1816     -2809.9068      355.28743      402.60633      1182.2292      0             -4750.0298      0              0             -150.83313      91318.494      45.031828      45.031828      45.031828      0.91859645     367.69948      243.0179      -546.64269    
     28000   56000          98.186949     -279.05335     -2076.3599     -1704.3942      1053.3432     -2757.7375      380.14061      418.51738      1188.8883      0             -4745.2837      0              0             -150.70084      91398.654      45.045001      45.045001      45.045001      0.9177908     -212.68753     -183.28155     -441.19096    
     28500   57000          97.071771      210.43004     -1488.4483     -1768.3794      1041.3797     -2809.7591      356.74225      408.08179      1179.3463      0             -4753.9294      0              0             -151.00383      91215.264      45.014853      45.014853      45.014853      0.91963603     119.53061      5.8580036      505.90151    
     29000   58000          99.195077     -193.31132     -1972.9831     -1714.493       1064.1584     -2778.6514      369.84006      397.11425      1184.9792      0             -4730.5849      0              0             -150.22591      91687.603      45.09242       45.09242       45.09242       0.91489842     65.708008     -356.39431     -289.24765    
     29500   59000          101.19785      61.207292     -1598.7204     -1680.1534      1085.644      -2765.7974      369.14359      412.90632      1191.7219      0             -4739.5692      0              0             -150.98528      91226.469      45.016697      45.016697      45.016697      0.91952308     323.05435     -136.19781     -3.2346629    
     30000   60000          98.244314     -139.73571     -1921.0912     -1734.5047      1053.9586     -2788.4634      358.45324      399.38911      1194.7388      0             -4741.0445      0              0             -150.43832      91558.146      45.071187      45.071187      45.071187      0.91619203    -77.886272     -354.87193      13.551074    
     30500   61000          100.19305      99.683103     -1589.2139     -1721.698       1074.8646     -2796.5627      369.71233      399.49192      1188.754       0             -4754.5209      0              0             -151.14336      91131.053      45.000996      45.000996      45.000996      0.92048584    -103.26882      526.55928     -124.24115    
     31000   62000          99.64649       156.9717      -1519.8466     -1728.4184      1069.0011     -2797.4195      365.5067       404.80405      1194.7145      0             -4762.4447      0              0             -151.18101      91108.36       44.997261      44.997261      44.997261      0.92071511     807.17203     -167.11666     -169.14028    
     31500   63000          101.81614     -173.65305     -1934.8696     -1703.5185      1092.277      -2795.7954      369.46525      401.78274      1180.4675      0             -4747.5109      0              0             -150.77946      91350.999      45.037171      45.037171      45.037171      0.91826958    -532.80775      375.45659     -363.60799    
     32000   64000          98.737156      255.20987     -1400.9795     -1739.7878      1059.2458     -2799.0337      362.10149      417.13267      1181.42        0             -4759.6879      0              0             -151.31249      91029.194      44.984224      44.984224      44.984224      0.92151584     155.96434      590.18239      19.48289     
     32500   65000          97.760948      162.15957     -1532.7997     -1749.2731      1048.7731     -2798.0462      361.01546      389.62449      1194.1736      0             -4742.8598      0              0             -150.47682      91534.724      45.067343      45.067343      45.067343      0.91642647     197.45882     -104.85908      393.87897    
     33000   66000          98.061056      355.17676     -1240.5172     -1714.7153      1051.9927     -2766.708       378.05649      405.45068      1173.3868      0             -4723.602       0              0             -150.45825      91546.02       45.069197      45.069197      45.069197      0.91631338     745.23913      276.98294      43.308192    
     33500   67000          98.644232      26.289804     -1676.9282     -1711.9961      1058.2489     -2770.245       377.68308      406.34818      1184.6788      0             -4738.9551      0              0             -150.59435      91463.283      45.055616      45.055616      45.055616      0.91714228     163.70923      121.97834     -206.81815    
     34000   68000          96.92427       266.03709     -1408.9947     -1763.1586      1039.7973     -2802.9559      370.90886      393.70501      1177.0747      0             -4744.6445      0              0             -150.89306      91282.222      45.025865      45.025865      45.025865      0.91896146     194.03803      251.04134      353.03191    
     34500   69000          99.686228      93.948885     -1589.1694     -1713.9907      1069.4274     -2783.4181      362.36858      409.04917      1197.4017      0             -4752.2376      0              0             -151.1939       91100.596      44.995983      44.995983      44.995983      0.92079358     420.33808      200.61824     -339.10967    
     35000   70000          100.02165     -132.22246     -1897.4533     -1721.5546      1073.0258     -2794.5805      374.84805      401.46452      1172.9072      0             -4743.8002      0              0             -150.99896      91218.205      45.015337      45.015337      45.015337      0.91960638    -41.0832       -337.44317     -18.141005    
     35500   71000          102.10757     -352.82577     -2152.7114     -1682.7936      1095.4034     -2778.197       365.7309       411.24698      1189.2677      0             -4744.4425      0              0             -150.82374      91324.175      45.032762      45.032762      45.032762      0.9185393     -401.29915     -549.22639     -107.95176    
     36000   72000          100.0252      -440.43154     -2304.296      -1718.3309      1073.0639     -2791.3948      379.53375      382.97676      1185.4995      0             -4739.4048      0              0             -150.98647      91225.75       45.016578      45.016578      45.016578      0.91953033    -401.62028     -79.183672     -840.49068    
     36500   73000          99.255025      17.088803     -1672.8744     -1695.6292      1064.8015     -2760.4307      380.61119      403.06251      1190.5797      0             -4734.6841      0              0             -150.85862      91303.06       45.029291      45.029291      45.029291      0.91875172     492.77306     -240.06242     -201.44423    
     37000   74000          100.408        193.4819      -1457.3587     -1714.8847      1077.1705     -2792.0552      362.6483       403.23971      1186.6501      0             -4744.5934      0              0             -150.92133      91265.126      45.023054      45.023054      45.023054      0.9191336      388.08985      603.04485     -410.68901    
     37500   75000          98.094759      206.91904     -1416.443      -1692.7774      1052.3542     -2745.1316      386.78288      412.34913      1188.3081      0             -4732.5717      0              0             -150.41699      91571.132      45.073318      45.073318      45.073318      0.9160621      213.39643      284.27717      123.08351    
     38000   76000          101.15038     -194.56011     -1958.813      -1699.78        1085.1347     -2784.9147      368.01319      405.25128      1192.1793      0             -4750.3585      0              0             -150.87945      91290.454      45.027219      45.027219      45.027219      0.91887858    -98.130614     -291.02403     -194.52567    
     38500   77000          97.41196      -351.351       -2221.8241     -1754.4787      1045.0292     -2799.5079      359.41438      406.3164       1187.5934      0             -4752.832       0              0             -151.02002      91205.487      45.013245      45.013245      45.013245      0.91973462    -435.22375      3.7804317     -622.60969    
     39000   78000          99.81476      -46.599798     -1794.2205     -1732.1457      1070.8063     -2802.952       352.53321      390.36492      1201.704       0             -4747.5542      0              0             -150.79971      91338.731      45.035155      45.035155      45.035155      0.91839292     508.32073     -502.09517     -146.02495    
     39500   79000          101.43046      478.94674     -1045.0901     -1681.1872      1088.1394     -2769.3266      369.96549      418.67944      1189.392       0             -4747.3636      0              0             -151.24993      91066.848      44.990426      44.990426      44.990426      0.92113481     583.559        760.57314      92.708076    
     40000   80000          102.96762     -216.39838     -1975.1422     -1686.3781      1104.63       -2791.0081      365.32426      407.00682      1181.1999      0             -4744.5391      0              0             -150.53666      91498.339      45.061371      45.061371      45.061371      0.91679089    -298.97773     -351.36211      1.1446932    
     40500   81000          99.194111      380.19803     -1236.9661     -1742.4394      1064.148      -2806.5874      363.00406      404.80313      1183.9673      0             -4758.3619      0              0             -151.09253      91161.713      45.006043      45.006043      45.006043      0.92017625     630.4095       406.83484      103.34974    
     41000   82000          98.904856      183.22162     -1470.6708     -1713.9758      1061.0449     -2775.0207      376.22035      414.11197      1189.9505      0             -4755.3035      0              0             -151.27151      91053.852      44.988285      44.988285      44.988285      0.92126628     157.7862       185.96039      205.91825    
     41500   83000          101.91481     -165.57987     -1919.9315     -1699.5713      1093.3354     -2792.9067      371.82493      400.75858      1185.301       0             -4750.7912      0              0             -150.94045      91253.563      45.021153      45.021153      45.021153      0.91925007    -129.31921      38.642274     -406.06266    
     42000   84000          99.678513      144.84299     -1532.7885     -1724.9877      1069.3446     -2794.3323      370.95962      396.67682      1187.1854      0             -4749.1541      0              0             -151.38304      90986.772      44.977235      44.977235      44.977235      0.92194548     17.026326      301.80502      115.69761    
     42500   85000          101.03288      61.089029     -1630.7017     -1712.0025      1083.8742     -2795.8767      374.90139      412.8709       1156.1106      0             -4739.7595      0              0             -150.93838      91254.816      45.021359      45.021359      45.021359      0.91923744     528.12024     -328.26257     -16.590589    
     43000   86000          100.79748      50.078118     -1617.7384     -1684.488       1081.3488     -2765.8368      382.50715      416.91379      1183.7267      0             -4748.9844      0              0             -150.70615      91395.433      45.044472      45.044472      45.044472      0.91782315     5.954933       125.85207      18.427348    
     43500   87000          99.903172      561.83987     -973.6405      -1721.6205      1071.7548     -2793.3752      358.08396      414.8674       1183.7276      0             -4750.0542      0              0             -150.88774      91285.443      45.026395      45.026395      45.026395      0.91892903     647.45586      552.20337      485.86037    
     44000   88000          96.658085      6.2436684     -1746.8016     -1755.09        1036.9417     -2792.0317      361.37835      415.56153      1181.0335      0             -4750.0051      0              0             -151.3218       91023.591      44.983301      44.983301      44.983301      0.92157255     110.07752     -183.91745      92.570934    
     44500   89000          98.714462     -450.76375     -2340.3512     -1739.7623      1059.0024     -2798.7647      350.47868      400.49529      1182.4098      0             -4732.1485      0              0             -150.76589      91359.217      45.038521      45.038521      45.038521      0.91818698    -410.50814     -242.08238     -699.70072    
     45000   90000          98.918627      45.844421     -1640.2559     -1701.3179      1061.1926     -2762.5105      376.13903      415.86082      1191.9803      0             -4746.4906      0              0             -150.81602      91328.854      45.033531      45.033531      45.033531      0.91849224     442.60937     -447.79202      142.71591    
     45500   91000          100.22523     -240.39169     -2037.3212     -1717.4503      1075.2098     -2792.6601      371.92434      406.73682      1197.2747      0             -4768.596       0              0             -150.96492      91238.77       45.01872       45.01872       45.01872       0.91939911    -22.900873     -446.22249     -252.05171    
     46000   92000          101.86476      8.3131234     -1676.6568     -1687.6981      1092.7985     -2780.4967      373.21717      399.18395      1190.4141      0             -4743.3119      0              0             -151.24203      91071.599      44.991208      44.991208      44.991208      0.92108675     253.69914      207.2823      -436.04207    
     46500   93000          101.14914      224.92632     -1395.7588     -1694.3261      1085.1214     -2779.4475      376.79137      395.02764      1185.7154      0             -4736.9819      0              0             -151.33151      91017.752      44.982339      44.982339      44.982339      0.92163168     294.12024      162.99098      217.66773    
     47000   94000          101.27718      293.09475     -1330.3345     -1719.8677      1086.495      -2806.3627      364.50629      379.42117      1187.306       0             -4737.5961      0              0             -151.14539      91129.83       45.000795      45.000795      45.000795      0.92049819     246.20309      11.055986      622.02517    
     47500   95000          98.461004      265.9143      -1405.5892     -1758.8077      1056.2833     -2815.0909      371.02473      388.37802      1180.4308      0             -4754.9245      0              0             -151.2271       91080.594      44.992689      44.992689      44.992689      0.92099579     486.43284      558.57385     -247.2638     
     48000   96000          98.249494     -166.65203     -1942.9394     -1721.0261      1054.0142     -2775.0403      369.25196      391.46323      1199.6585      0             -4735.414       0              0             -150.85463      91305.478      45.029689      45.029689      45.029689      0.91872739    -605.45879      134.10727     -28.604568    
     48500   97000          102.85405      315.70605     -1259.628      -1680.9541      1103.4116     -2784.3656      368.09294      411.03906      1177.9224      0             -4741.4201      0              0             -150.52059      91508.103      45.062974      45.062974      45.062974      0.91669307     539.62146      320.15179      87.344896    
     49000   98000          97.885595      111.94794     -1576.6397     -1725.8028      1050.1103     -2775.9132      369.95309      399.4031       1199.9829      0             -4745.2523      0              0             -150.75994      91362.828      45.039115      45.039115      45.039115      0.91815069     339.05498      470.06999     -473.28115    
     49500   99000          100.69402     -80.069437     -1824.6301     -1717.9053      1080.2389     -2798.1442      360.19698      389.65772      1192.2269      0             -4740.2258      0              0             -150.70689      91394.983      45.044398      45.044398      45.044398      0.91782766     166.40143      96.068009     -502.67775    
     50000   100000         100.24331     -452.21329     -2291.4554     -1688.7073      1075.4037     -2764.1111      373.29366      411.15275      1197.436       0             -4745.9935      0              0             -150.70889      91393.773      45.044199      45.044199      45.044199      0.91783982    -424.49634     -406.25048     -525.89307    
     50500   101000         101.53695      106.12231     -1572.8074     -1714.2845      1089.2818     -2803.5663      359.9326       394.36762      1189.564       0             -4747.4305      0              0             -150.67871      91412.077      45.047206      45.047206      45.047206      0.91765603     416.96368     -211.53987      112.94313    
     51000   102000         98.556886     -56.021916     -1808.0121     -1733.298       1057.3119     -2790.6099      360.94495      412.38048      1192.9266      0             -4756.8619      0              0             -150.62133      91446.899      45.052925      45.052925      45.052925      0.91730659    -230.4029       321.45548     -259.11833    
     51500   103000         99.838719     -217.96041     -1998.0818     -1708.6535      1071.0633     -2779.7168      372.45925      398.49675      1189.331       0             -4740.0038      0              0             -151.27532      91051.561      44.987908      44.987908      44.987908      0.92128946    -123.83365     -227.55827     -302.48931    
     52000   104000         99.196668      177.59754     -1473.9211     -1709.5791      1064.1754     -2773.7545      366.19026      400.93168      1208.5283      0             -4749.4047      0              0             -151.38615      90984.902      44.976927      44.976927      44.976927      0.92196443     766.33726     -16.721596     -216.82304    
     52500   105000         100.52205      311.79678     -1317.8133     -1733.8293      1078.394      -2812.2233      355.55372      395.89947      1173.079       0             -4736.7555      0              0             -150.55421      91487.669      45.05962       45.05962       45.05962       0.91689781     1007.6152     -47.112719     -25.112151    
     53000   106000         97.291011      374.63685     -1257.1971     -1755.4354      1043.7317     -2799.1671      370.02408      394.95529      1176.2186      0             -4740.3651      0              0             -151.04443      91190.742      45.010819      45.010819      45.010819      0.91988333     453.15714      538.97585      131.77757    
     53500   107000         99.832652     -262.15081     -2082.8159     -1734.0767      1070.9982     -2805.0749      361.83376      389.91254      1184.9098      0             -4741.7311      0              0             -151.00166      91216.573      45.015069      45.015069      45.015069      0.91962284     78.348554     -218.94349     -645.85748    
     54000   108000         102.30105     -378.65043     -2194.9112     -1692.2597      1097.479      -2789.7388      359.48742      399.61916      1193.9615      0             -4742.8069      0              0             -151.32228      91023.303      44.983254      44.983254      44.983254      0.92157547    -408.21631     -418.33002     -309.40496    
     54500   109000         99.513573      231.13997     -1400.1355     -1708.2971      1067.5752     -2775.8722      374.66345      399.0454       1201.3812      0             -4750.9623      0              0             -150.67039      91417.125      45.048035      45.048035      45.048035      0.91760536     143.97446      422.61696      126.82849    
     55000   110000         98.680915      424.54051     -1179.1581     -1742.9593      1058.6425     -2801.6018      356.93606      402.3835       1189.0712      0             -4749.9926      0              0             -151.26014      91060.697      44.989413      44.989413      44.989413      0.92119703     400.97406      735.29831      137.34915    
     55500   111000         98.673526      231.02678     -1439.642      -1746.1573      1058.5632     -2804.7205      357.91582      407.09956      1186.9175      0             -4756.6534      0              0             -151.40549      90973.281      44.975012      44.975012      44.975012      0.9220822      461.40848      81.201187      150.47065    
     56000   112000         98.037846      105.66006     -1582.1275     -1722.7056      1051.7437     -2774.4493      372.42014      410.83904      1190.027       0             -4747.7355      0              0             -150.98175      91228.604      45.017048      45.017048      45.017048      0.91950156     146.74087     -225.43888      395.67819    
     56500   113000         100.89843      112.33275     -1552.8746     -1702.5119      1082.4319     -2784.9438      370.40915      411.27418      1170.9662      0             -4737.5934      0              0             -150.79879      91339.285      45.035246      45.035246      45.035246      0.91838734     214.48842      12.615326      109.8945     
     57000   114000         102.05342      114.8939      -1536.9506     -1690.6244      1094.8225     -2785.4469      365.19119      401.0642       1182.0196      0             -4733.7219      0              0             -150.18564      91712.191      45.09645       45.09645       45.09645       0.91465314    -74.182614      22.363166      396.50115    
     57500   115000         101.83799      203.31647     -1435.735      -1706.2382      1092.5114     -2798.7496      359.51549      403.20373      1188.9168      0             -4750.3856      0              0             -150.98418      91227.137      45.016806      45.016806      45.016806      0.91951635     366.86976      372.30954     -129.2299     
     58000   116000         98.560439     -55.936437     -1797.5194     -1723.2237      1057.35       -2780.5738      364.54019      426.83339      1180.8189      0             -4752.7662      0              0             -151.23855      91073.698      44.991554      44.991554      44.991554      0.92106552     414.14776     -399.93551     -182.02156    
     58500   117000         99.026235     -2.8678288     -1706.9587     -1703.1402      1062.347      -2765.4873      372.12924      405.4233       1197.5524      0             -4740.5922      0              0             -150.86727      91297.827      45.028431      45.028431      45.028431      0.91880439    -64.818593     -376.51605      432.73116    
     59000   118000         100.35219     -181.47564     -1962.6904     -1720.165       1076.5718     -2796.7368      374.66772      400.79782      1172.2692      0             -4744.4716      0              0             -150.3116       91635.336      45.08385       45.08385       45.08385       0.91542027    -77.965445     -85.737817     -380.72366    
     59500   119000         97.881097      49.427614     -1655.8441     -1721.5422      1050.0621     -2771.6043      363.80412      420.13909      1188.3416      0             -4743.8891      0              0             -151.12919      91139.601      45.002403      45.002403      45.002403      0.9203995      136.65893     -199.67343      211.29734    
     60000   120000         100.41111      18.962598     -1734.6513     -1759.892       1077.2039     -2837.0959      342.60624      395.07873      1174.1312      0             -4748.912       0              0             -150.91341      91269.917      45.023842      45.023842      45.023842      0.91908535     86.242846      87.839892     -117.19494    
     60500   121000         101.78942      174.48247     -1474.9392     -1707.6762      1091.9903     -2799.6665      376.09477      398.21459      1163.5898      0             -4737.5656      0              0             -150.59752      91461.361      45.0553        45.0553        45.0553        0.91716155     706.98234     -603.09475      419.55982    
     61000   122000         101.47421     -18.730181     -1741.5498     -1716.6832      1088.6087     -2805.2919      366.28354      406.25014      1186.453       0             -4764.2786      0              0             -151.30631      91032.913      44.984837      44.984837      44.984837      0.92147819     171.33817      112.1119      -339.64061    
     61500   123000         98.848335     -99.905093     -1856.3155     -1723.3053      1060.4386     -2783.7438      374.51818      404.24515      1176.7657      0             -4739.2729      0              0             -150.88078      91289.654      45.027087      45.027087      45.027087      0.91888664     757.53218     -597.58249     -459.66497    
     62000   124000         102.30234     -229.00252     -1999.9287     -1694.5559      1097.4929     -2792.0488      364.20381      406.16434      1167.4594      0             -4729.8763      0              0             -150.64032      91435.372      45.051032      45.051032      45.051032      0.91742223    -670.17038     -12.934924     -3.9022575    
     62500   125000         101.14927      199.81703     -1437.6646     -1703.4917      1085.1228     -2788.6145      383.57302      387.96583      1178.6471      0             -4738.8005      0              0             -150.99574      91220.151      45.015657      45.015657      45.015657      0.91958677     621.71051     -79.378197      57.118771    
     63000   126000         96.646385     -171.98654     -2005.8909     -1776.9147      1036.8162     -2813.7309      359.53366      396.70129      1181.6134      0             -4751.5792      0              0             -150.88134      91289.316      45.027032      45.027032      45.027032      0.91889004     429.57935     -329.33201     -616.20696    
     63500   127000         100.58125      210.23903     -1424.4889     -1704.3192      1079.0291     -2783.3483      375.0419       407.45187      1185.1792      0             -4751.0213      0              0             -150.92111      91265.255      45.023075      45.023075      45.023075      0.91913229    -145.07959      317.1429       458.65377    
     64000   128000         99.796696      398.8179      -1188.1954     -1718.6513      1070.6125     -2789.2638      363.42397      410.86053      1183.0436      0             -4746.5919      0              0             -151.02773      91200.826      45.012478      45.012478      45.012478      0.91978162     729.01664      500.12223     -32.685182    
     64500   129000         101.66292     -137.5267      -1894.9762     -1711.7168      1090.6332     -2802.35        359.87684      400.15106      1184.1539      0             -4746.5318      0              0             -150.74819      91369.946      45.040284      45.040284      45.040284      0.91807916    -299.53284     -63.496341     -49.550907    
     65000   130000         99.11713      -74.411158     -1804.0938     -1704.8749      1063.3222     -2768.197       370.52136      398.54906      1198.8117      0             -4736.0792      0              0             -150.65194      91428.323      45.049874      45.049874      45.049874      0.91749297    -238.50904     -62.074592      77.350158    
     65500   131000         99.234237     -198.68416     -2026.3808     -1761.4672      1064.5785     -2826.0457      362.869        383.34029      1168.3387      0             -4740.5936      0              0             -150.65735      91425.037      45.049335      45.049335      45.049335      0.91752594     185.17787     -566.90665     -214.32372    
     66000   132000         99.582704      109.20419     -1600.6233     -1745.9531      1068.3168     -2814.2699      356.78673      382.48537      1186.7236      0             -4740.2656      0              0             -150.94403      91251.401      45.020797      45.020797      45.020797      0.91927184     84.709564     -37.032006      279.93501    
     66500   133000         98.470706      58.497682     -1656.4656     -1734.3145      1056.3874     -2790.7019      365.26297      400.89875      1196.1835      0             -4753.0471      0              0             -150.94466      91251.021      45.020735      45.020735      45.020735      0.91927567     278.76139      426.89559     -530.16393    
     67000   134000         100.81531     -197.34193     -1970.2427     -1706.9821      1081.5402     -2788.5223      369.25393      395.5894       1188.5236      0             -4741.8892      0              0             -150.57916      91472.513      45.057131      45.057131      45.057131      0.91704973    -127.1573      -250.26784     -214.60066    
     67500   135000         98.124485      101.6667      -1619.0638     -1754.2434      1052.6731     -2806.9165      362.90979      384.87021      1189.8969      0             -4744.5935      0              0             -151.0772       91170.964      45.007565      45.007565      45.007565      0.92008289     147.70849      149.92828      7.363347     
     68000   136000         101.68694      218.75051     -1420.0017     -1710.2604      1090.8909     -2801.1513      364.38509      403.8398       1182.514       0             -4751.8902      0              0             -151.38928      90983.023      44.976617      44.976617      44.976617      0.92198347     471.47907     -182.25713      367.0296     
     68500   137000         98.289703      110.75018     -1596.3046     -1743.7442      1054.4456     -2798.1897      373.94167      397.63055      1186.0965      0             -4755.8584      0              0             -150.89049      91283.781      45.026122      45.026122      45.026122      0.91894576     116.39431      287.23743     -71.381202    
     69000   138000         98.818134      290.48812     -1342.1338     -1728.3213      1060.1146     -2788.4358      357.69533      417.01218      1177.3466      0             -4740.49        0              0             -151.09901      91157.806      45.005399      45.005399      45.005399      0.92021569     285.85906      645.18507     -59.579779    
     69500   139000         101.72129     -42.244076     -1744.5011     -1688.1927      1091.2594     -2779.4521      368.28715      398.35213      1196.6123      0             -4742.7037      0              0             -150.70384      91396.835      45.044702      45.044702      45.044702      0.91780906     341.51272     -78.484764     -389.76018    
     70000   140000         100.90072     -475.8189      -2354.1686     -1719.2952      1082.4564     -2801.7516      358.54649      398.6521       1174.8085      0             -4733.7587      0              0             -150.55178      91489.146      45.059862      45.059862      45.059862      0.91688301    -413.17371     -344.59098     -669.69202    
     70500   141000         99.52661      -285.46813     -2085.6005     -1704.1175      1067.715      -2771.8325      368.18294      404.96662      1189.3306      0             -4734.3127      0              0             -150.31897      91630.845      45.083113      45.083113      45.083113      0.91546513     314.88347     -371.58327     -799.7046     
     71000   142000         99.239417      14.906569     -1722.6184     -1742.4995      1064.634      -2807.1336      351.90911      405.89405      1177.3817      0             -4742.3184      0              0             -150.6154       91450.5        45.053517      45.053517      45.053517      0.91727048     198.64466     -17.893151     -136.03181    
     71500   143000         98.483462     -83.66241      -1827.5025     -1716.2303      1056.5242     -2772.7545      375.66888      405.1567       1200.9257      0             -4754.5058      0              0             -151.03405      91197.009      45.01185       45.01185       45.01185       0.91982012     62.530155     -96.736598     -216.78079    
     72000   144000         98.455612     -46.768776     -1816.4989     -1754.1616      1056.2254     -2810.3871      373.44162      392.34414      1167.6848      0             -4743.8577      0              0             -150.70906      91393.667      45.044182      45.044182      45.044182      0.91784088    -318.24833     -8.6679063      186.60991    
     72500   145000         100.02313      332.70961     -1266.7492     -1709.5408      1073.0417     -2782.5825      362.8044       412.49794      1187.4183      0             -4745.3032      0              0             -150.93754      91255.321      45.021442      45.021442      45.021442      0.91923235     719.65383      29.772908      248.70211    
     73000   146000         102.35645      259.34377     -1349.4734     -1695.083       1098.0734     -2793.1564      376.41516      389.87449      1181.4197      0             -4740.8657      0              0             -150.7375       91376.424      45.041349      45.041349      45.041349      0.91801408    -31.575923      433.18849      376.41874    
     73500   147000         97.827356      200.43789     -1466.0307     -1732.7172      1049.4855     -2782.2027      371.12169      404.28871      1188.7206      0             -4746.3337      0              0             -150.9768       91231.595      45.01754       45.01754       45.01754       0.91947141    -99.422717      412.77908      287.9573     
     74000   148000         100.43392      323.25951     -1295.3715     -1725.6137      1077.4486     -2803.0623      353.12524      398.52943      1190.252       0             -4744.9689      0              0             -150.92796      91261.116      45.022395      45.022395      45.022395      0.91917398     619.63687      159.97844      190.16322    
     74500   149000         101.29966     -250.79404     -2036.0101     -1702.5762      1086.7362     -2789.3123      375.35581      398.68514      1189.1984      0             -4752.5516      0              0             -151.09107      91162.598      45.006188      45.006188      45.006188      0.92016732    -311.2685      -135.83821     -305.27541    
     75000   150000         97.125272      268.69316     -1415.3025     -1771.1758      1041.9536     -2813.1294      358.17899      407.32781      1174.317       0             -4752.9532      0              0             -151.66753      90816.106      44.949096      44.949096      44.949096      0.92367805     471.68549      335.96849     -1.5744992    
     75500   151000         102.29802      533.05694     -980.32264     -1690.4862      1097.4465     -2787.9328      367.72649      395.61579      1188.5327      0             -4739.8077      0              0             -150.78099      91350.072      45.037018      45.037018      45.037018      0.9182789      1079.6999      532.79943     -13.328544    
     76000   152000         101.08005      555.33056     -983.49164     -1721.609       1084.3802     -2805.9892      375.38233      386.43356      1176.1181      0             -4743.9232      0              0             -151.13238      91137.677      45.002087      45.002087      45.002087      0.92041893     492.48321      551.09141      622.41707    
     76500   153000         100.67941     -11.504576     -1703.9123     -1688.6206      1080.0822     -2768.7028      380.91865      402.12413      1195.7093      0             -4747.4548      0              0             -151.12809      91140.263      45.002512      45.002512      45.002512      0.92039282    -144.9214       2.8625331      107.54514    
     77000   154000         100.58125      44.938066     -1646.3538     -1706.1711      1079.0291     -2785.2002      363.62261      394.33092      1199.8098      0             -4742.9636      0              0             -150.9104       91271.732      45.024141      45.024141      45.024141      0.91906707    -106.94651     -5.4238566      247.18456    
     77500   155000         98.929703      135.71013     -1544.5674     -1725.6838      1061.3115     -2786.9953      370.39891      404.13704      1179.3813      0             -4740.9125      0              0             -150.5171       91510.226      45.063323      45.063323      45.063323      0.9166718      111.76658     -232.91799      528.2818     
     78000   156000         99.431631      23.031198     -1707.5507     -1738.1603      1066.6961     -2804.8564      364.20006      398.56856      1181.5281      0             -4749.1531      0              0             -151.14402      91130.66       45.000932      45.000932      45.000932      0.9204898      222.95315      381.34368     -535.20323    
     78500   157000         101.02172      329.22544     -1275.4568     -1712.8266      1083.7545     -2796.5811      362.6451       390.851        1194.0969      0             -4744.174       0              0             -151.2084       91091.857      44.994544      44.994544      44.994544      0.92088191    -230.80657      469.98382      748.49908    
     79000   158000         100.27734      13.523727     -1700.513      -1718.5402      1075.7688     -2794.3091      360.63285      399.02019      1186.3281      0             -4740.2902      0              0             -150.6946       91402.439      45.045623      45.045623      45.045623      0.91775279     383.09241     -46.755191     -295.76604    
     79500   159000         102.16348     -226.21744     -1991.107      -1689.616       1096.0032     -2785.6193      366.27064      410.07269      1169.7022      0             -4731.6648      0              0             -150.72425      91384.459      45.042669      45.042669      45.042669      0.91793336    -240.59705     -106.36463     -331.69066    
     80000   160000         100.23593     -15.760391     -1729.1661     -1708.1633      1075.3245     -2783.4878      369.99023      391.39573      1186.9613      0             -4731.8351      0              0             -150.73694      91376.767      45.041405      45.041405      45.041405      0.91801063     110.06386      180.05321     -337.39824    
     80500   161000         101.54831     -46.979086     -1766.526      -1703.9185      1089.4037     -2793.3222      373.00125      390.36533      1181.7615      0             -4738.4503      0              0             -150.73325      91379.002      45.041772      45.041772      45.041772      0.91798818    -158.08824      137.46136     -120.31038    
     81000   162000         99.862721      76.296998     -1631.9522     -1733.5308      1071.3208     -2804.8516      365.31896      400.72626      1181.8816      0             -4752.7784      0              0             -150.88176      91289.061      45.02699       45.02699       45.02699       0.91889261    -11.263319      358.48637     -118.33206    
     81500   163000         100.14561      46.61746      -1646.3227     -1708.2851      1074.3556     -2782.6407      377.24135      410.38656      1184.7954      0             -4755.064       0              0             -151.13024      91138.967      45.002299      45.002299      45.002299      0.92040591     220.58698      152.02167     -232.75627    
     82000   164000         101.12174      109.19723     -1573.9015     -1719.3199      1084.8274     -2804.1474      362.28299      386.14934      1185.5655      0             -4738.1452      0              0             -150.8425       91312.821      45.030896      45.030896      45.030896      0.91865351     13.193859      144.98028      169.41756    
     82500   165000         100.43203     -84.495387     -1828.5958     -1716.2633      1077.4283     -2793.6917      369.16163      404.88274      1176.9225      0             -4744.6585      0              0             -151.09808      91158.366      45.005492      45.005492      45.005492      0.92021004     325.65584      141.02651     -720.16852    
     83000   166000         96.628677     -34.264947     -1778.108      -1732.3988      1036.6262     -2769.025       374.80256      395.77939      1187.5753      0             -4727.1823      0              0             -150.58378      91469.703      45.05667       45.05667       45.05667       0.9170779     -115.53866     -302.56017      315.30399    
     83500   167000         101.65575      257.79305     -1342.4787     -1684.5724      1090.5563     -2775.1287      375.42687      406.03263      1185.9931      0             -4742.5814      0              0             -151.37616      90990.904      44.977916      44.977916      44.977916      0.92190362    -104.84138      436.24307      441.97744    
     84000   168000         100.03839      40.371385     -1672.2596     -1725.952       1073.2054     -2799.1574      359.60435      399.39084      1189.0789      0             -4747.2314      0              0             -151.03998      91193.434      45.011262      45.011262      45.011262      0.91985618     145.36301      393.17452     -417.42338    
     84500   169000         99.257412      188.86816     -1470.3534     -1722.0207      1064.8271     -2786.8478      384.00634      410.22346      1158.134       0             -4739.2115      0              0             -150.75207      91367.597      45.039898      45.039898      45.039898      0.91810277     292.48589      274.34234     -0.22376095   
     85000   170000         97.870384     -338.85149     -2175.2522     -1722.6337      1049.9472     -2772.5809      362.60124      421.88737      1177.2883      0             -4734.3578      0              0             -150.38637      91589.775      45.076376      45.076376      45.076376      0.91587564    -28.699547     -381.37606     -606.47887    
     85500   171000         99.838047      84.718029     -1631.0273     -1743.5964      1071.0561     -2814.6525      366.07076      394.83044      1175.2649      0             -4750.8186      0              0             -151.17781      91110.288      44.997578      44.997578      44.997578      0.92069562     93.381212     -117.93555      278.70842    
     86000   172000         99.009021     -294.93099     -2115.3547     -1722.4904      1062.1624     -2784.6528      370.28799      403.40642      1182.3833      0             -4740.7304      0              0             -150.80271      91336.912      45.034856      45.034856      45.034856      0.9184112     -167.20482     -256.08108     -461.50707    
     86500   173000         99.949677     -639.87002     -2575.4422     -1720.7197      1072.2537     -2792.9734      363.22076      401.42166      1170.2963      0             -4727.9121      0              0             -150.38274      91591.988      45.07674       45.07674       45.07674       0.91585351    -474.21319     -680.37335     -765.02353    
     87000   174000         98.753513     -144.7892      -1904.4422     -1710.8227      1059.4213     -2770.244       367.73524      407.73886      1176.688       0             -4722.4061      0              0             -150.21679      91693.175      45.093333      45.093333      45.093333      0.91484283    -52.245563     -561.89932      179.77728    
     87500   175000         101.04407      186.19292     -1466.5163     -1714.6399      1083.9943     -2798.6342      360.76442      393.61675      1183.1449      0             -4736.1602      0              0             -150.73926      91375.357      45.041173      45.041173      45.041173      0.91802479     432.53518      201.56058     -75.516998    
     88000   176000         99.680871     -164.87358     -1935.9211     -1715.5985      1069.3699     -2784.9684      378.94083      402.38734      1172.1032      0             -4738.3998      0              0             -150.32223      91628.853      45.082786      45.082786      45.082786      0.91548503    -667.71033     -20.493578      193.58317    
     88500   177000         100.11792     -140.78921     -1902.5738     -1714.9652      1074.0586     -2789.0237      370.00705      408.08874      1178.0946      0             -4745.2142      0              0             -150.74671      91370.845      45.040432      45.040432      45.040432      0.91807013    -120.30342      65.617025     -367.68124    
     89000   178000         98.780419     -17.609117     -1759.0076     -1735.5931      1059.71       -2795.3031      368.35589      395.48076      1190.3672      0             -4749.5069      0              0             -151.0724       91173.863      45.008042      45.008042      45.008042      0.92005363     275.49594     -190.04493     -138.27837    
     89500   179000         101.64508      126.5192      -1547.0302     -1715.2759      1090.4418     -2805.7177      362.99296      401.59431      1181.5204      0             -4751.8254      0              0             -151.05804      91182.531      45.009468      45.009468      45.009468      0.91996617    -65.478406     -90.614733      535.65073    
     90000   180000         98.632857     -282.46267     -2105.7996     -1729.8237      1058.1269     -2787.9506      374.94285      410.89768      1175.3058      0             -4749.0969      0              0             -150.915        91268.954      45.023684      45.023684      45.023684      0.91909505    -146.12111     -287.35691     -413.90998    
     90500   181000         97.399156     -284.53247     -2131.3897     -1752.3838      1044.8918     -2797.2756      354.6005       402.48872      1186.2006      0             -4740.5654      0              0             -150.80549      91335.226      45.034579      45.034579      45.034579      0.91842816    -215.4885      -327.72099     -310.38791    
     91000   182000         101.19434     -163.75372     -1916.6551     -1697.8375      1085.6063     -2783.4438      365.57488      406.58219      1176.0379      0             -4731.6387      0              0             -150.32812      91625.264      45.082198      45.082198      45.082198      0.91552089    -154.83743     -264.67777     -71.745957    
     91500   183000         98.368071      185.18238     -1473.3103     -1720.5135      1055.2863     -2775.7998      373.67779      408.84209      1180.128       0             -4738.4476      0              0             -150.47934      91533.193      45.067092      45.067092      45.067092      0.9164418      600.65018     -47.926776      2.8237446    
     92000   184000         99.112171     -185.01737     -1982.0662     -1735.5046      1063.269      -2798.7736      366.45249      394.00676      1183.3478      0             -4742.5806      0              0             -150.7365       91377.03       45.041448      45.041448      45.041448      0.91800799    -13.700153     -224.37592     -316.97602    
     92500   185000         101.18714      545.40678     -965.48684     -1690.623       1085.5291     -2776.1522      371.22641      423.56869      1178.9892      0             -4749.9365      0              0             -151.08882      91163.954      45.006411      45.006411      45.006411      0.92015363     349.44929      909.19297      377.57808    
     93000   186000         98.379993     -215.03561     -2033.959      -1747.6522      1055.4142     -2803.0664      367.90278      405.9772       1171.0512      0             -4747.9976      0              0             -150.87254      91294.638      45.027907      45.027907      45.027907      0.91883647    -150.04639     -309.92114     -185.1393     
     93500   187000         99.862451     -580.72389     -2486.4931     -1712.6291      1071.3179     -2783.947       372.52377      401.96755      1189.4166      0             -4747.8549      0              0             -150.74272      91373.259      45.040829      45.040829      45.040829      0.91804588    -417.70248     -545.94113     -778.52804    
     94000   188000         103.61685      376.25491     -1183.0672     -1684.5206      1111.5949     -2796.1155      378.00251      399.24999      1169.9534      0             -4743.3214      0              0             -150.72419      91384.497      45.042675      45.042675      45.042675      0.91793297     672.61488      264.30565      191.84418    
     94500   189000         101.26045      41.588186     -1668.0509     -1723.435       1086.3156     -2809.7506      373.27835      385.61223      1177.4756      0             -4746.1168      0              0             -150.83992      91314.384      45.031153      45.031153      45.031153      0.91863779    -125.0251       234.20577      15.583883    
     95000   190000         99.663181      210.46702     -1459.5722     -1738.7068      1069.1802     -2807.887       372.05617      404.02541      1172.1651      0             -4756.1337      0              0             -151.46132      90939.744      44.969485      44.969485      44.969485      0.92242225     486.23201      303.78117     -158.61213    
     95500   191000         98.280906     -61.407757     -1827.8755     -1746.2117      1054.3512     -2800.5629      364.31223      406.73418      1179.343       0             -4750.9523      0              0             -151.05159      91186.42       45.010108      45.010108      45.010108      0.91992693    -327.35757     -52.462697      195.597      
     96000   192000         101.67062      100.89001     -1571.5324     -1705.841       1090.7159     -2796.5569      389.11663      389.59804      1174.5743      0             -4749.8458      0              0             -150.89532      91280.854      45.02564       45.02564       45.02564       0.91897523     317.91911      223.24754     -238.49662    
     96500   193000         100.84003     -366.30602     -2207.4697     -1719.6084      1081.8054     -2801.4138      366.88019      396.87189      1166.4561      0             -4731.6219      0              0             -150.82699      91322.21       45.032439      45.032439      45.032439      0.91855906    -197.69824     -434.02789     -467.19191    
     97000   194000         101.63552      565.9905      -965.53981     -1719.7034      1090.3393     -2810.0427      372.64745      382.06862      1183.3842      0             -4748.143       0              0             -150.75612      91365.142      45.039495      45.039495      45.039495      0.91812743     549.2963       341.86576      806.80945    
     97500   195000         100.7923       533.75582     -1013.9812     -1723.6034      1081.2933     -2804.8967      368.5583       407.27473      1169.171       0             -4749.9007      0              0             -151.09385      91160.917      45.005911      45.005911      45.005911      0.92018429     871.8401       473.5452       255.88216    
     98000   196000         101.51662      346.77539     -1265.7412     -1726.4897      1089.0637     -2815.5534      365.27042      390.75715      1182.1005      0             -4753.6815      0              0             -151.18742      91104.499      44.996625      44.996625      44.996625      0.92075413     730.58683      251.81288      57.926479    
     98500   197000         98.828438      100.72417     -1623.6361     -1757.6944      1060.2251     -2817.9195      372.56036      372.99707      1178.9259      0             -4742.4029      0              0             -150.92855      91260.756      45.022336      45.022336      45.022336      0.91917761     440.83594     -19.161331     -119.5021     
     99000   198000         101.26718      730.72103     -739.59593     -1709.5544      1086.3878     -2795.9422      382.28065      393.0358       1186.8538      0             -4758.1124      0              0             -151.33167      91017.656      44.982323      44.982323      44.982323      0.92163265     1076.6183      548.88962      566.6552     
     99500   199000         100.42746      261.65849     -1395.4972     -1743.6562      1077.3793     -2821.0355      377.73974      386.78506      1167.3462      0             -4752.9065      0              0             -150.96928      91236.138      45.018287      45.018287      45.018287      0.91942563     361.33213      85.721934      337.9214     
    100000   200000         102.17413     -688.13835     -2621.6539     -1704.3514      1096.1175     -2800.4689      355.75827      407.71557      1179.974       0             -4743.9167      0              0             -150.69352      91403.097      45.045731      45.045731      45.045731      0.91774618    -804.73067     -447.02421     -812.66017    
    100500   201000         101.82576     -281.1608      -2058.1037     -1683.4448      1092.3802     -2775.8249      379.8874       397.42069      1188.7102      0             -4741.8433      0              0             -150.74747      91370.382      45.040356      45.040356      45.040356      0.91807478     67.755437     -434.37552     -476.86231    
    101000   202000         98.005212      288.53568     -1354.5747     -1738.8591      1051.3936     -2790.2527      373.40758      404.89075      1168.9887      0             -4737.5397      0              0             -150.82665      91322.414      45.032473      45.032473      45.032473      0.91855701     533.693        38.258336      293.6557     
    101500   203000         99.15764       4.2136683     -1719.2361     -1724.8386      1063.7568     -2788.5954      367.59486      397.86941      1195.4122      0             -4749.4718      0              0             -151.08022      91169.142      45.007265      45.007265      45.007265      0.92010128     412.75978      43.148055     -443.26683    
    102000   204000         97.92654       164.82597     -1508.4098     -1727.9042      1050.5496     -2778.4538      374.80674      403.5517       1190.242       0             -4747.0542      0              0             -150.8459       91310.762      45.030557      45.030557      45.030557      0.91867423    -108.32397     -20.907287      623.70915    
    102500   205000         101.23263      219.65486     -1397.224      -1690.2572      1086.0172     -2776.2744      384.37341      404.67562      1174.9652      0             -4740.2885      0              0             -150.57588      91474.505      45.057458      45.057458      45.057458      0.91702976     866.41737     -263.12911      55.676305    
    103000   206000         99.41331       63.114263     -1649.7609     -1733.982       1066.4996     -2800.4815      364.93251      400.65739      1168.446       0             -4734.5174      0              0             -150.53526      91499.19       45.061511      45.061511      45.061511      0.91678237     50.374616      513.50386     -374.53569    
    103500   207000         100.58773     -38.087873     -1747.853      -1697.3097      1079.0987     -2776.4083      379.12333      398.33808      1199.7513      0             -4753.6211      0              0             -151.37497      90991.619      44.978034      44.978034      44.978034      0.92189637     58.502219     -110.31293     -62.45291     
    104000   208000         100.21792      2.9083734     -1725.9167     -1729.7788      1075.1314     -2804.9101      362.17592      396.14663      1181.0776      0             -4744.3103      0              0             -151.27088      91054.232      44.988348      44.988348      44.988348      0.92126243     124.40875     -213.59271      97.909085    
    104500   209000         99.27164      -223.02878     -2001.6887     -1704.6691      1064.9797     -2769.6488      377.84401      408.38249      1189.4042      0             -4745.2795      0              0             -150.83675      91316.303      45.031468      45.031468      45.031468      0.91861848    -273.46137     -227.80712     -167.81785    
    105000   210000         101.02761      36.580582     -1648.3791     -1697.2254      1083.8177     -2781.0431      371.82985      408.94513      1175.8052      0             -4737.6233      0              0             -150.43545      91559.897      45.071474      45.071474      45.071474      0.91617451     466.20248      23.351642     -379.81237    
    105500   211000         101.23319      43.96452      -1624.2169     -1682.7658      1086.0231     -2768.7889      373.52727      409.62699      1174.1531      0             -4726.0963      0              0             -150.83951      91314.628      45.031193      45.031193      45.031193      0.91863533     441.23868     -116.87894     -192.46617    
    106000   212000         101.73829      203.94419     -1451.2394     -1722.94        1091.4418     -2814.3818      377.00918      376.98969      1176.7524      0             -4745.133       0              0             -150.78291      91348.907      45.036827      45.036827      45.036827      0.91829061    -87.970013      119.84329      579.95931    
    106500   213000         101.31741      56.604975     -1615.6474     -1691.1501      1086.9266     -2778.0768      367.98645      398.46636      1190.4516      0             -4734.9811      0              0             -150.59942      91460.203      45.05511       45.05511       45.05511       0.91717316     543.95265     -330.06773     -44.06999     
    107000   214000         99.201848     -152.37973     -1928.1922     -1725.5034      1064.231      -2789.7344      368.27019      390.42383      1186.729       0             -4735.1574      0              0             -151.01807      91206.661      45.013438      45.013438      45.013438      0.91972278    -430.44487      17.217663     -43.911989    
    107500   215000         98.895253     -200.68791     -2001.3496     -1733.3691      1060.9419     -2794.3109      364.35027      398.85623      1170.5857      0             -4728.1031      0              0             -150.43512      91560.094      45.071507      45.071507      45.071507      0.91617254     12.268886     -288.64014     -325.69248    
    108000   216000         99.097367      272.77954     -1358.7766     -1721.2574      1063.1101     -2784.3676      370.91324      400.30608      1199.509       0             -4755.0958      0              0             -151.1674       91116.562      44.998611      44.998611      44.998611      0.92063223     627.36533      330.60597     -139.63268    
    108500   217000         103.60026     -291.23898     -2067.2711     -1678.3008      1111.4169     -2789.7177      368.65794      399.66226      1175.7117      0             -4733.7497      0              0             -150.40574      91577.983      45.074442      45.074442      45.074442      0.91599357    -239.97082     -615.76451     -17.981607    
    109000   218000         98.235136      66.729457     -1632.1173     -1721.0064      1053.8602     -2774.8666      381.44384      418.02596      1168.3188      0             -4742.6552      0              0             -150.79967      91338.753      45.035158      45.035158      45.035158      0.9183927      68.891784      228.56516     -97.268567    
    109500   219000         102.77374      125.93948     -1494.8588     -1662.8088      1102.55       -2765.3588      389.25704      410.63188      1180.113       0             -4745.3607      0              0             -150.63065      91441.241      45.051996      45.051996      45.051996      0.91736335     33.586674      401.36345     -57.131678    
    110000   220000         99.341174     -101.56289     -1873.1418     -1737.6504      1065.7257     -2803.376       361.17225      399.14369      1179.2555      0             -4742.9475      0              0             -150.57559      91474.679      45.057487      45.057487      45.057487      0.91702802    -84.335195     -283.66331      63.309841    
    110500   221000         96.703047     -58.249852     -1836.2315     -1758.7933      1037.424      -2796.2174      363.25632      405.91367      1182.03        0             -4747.4174      0              0             -151.10235      91155.786      45.005067      45.005067      45.005067      0.92023608     518.30706     -365.33298     -327.72363    
    111000   222000         101.52711      229.3813      -1390.5393     -1695.979       1089.1763     -2785.1552      377.34507      405.46361      1184.5064      0             -4752.4703      0              0             -150.85648      91304.356      45.029504      45.029504      45.029504      0.91873868     328.02465      291.63613      68.483125    
    111500   223000         99.509306     -307.31014     -2138.84       -1729.1947      1067.5294     -2796.7241      369.4109       390.47679      1182.9342      0             -4739.546       0              0             -150.69551      91401.884      45.045532      45.045532      45.045532      0.91775836    -191.05038     -395.4836      -335.39645    
    112000   224000         101.83248     -130.98742     -1873.0408     -1698.7045      1092.4523     -2791.1568      366.84473      384.15724      1201.817       0             -4743.9757      0              0             -150.92915      91260.395      45.022276      45.022276      45.022276      0.91918124     31.058366     -517.39871      93.378087    
    112500   225000         100.73739     -295.34948     -2109.7379     -1716.0392      1080.7042     -2796.7434      367.2967       389.45548      1182.096       0             -4735.5916      0              0             -150.69664      91401.199      45.045419      45.045419      45.045419      0.91776524    -228.96886     -180.31922     -476.76034    
    113000   226000         103.48055      87.459897     -1564.3993     -1680.9129      1110.1326     -2791.0455      377.30386      403.42477      1187.4092      0             -4759.1834      0              0             -150.78691      91346.485      45.036429      45.036429      45.036429      0.91831496     342.64228     -232.99703      152.73444    
    113500   227000         98.944102      134.5909      -1578.1079     -1757.2735      1061.4659     -2818.7395      358.95819      399.4705       1167.8945      0             -4745.0627      0              0             -150.90104      91277.397      45.025072      45.025072      45.025072      0.91901003     270.62786      102.12472      31.02011     
    114000   228000         99.516214     -61.789516     -1811.3042     -1728.9152      1067.6035     -2796.5187      365.7783       383.42984      1183.9586      0             -4729.6854      0              0             -150.6527       91427.859      45.049798      45.049798      45.049798      0.91749763    -204.67359     -268.51994      287.82498    
    114500   229000         96.788256     -399.54633     -2294.9903     -1762.0321      1038.3382     -2800.3703      364.19807      401.74314      1174.9761      0             -4741.2876      0              0             -150.5932       91463.984      45.055731      45.055731      45.055731      0.91713524    -106.79952     -708.56253     -383.27693    
    115000   230000         100.38107      188.27837     -1465.1215     -1715.7756      1076.8817     -2792.6572      359.79342      423.62121      1165.1166      0             -4741.1885      0              0             -150.88883      91284.783      45.026286      45.026286      45.026286      0.91893567     764.6099       71.894974     -271.66976    
    115500   231000         99.702067      188.17414     -1473.3688     -1724.0866      1069.5973     -2793.684       381.75906      391.76124      1176.0846      0             -4743.2889      0              0             -150.76693      91358.587      45.038418      45.038418      45.038418      0.91819331     402.32333     -141.27734      303.47642    
    116000   232000         101.19163     -42.16848      -1732.0603     -1675.9655      1085.5773     -2761.5428      380.95379      401.17962      1196.9534      0             -4740.6296      0              0             -151.00686      91213.43       45.014552      45.014552      45.014552      0.91965453     443.41755      70.454097     -640.37708    
    116500   233000         99.536886      252.98652     -1388.2538     -1724.4359      1067.8253     -2792.2612      368.83742      396.26212      1200.7848      0             -4758.1455      0              0             -151.166        91117.406      44.99875       44.99875       44.99875       0.92062371     424.20059      124.43589      210.32308    
    117000   234000         99.946313     -238.45359     -2052.4028     -1734.0314      1072.2176     -2806.249       363.13389      398.68326      1175.8206      0             -4743.8868      0              0             -150.45313      91549.133      45.069708      45.069708      45.069708      0.91628223     6.4289768     -470.31873     -251.47101    
    117500   235000         100.1474       37.148014     -1643.8971     -1693.2771      1074.3748     -2767.652       369.49332      413.29962      1199.722       0             -4750.1669      0              0             -151.11779      91146.473      45.003534      45.003534      45.003534      0.92033011    -152.13857      187.69386      75.888749    
    118000   236000         99.73304       80.117926     -1610.8421     -1717.5554      1069.9296     -2787.485       381.0189       395.94663      1186.8438      0             -4751.2943      0              0             -150.81426      91329.918      45.033706      45.033706      45.033706      0.91848154     463.65625      97.387006     -320.68948    
    118500   237000         99.334145     -385.82732     -2268.4775     -1753.197       1065.6503     -2818.8473      364.32405      395.32583      1168.0864      0             -4746.5837      0              0             -150.41136      91574.561      45.07388       45.07388       45.07388       0.9160278     -219.3691      -159.7058      -778.40704    
    119000   238000         99.001105     -180.3789      -1990.4708     -1750.0731      1062.0775     -2812.1506      373.20327      380.60443      1183.8403      0             -4749.7986      0              0             -150.72558      91383.655      45.042537      45.042537      45.042537      0.91794143    -290.5597      -441.72036      191.14335    
    119500   239000         100.17964     -594.4137      -2486.7074     -1693.4926      1074.7207     -2768.2133      369.66619      410.91255      1186.1313      0             -4734.9233      0              0             -150.53218      91501.058      45.061818      45.061818      45.061818      0.91676365    -220.88032     -580.23453     -982.12626    
    120000   240000         99.682122      14.254827     -1694.3528     -1713.3498      1069.3834     -2782.7331      382.08654      402.32962      1174.4446      0             -4741.5938      0              0             -150.73306      91379.115      45.041791      45.041791      45.041791      0.91798704    -34.730651     -193.34         270.83513    
    120500   241000         100.3574      -44.909372     -1776.7584     -1716.8347      1076.6277     -2793.4624      370.49832      394.1311       1175.5195      0             -4733.6113      0              0             -150.54616      91492.562      45.060423      45.060423      45.060423      0.91684878    -511.50056      408.36875     -31.596301    
    121000   242000         98.191847      4.8636517     -1750.6392     -1757.1244      1053.3958     -2810.5202      362.85648      399.19697      1175.1308      0             -4747.7044      0              0             -150.6513       91428.712      45.049938      45.049938      45.049938      0.91748907    -1.2124628      216.70454     -200.90112    
    121500   243000         99.364875     -12.347171     -1742.3893     -1725.9366      1065.98       -2791.9166      365.62985      400.34082      1183.0347      0             -4740.9219      0              0             -150.75132      91368.049      45.039973      45.039973      45.039973      0.91809822     289.13787      6.3118842     -332.49127    
    122000   244000         98.783458      235.08132     -1416.5152     -1729.358       1059.7426     -2789.1005      378.3149       402.97037      1177.0755      0             -4747.4613      0              0             -150.9466       91249.844      45.020541      45.020541      45.020541      0.91928753     601.07453     -100.61737      204.78681    
    122500   245000         102.0561      -158.07        -1917.8188     -1707.3114      1094.8513     -2802.1626      372.16485      398.15942      1170.1882      0             -4742.6751      0              0             -150.8389       91315          45.031254      45.031254      45.031254      0.91863159    -403.29697     -323.02835      252.11533    
    123000   246000         101.39895     -103.95242     -1853.9682     -1715.3905      1087.8014     -2803.1919      372.10189      393.61295      1169.8459      0             -4738.7527      0              0             -150.68591      91407.711      45.046489      45.046489      45.046489      0.91769986     187.37395      114.98659     -614.21781    
    123500   247000         101.09066     -174.81139     -1941.5039     -1708.2432      1084.4941     -2792.7373      370.81032      392.604        1178.834       0             -4734.9856      0              0             -150.54266      91494.692      45.060773      45.060773      45.060773      0.91682743    -124.86708     -52.625782     -346.9413     
    124000   248000         98.878174      380.91518     -1243.4056     -1750.3641      1060.7587     -2811.1228      369.05601      399.79025      1175.9835      0             -4755.9525      0              0             -150.93405      91257.43       45.021789      45.021789      45.021789      0.91921111     566.13472      469.17681      107.43401    
    124500   249000         97.701279     -244.97999     -2067.9931     -1742.1476      1048.133      -2790.2806      370.82232      395.06727      1190.0584      0             -4746.2286      0              0             -151.02548      91202.189      45.012702      45.012702      45.012702      0.91976788    -438.2793      -190.49302     -106.16765    
    125000   250000         98.842379     -245.05091     -2057.9838     -1731.3532      1060.3747     -2791.7278      381.89037      390.90227      1176.4484      0             -4740.9689      0              0             -150.70607      91395.485      45.04448       45.04448       45.04448       0.91782262    -420.83922     -36.401053     -277.91245    
    125500   251000         101.34541      315.28415     -1276.9022     -1695.7401      1087.227      -2782.9672      370.42145      400.5648       1197.9133      0             -4751.8667      0              0             -151.21242      91089.438      44.994145      44.994145      44.994145      0.92090637     372.87141      330.16549      242.81554    
    126000   252000         97.532127      51.081756     -1666.8093     -1734.785       1046.3184     -2781.1034      370.86206      406.92228      1180.8558      0             -4739.7435      0              0             -150.95358      91245.626      45.019847      45.019847      45.019847      0.91933003     476.20372     -12.94892      -310.00953    
    126500   253000         101.25185     -175.9437      -1943.1553     -1708.952       1086.2233     -2795.1754      368.50409      402.46881      1172.2753      0             -4738.4236      0              0             -150.90794      91273.221      45.024385      45.024385      45.024385      0.91905208     201.94278     -361.96093     -367.81295    
    127000   254000         102.16948     -175.8574      -1935.3993     -1701.6156      1096.0676     -2797.6832      368.39322      400.49547      1181.1505      0             -4747.7224      0              0             -151.10467      91154.392      45.004838      45.004838      45.004838      0.92025016     510.30512     -233.18534     -804.69196    
    127500   255000         102.15014     -63.234679     -1791.6702     -1707.3443      1095.8601     -2803.2044      372.09521      402.81048      1168.2672      0             -4746.3772      0              0             -150.63489      91438.672      45.051574      45.051574      45.051574      0.91738912    -158.05028      22.998131     -54.651891    
    128000   256000         99.567296      136.47015     -1501.1698     -1682.7149      1068.1515     -2750.8664      386.98597      412.44808      1192.6238      0             -4742.9243      0              0             -151.00265      91215.978      45.014971      45.014971      45.014971      0.91962884    -155.25864      583.52886     -18.859753    
    128500   257000         99.818177      67.544069     -1645.4004     -1734.9179      1070.843      -2805.7608      364.80696      391.59163      1196.665       0             -4758.8244      0              0             -151.56914      90875.053      44.958819      44.958819      44.958819      0.92307889     322.87537     -11.792148     -108.45101    
    129000   258000         105.01669      323.07908     -1227.1485     -1658.3833      1126.6122     -2784.9955      373.11598      393.19373      1175.3751      0             -4726.6803      0              0             -150.49654      91522.731      45.065375      45.065375      45.065375      0.91654655     380.76123      389.29349      199.18253    
    129500   259000         98.098854      209.87461     -1463.9399     -1743.6705      1052.3982     -2796.0687      368.12035      384.61123      1184.788       0             -4733.5883      0              0             -150.71318      91391.169      45.043771      45.043771      45.043771      0.91786596     318.59315      138.56218      172.46851    
    130000   260000         98.935808     -106.29444     -1846.1172     -1704.3921      1061.377      -2765.769       382.26481      409.07523      1179.6364      0             -4736.7455      0              0             -150.65902      91424.023      45.049168      45.049168      45.049168      0.91753612    -257.54432     -24.306387     -37.032609    
    130500   261000         99.660464      87.641652     -1583.2202     -1699.756       1069.151      -2768.907       391.48941      407.14965      1179.6863      0             -4747.2323      0              0             -151.07149      91174.409      45.008132      45.008132      45.008132      0.92004812     522.19133      83.110962     -342.37733    
    131000   262000         98.982715     -101.3997      -1840.7234     -1705.3383      1061.8802     -2767.2185      382.56823      388.15443      1190.031       0             -4727.9722      0              0             -150.45176      91549.97       45.069845      45.069845      45.069845      0.91627385     115.57071     -272.62183     -147.14799    
    131500   263000         102.05178      348.56079     -1240.5605     -1703.6179      1094.8049     -2798.4228      369.07884      405.86139      1176.9106      0             -4750.2736      0              0             -151.20811      91092.035      44.994573      44.994573      44.994573      0.92088012     368.76996      749.0069      -72.094485    
    132000   264000         101.71085     -262.79422     -2048.9025     -1698.0906      1091.1474     -2789.2381      371.53246      400.86124      1177.2308      0             -4738.8625      0              0             -150.47795      91534.035      45.06723       45.06723       45.06723       0.91643336    -274.66724     -631.85838      118.14296    
    132500   265000         98.452622      4.6432598     -1748.1115     -1754.2845      1056.1934     -2810.4778      363.07065      391.08391      1187.488       0             -4752.1204      0              0             -151.09931      91157.623      45.005369      45.005369      45.005369      0.92021754     230.18687     -10.117491     -206.1396     
    133000   266000         99.782431     -349.55844     -2183.1204     -1717.0485      1070.4595     -2787.5079      367.18207      404.32758      1171.3458      0             -4730.3634      0              0             -150.66009      91423.378      45.049062      45.049062      45.049062      0.9175426     -523.19822      80.735169     -606.21228    
    133500   267000         102.39267      40.431526     -1649.2143     -1703.1679      1098.4619     -2801.6298      366.269        406.69726      1173.4812      0             -4748.0773      0              0             -150.5328       91500.682      45.061756      45.061756      45.061756      0.91676742     23.927671      162.41185     -65.044943    
    134000   268000         98.936568      113.13129     -1579.1808     -1730.3247      1061.3851     -2791.7098      368.54582      391.08555      1183.6969      0             -4735.0381      0              0             -150.35692      91607.715      45.079319      45.079319      45.079319      0.91569628     186.89417      131.12141      21.378299    
    134500   269000         101.61967     -131.5993      -1873.4948     -1697.3947      1090.1693     -2787.564       364.95277      393.37132      1184.071       0             -4729.9591      0              0             -150.11545      91755.073      45.103478      45.103478      45.103478      0.91422567     59.015099     -300.44075     -153.37225    
    135000   270000         100.8571      -15.819573     -1738.243      -1717.1589      1081.9884     -2799.1473      357.01405      412.36373      1179.7944      0             -4748.3195      0              0             -150.72057      91386.691      45.043036      45.043036      45.043036      0.91791094     230.15623     -388.88953      111.27459    
    135500   271000         97.03978      -96.151543     -1875.6019     -1747.5013      1041.0365     -2788.5378      361.15767      410.4584       1186.5641      0             -4746.718       0              0             -150.77758      91352.133      45.037357      45.037357      45.037357      0.91825818    -65.287194     -346.79087      123.62343    
    136000   272000         99.769411     -72.577506     -1816.0207     -1719.2835      1070.3198     -2789.6033      370.87667      398.82458      1195.2807      0             -4754.5853      0              0             -150.70926      91393.551      45.044163      45.044163      45.044163      0.91784205    -91.015733      83.477408     -210.19419    
    136500   273000         99.551778     -39.945422     -1784.0899     -1730.972       1067.985      -2798.957       362.20356      399.74678      1176.0397      0             -4736.9471      0              0             -151.06287      91179.614      45.008988      45.008988      45.008988      0.9199956      488.09447     -438.87858     -169.05215    
    137000   274000         99.344487     -134.79941     -1900.4029     -1720.693       1065.7612     -2786.4542      367.67884      393.83765      1191.2794      0             -4739.2501      0              0             -150.67712      91413.043      45.047365      45.047365      45.047365      0.91764634     18.927916     -127.46053     -295.86561    
    137500   275000         100.53792      224.69228     -1416.8607     -1716.4568      1078.5644     -2795.0211      371.79224      399.42386      1179.1156      0             -4745.3528      0              0             -150.65494      91426.501      45.049575      45.049575      45.049575      0.91751126     596.2177       89.437538     -11.578388    
    138000   276000         101.34802      375.44791     -1178.2984     -1679.8161      1087.255      -2767.0711      382.11981      405.01593      1188.7834      0             -4742.9902      0              0             -150.38163      91592.664      45.07685       45.07685       45.07685       0.91584675     407.94469      507.969        210.43004    
    138500   277000         98.906379      140.69153     -1539.8727     -1727.4973      1061.0612     -2788.5586      363.02112      398.73299      1187.3232      0             -4737.6359      0              0             -150.62933      91442.047      45.052128      45.052128      45.052128      0.91735527     688.42421      175.2815      -441.63111    
    139000   278000         102.94065     -197.5201      -1931.0879     -1668.2401      1104.3406     -2772.5808      377.98458      411.57102      1177.5038      0             -4739.6402      0              0             -150.9518       91246.702      45.020024      45.020024      45.020024      0.91931919     26.516864     -139.92224     -479.15493    
    139500   279000         100.81244     -204.38324     -1991.6706     -1720.0687      1081.5094     -2801.578       370.69228      394.23389      1177.7659      0             -4744.27        0              0             -151.16239      91119.582      44.999108      44.999108      44.999108      0.92060172    -405.24141     -29.176589     -178.73171    
    140000   280000         99.408324     -660.83679     -2586.5465     -1706.7884      1066.4461     -2773.2345      384.57351      401.47597      1178.8746      0             -4738.1586      0              0             -150.89065      91283.682      45.026105      45.026105      45.026105      0.91894676    -333.6603      -1076.444      -572.40604    
    140500   281000         102.19013     -339.39751     -2132.747      -1679.6483      1096.2891     -2775.9374      366.86742      419.06868      1182.2296      0             -4744.1031      0              0             -150.46907      91539.44       45.068117      45.068117      45.068117      0.91637925    -388.91564     -92.455655     -536.82123    
    141000   282000         101.32511      16.252111     -1693.9775     -1715.5851      1087.0093     -2802.5944      378.3961       399.99035      1176.2666      0             -4757.2475      0              0             -151.08929      91163.669      45.006364      45.006364      45.006364      0.92015651    -126.57938      279.19768     -103.86197    
    141500   283000         99.93401       196.94933     -1457.2168     -1719.6072      1072.0856     -2791.6928      366.13102      412.17017      1186.5467      0             -4756.5407      0              0             -150.77798      91351.894      45.037318      45.037318      45.037318      0.91826058    -138.59735      123.36913      606.0762     
    142000   284000         98.332774     -132.44242     -1928.275      -1751.4764      1054.9076     -2806.3841      366.074        386.16376      1183.7029      0             -4742.3247      0              0             -150.48035      91532.578      45.066991      45.066991      45.066991      0.91644795     148.08697     -4.1021112     -541.31212    
    142500   285000         100.94182      10.746932     -1679.201      -1693.5313      1082.8974     -2776.4287      367.50947      408.81353      1185.2887      0             -4738.0404      0              0             -150.64656      91431.585      45.05041       45.05041       45.05041       0.91746023     40.555171     -134.029        125.71463    
    143000   286000         101.15341     -41.531489     -1767.2344     -1711.8892      1085.1672     -2797.0564      363.83203      407.82724      1173.3519      0             -4742.0676      0              0             -150.74004      91374.889      45.041096      45.041096      45.041096      0.9180295      41.590608      117.47738     -283.66245    
    143500   287000         99.269963      359.3706      -1244.0599     -1722.3088      1064.9618     -2787.2706      371.58848      406.19234      1186.3811      0             -4751.4325      0              0             -150.9454       91250.572      45.020661      45.020661      45.020661      0.9192802      465.46274      550.98238      61.666685    
    144000   288000         98.511892      21.093178     -1706.1985     -1734.2529      1056.8292     -2791.0821      369.36951      398.76114      1190.0379      0             -4749.2506      0              0             -151.03349      91197.347      45.011906      45.011906      45.011906      0.91981671     504.79193     -296.02805     -145.48434    
    144500   289000         100.02894     -245.77516     -2055.9806     -1728.3334      1073.104      -2801.4374      383.65774      395.45863      1178.2695      0             -4758.8233      0              0             -150.68254      91409.753      45.046824      45.046824      45.046824      0.91767936    -108.32587     -172.61243     -456.38719    
    145000   290000         103.01996      60.201102     -1626.9277     -1707.0523      1105.1914     -2812.2438      359.54716      401.44178      1170.8704      0             -4744.1031      0              0             -150.92805      91261.06       45.022385      45.022385      45.022385      0.91917455     352.94991     -222.87719      50.530586    
    145500   291000         100.68133      231.62833     -1407.0586     -1715.1114      1080.1028     -2795.2142      384.42175      404.27594      1170.5711      0             -4754.483       0              0             -151.04203      91192.196      45.011058      45.011058      45.011058      0.91986867     600.51131      18.252413      76.121264    
    146000   292000         99.70531       3.1627637     -1743.3221     -1747.5348      1069.6321     -2817.1669      370.71039      386.85231      1168.544       0             -4743.2737      0              0             -150.81388      91330.15       45.033744      45.033744      45.033744      0.9184792      233.11359      335.34411     -558.96941    
    146500   293000         100.44226     -103.15369     -1864.2955     -1726.7745      1077.5381     -2804.3126      367.14032      399.49665      1168.4327      0             -4739.3823      0              0             -150.67702      91413.103      45.047374      45.047374      45.047374      0.91764573     18.970247     -1.287535      -327.14378    
    147000   294000         101.71061      203.55961     -1439.498      -1708.9591      1091.1449     -2800.104       371.96317      398.9065       1187.5476      0             -4758.5213      0              0             -151.74935      90767.136      44.941015      44.941015      44.941015      0.92417639     257.18639      52.515075      300.97737    
    147500   295000         97.969705      134.62941     -1557.5925     -1736.7441      1051.0127     -2787.7568      379.48237      389.23271      1188.563       0             -4745.0349      0              0             -150.9561       91244.103      45.019597      45.019597      45.019597      0.91934537     383.60606      523.00833     -502.72617    
    148000   296000         100.84559     -312.80967     -2112.4098     -1694.0513      1081.865      -2775.9163      375.88125      401.65806      1174.4883      0             -4727.9438      0              0             -150.19757      91704.905      45.095256      45.095256      45.095256      0.91472581    -136.2419      -444.51431     -357.6728     
    148500   297000         99.916242     -102.8736      -1865.1279     -1728.4138      1071.895      -2800.3088      360.6893       410.86255      1181.3282      0             -4753.1888      0              0             -151.1548       91124.157      44.999861      44.999861      44.999861      0.9205555     -61.268972     -20.275369     -227.07646    
    149000   298000         97.314758      236.27704     -1448.2325     -1762.4075      1043.9864     -2806.3939      377.49391      399.42014      1169.6604      0             -4752.9684      0              0             -151.07107      91174.665      45.008174      45.008174      45.008174      0.92004554     411.60327      58.134232      239.0936     
    149500   299000         100.56006      144.09079     -1517.9141     -1709.454       1078.8018     -2788.2558      381.18815      396.45975      1183.1835      0             -4749.0871      0              0             -151.11528      91147.99       45.003784      45.003784      45.003784      0.92031479     339.14171      44.418062      48.712591    
    150000   300000         100.7829      -172.93659     -1937.8565     -1707.4107      1081.1924     -2788.6031      372.89763      398.0531       1190.0838      0             -4749.6376      0              0             -150.74728      91370.495      45.040374      45.040374      45.040374      0.91807364    -227.75996     -188.8903      -102.1595     
    150500   301000         100.80016      181.01603     -1497.3167     -1738.0357      1081.3776     -2819.4133      363.52999      411.66399      1159.7517      0             -4754.3589      0              0             -151.05601      91183.751      45.009669      45.009669      45.009669      0.91995386     368.6885       163.88406      10.475535    
    151000   302000         99.997587      459.57244     -1123.8073     -1733.3995      1072.7677     -2806.1671      367.09416      413.15475      1166.1287      0             -4752.5448      0              0             -151.44186      90951.43       44.971411      44.971411      44.971411      0.92230373     348.7055       365.31795      664.69386    
    151500   303000         99.337185     -119.83329     -1871.5596     -1711.8406      1065.6829     -2777.5235      382.84325      407.73283      1182.7346      0             -4750.8342      0              0             -150.71354      91390.953      45.043736      45.043736      45.043736      0.91786814    -87.328685     -210.40491     -61.766276    
    152000   304000         100.91695      559.20736     -951.22396     -1693.9925      1082.6305     -2776.623       374.96538      408.23798      1189.5358      0             -4749.3622      0              0             -151.23446      91076.163      44.99196       44.99196       44.99196       0.9210406      899.7468       233.00623      544.86906    
    152500   305000         100.03947      0.78265283    -1733.1791     -1734.2218      1073.2169     -2807.4388      376.48109      388.18388      1174.3678      0             -4746.4716      0              0             -150.77033      91356.526      45.038079      45.038079      45.038079      0.91821403     80.417191      82.863943     -160.93318    
    153000   306000         100.37495      692.56811     -769.01379     -1692.1361      1076.816      -2768.9521      382.47864      412.12486      1178.236       0             -4741.7916      0              0             -150.7074       91394.673      45.044347      45.044347      45.044347      0.91783077     495.5781       731.45968      850.66657    
    153500   307000         98.137202     -74.177374     -1837.8843     -1739.2861      1052.8096     -2792.0957      372.3401       400.86267      1187.1551      0             -4752.4535      0              0             -151.12416      91142.634      45.002902      45.002902      45.002902      0.92036888     422.8896      -293.99789     -351.42382    
    154000   308000         99.951294     -174.79305     -1957.291      -1724.8771      1072.271      -2797.1481      371.01131      405.33341      1182.2186      0             -4755.7114      0              0             -151.07525      91172.141      45.007758      45.007758      45.007758      0.92007101    -252.91805     -353.53716      82.076053    
    154500   309000         100.78096      399.58501     -1184.8642     -1717.0636      1081.1717     -2798.2353      369.01884      411.00412      1176.3974      0             -4754.6557      0              0             -150.82249      91324.933      45.032887      45.032887      45.032887      0.91853168     816.60682      13.49991       368.6483     
    155000   310000         98.367407      136.5306      -1569.112      -1751.009       1055.2792     -2806.2882      360.40957      407.20977      1169.1682      0             -4743.0757      0              0             -150.77727      91352.324      45.037388      45.037388      45.037388      0.91825626    -81.58568       203.95736      287.22012    
    155500   311000         101.56236     -38.300389     -1758.2837     -1707.269       1089.5544     -2796.8234      375.32359      394.07924      1173.0536      0             -4739.2799      0              0             -150.81312      91330.61       45.03382       45.03382       45.03382       0.91847458    -15.165083     -189.22964      89.493558    
    156000   312000         99.443594      387.11294     -1219.2978     -1733.9736      1066.8245     -2800.798       379.6754       414.78585      1171.656       0             -4766.9153      0              0             -151.08987      91163.32       45.006307      45.006307      45.006307      0.92016004     1012.3348      239.31257     -90.308581    
    156500   313000         100.14271      356.72287     -1241.4157     -1714.6719      1074.3245     -2788.9964      368.64128      412.36641      1181.943       0             -4751.9471      0              0             -151.41399      90968.172      44.97417       44.97417       44.97417       0.92213399     650.34404      398.08282      21.741742    
    157000   314000         99.941813     -155.91413     -1902.643      -1694.486       1072.1693     -2766.6553      374.58225      401.73421      1201.0379      0             -4744.0097      0              0             -150.46169      91543.929      45.068854      45.068854      45.068854      0.91633432    -65.457582     -374.22083     -28.063966    
    157500   315000         100.1599       110.30624     -1572.3883     -1719.6956      1074.5089     -2794.2045      378.71165      407.45465      1167.8243      0             -4748.1951      0              0             -150.42055      91568.967      45.072963      45.072963      45.072963      0.91608376     184.37693     -41.746324      188.28811    
    158000   316000         101.38467      35.385449     -1671.1757     -1718.3044      1087.6482     -2805.9526      368.36197      391.1057       1179.3566      0             -4744.7769      0              0             -150.82406      91323.983      45.032731      45.032731      45.032731      0.91854123     109.53739     -288.95328      285.57223    
    158500   317000         98.094372     -201.17835     -2018.4441     -1751.1355      1052.3501     -2803.4856      372.62167      403.87746      1175.2957      0             -4755.2805      0              0             -151.18188      91107.839      44.997175      44.997175      44.997175      0.92072038     344.16946     -291.4829      -656.22162    
    159000   318000         100.42072      272.25459     -1355.6233     -1717.871       1077.307      -2795.178       377.15345      394.52087      1181.1918      0             -4748.0441      0              0             -150.97358      91233.541      45.01786       45.01786       45.01786       0.91945181     318.72396      105.11519      392.92462    
    159500   319000         100.50573     -70.175393     -1778.7074     -1685.0576      1078.219      -2763.2766      382.91005      419.22693      1178.9217      0             -4744.3353      0              0             -150.52526      91505.269      45.062509      45.062509      45.062509      0.91672146     113.42132     -232.43679     -91.510715    
    160000   320000         102.39348      117.62349     -1540.5671     -1697.2178      1098.4706     -2795.6885      373.1159       407.6174       1171.7734      0             -4748.1952      0              0             -150.83181      91319.289      45.031959      45.031959      45.031959      0.91858844    -67.730484      103.97868      316.62226    
    160500   321000         96.976285      156.96209     -1560.2381     -1768.9564      1040.3553     -2809.3117      367.41461      395.66984      1176.2202      0             -4748.6164      0              0             -151.0656       91177.966      45.008717      45.008717      45.008717      0.92001222     627.18517     -16.715453     -139.58344    
    161000   322000         98.543931      8.6943942     -1702.6834     -1714.2677      1057.1729     -2771.4406      390.99372      398.18386      1192.7536      0             -4753.3718      0              0             -150.76571      91359.326      45.038539      45.038539      45.038539      0.91818589     146.3735       43.676259     -163.96658    
    161500   323000         100.87889      80.11547      -1611.4504     -1718.0338      1082.2222     -2800.256       369.24743      412.67239      1156.6938      0             -4738.8695      0              0             -150.99356      91221.464      45.015873      45.015873      45.015873      0.91957352     362.3004      -271.95724      150.00326    
    162000   324000         101.61985      141.9516      -1507.2152     -1695.9984      1090.1712     -2786.1696      372.33792      411.57352      1181.2447      0             -4751.3257      0              0             -151.04572      91189.967      45.010692      45.010692      45.010692      0.91989115    -54.340634      626.35802     -146.16259    
    162500   325000         102.10123      402.56485     -1191.8106     -1726.9017      1095.3354     -2822.2372      359.40602      401.13607      1169.5059      0             -4752.2852      0              0             -151.12609      91141.469      45.002711      45.002711      45.002711      0.92038064     658.40262      219.26971      330.02222    
    163000   326000         100.43834      237.92286     -1423.5731     -1739.454       1077.496      -2816.9499      359.14607      405.23843      1173.6842      0             -4755.0186      0              0             -151.30184      91035.599      44.985279      44.985279      44.985279      0.921451       317.42245      568.85165     -172.50553    
    163500   327000         99.733391     -201.31791     -2013.8647     -1745.8414      1069.9334     -2815.7748      360.26101      402.45123      1166.4883      0             -4744.9753      0              0             -150.88333      91288.107      45.026833      45.026833      45.026833      0.91890221    -155.04263     -263.96456     -184.94652    
    164000   328000         100.20436      414.71678     -1155.3654     -1706.0523      1074.9859     -2781.0383      384.39532      403.64937      1174.4931      0             -4743.5761      0              0             -151.27884      91049.442      44.987559      44.987559      44.987559      0.9213109      694.80385      392.63418      156.71231    
    164500   329000         100.85668     -66.372649     -1815.5975     -1727.2121      1081.9839     -2809.196       369.61307      377.15561      1184.6861      0             -4740.6508      0              0             -150.84807      91309.45       45.030342      45.030342      45.030342      0.91868743    -205.99462     -169.44084      176.31752    
    165000   330000         102.38397     -474.67086     -2299.3119     -1666.3425      1098.3687     -2764.7112      377.59471      405.01612      1183.6598      0             -4730.9818      0              0             -150.64031      91435.38       45.051033      45.051033      45.051033      0.91742216     353.73203     -538.77092     -1238.9737    
    165500   331000         98.734079      395.46526     -1195.5094     -1721.7029      1059.2128     -2780.9157      367.17283      416.94043      1182.9561      0             -4747.985       0              0             -150.97126      91234.942      45.01809       45.01809       45.01809       0.91943768     669.14397      118.74019      398.51161    
    166000   332000         102.10006      241.65586     -1360.5028     -1682.882       1095.3229     -2778.2049      373.14298      404.83179      1179.1193      0             -4735.299       0              0             -150.57804      91473.194      45.057243      45.057243      45.057243      0.9170429     -18.581101      421.22596      322.32272    
    166500   333000         100.95375      97.259052     -1587.7685     -1717.0746      1083.0253     -2800.0999      365.47942      392.80189      1178.555       0             -4736.9362      0              0             -151.09231      91161.844      45.006064      45.006064      45.006064      0.92017493    -18.710942      444.39202     -133.90392    
    167000   334000         101.08699     -151.97568     -1910.2759     -1707.4203      1084.4547     -2791.875       365.54408      401.18357      1182.4795      0             -4741.0822      0              0             -150.49377      91524.411      45.065651      45.065651      45.065651      0.91652973    -100.91257     -108.03255     -246.98192    
    167500   335000         99.481564     -137.41249     -1921.1162     -1738.168       1067.2318     -2805.3998      374.59914      385.58178      1177.8861      0             -4743.4668      0              0             -150.87917      91290.627      45.027247      45.027247      45.027247      0.91887685     545.14925     -323.07853     -634.30818    
    168000   336000         98.838649     -209.86102     -2021.057      -1741.521       1060.3346     -2801.8556      359.75617      393.94467      1185.9996      0             -4741.5561      0              0             -150.80834      91333.502      45.034295      45.034295      45.034295      0.9184455     -339.95375      35.004566     -324.63388    
    168500   337000         100.20543      88.592522     -1592.618      -1710.7883      1074.9973     -2785.7857      379.0149       398.38303      1170.839       0             -4734.0226      0              0             -150.59825      91460.916      45.055227      45.055227      45.055227      0.91716601     173.12183     -33.583056      126.23879    
    169000   338000         102.3913       70.719572     -1586.4804     -1680.4238      1098.4473     -2778.8711      380.40964      414.31866      1184.647       0             -4758.2464      0              0             -151.21841      91085.826      44.993551      44.993551      44.993551      0.92094288     6.6688704      207.5304      -2.0405552    
    169500   339000         101.75022      120.8087      -1541.7207     -1702.614       1091.5698     -2794.1838      372.74225      408.68002      1183.1443      0             -4758.7503      0              0             -150.83131      91319.594      45.032009      45.032009      45.032009      0.91858537     266.46205     -95.083643      191.0477     
    170000   340000         101.9321      -211.84965     -1976.2943     -1694.7692      1093.521      -2788.2902      370.29355      415.26628      1177.6181      0             -4751.4682      0              0             -151.16176      91119.965      44.999171      44.999171      44.999171      0.92059785    -786.80345      139.26285      11.99166     
    170500   341000         100.29428      208.34764     -1438.0563     -1715.1894      1075.9505     -2791.1399      364.53629      408.56896      1181.211       0             -4745.4561      0              0             -151.01899      91206.103      45.013346      45.013346      45.013346      0.9197284      371.32682      207.54113      46.174976    
    171000   342000         102.07356     -205.36106     -1982.6834     -1708.9434      1095.0385     -2803.9819      367.70336      407.64984      1168.7385      0             -4748.0735      0              0             -150.69926      91399.616      45.045159      45.045159      45.045159      0.91778114    -214.0403      -238.55544     -163.48745    
    171500   343000         100.0623      -58.357926     -1794.346      -1716.6514      1073.4619     -2790.1132      361.14719      407.05124      1173.7271      0             -4732.0388      0              0             -150.88296      91288.333      45.02687       45.02687       45.02687       0.91889994    -55.172466     -12.431444     -107.46987    
    172000   344000         101.25645      716.10862     -768.35202     -1722.663       1086.2726     -2808.9356      366.30232      389.95711      1177.5549      0             -4742.75        0              0             -150.73717      91376.627      45.041382      45.041382      45.041382      0.91801204     1164.9546      439.77038      543.60084    
    172500   345000         101.12032     -420.9693      -2286.7082     -1724.69        1084.8123     -2809.5022      357.26523      386.79004      1174.02        0             -4727.5775      0              0             -150.46358      91542.778      45.068665      45.068665      45.068665      0.91634584    -260.67558     -339.80563     -662.42668    
    173000   346000         100.40245     -389.30874     -2251.5491     -1732.4655      1077.1109     -2809.5764      359.80931      403.88523      1174.999       0             -4748.27        0              0             -150.6566       91425.492      45.049409      45.049409      45.049409      0.91752138    -448.09487     -119.63324     -600.1981     
    173500   347000         100.7908      -148.42186     -1912.9173     -1715.4915      1081.2772     -2796.7687      370.28002      400.12135      1186.0532      0             -4753.2232      0              0             -151.01683      91207.413      45.013562      45.013562      45.013562      0.9197152      255.69748     -193.36661     -507.59646    
    174000   348000         101.63952     -161.2723      -1923.0694     -1708.0452      1090.3822     -2798.4274      371.72963      405.13317      1173.8904      0             -4749.1807      0              0             -150.66204      91422.193      45.048868      45.048868      45.048868      0.91755448    -78.077567     -529.52894      123.78962    
    174500   349000         99.424657     -66.387435     -1829.4406     -1741.0165      1066.6213     -2807.6378      363.63699      393.86509      1165.7631      0             -4730.903       0              0             -150.81575      91329.015      45.033558      45.033558      45.033558      0.91849062     246.68501     -23.705463     -422.14185    
    175000   350000         98.570473     -235.19893     -2021.9424     -1707.8747      1057.4577     -2765.3324      368.97133      420.15597      1180.6447      0             -4735.1044      0              0             -150.43313      91561.306      45.071706      45.071706      45.071706      0.91616041    -237.90457     -364.83446     -102.85777    
    175500   351000         101.29708      61.056943     -1612.1195     -1693.379       1086.7086     -2780.0875      369.41173      400.65212      1190.5764      0             -4740.7278      0              0             -150.93582      91256.362      45.021613      45.021613      45.021613      0.91922186     23.304676      489.23048     -329.36433    
    176000   352000         102.07698     -398.31541     -2212.4595     -1680.6333      1095.0753     -2775.7086      368.96736      410.31609      1179.5731      0             -4734.5651      0              0             -150.44881      91551.765      45.07014       45.07014       45.07014       0.91625588     49.175673     -551.96598     -692.15591    
    176500   353000         100.5438       30.28811      -1692.6836     -1732.9168      1078.6274     -2811.5442      361.60872      394.10719      1180.3037      0             -4747.5639      0              0             -151.22315      91082.974      44.993081      44.993081      44.993081      0.92097172     304.48007     -626.18854      412.57281    
    177000   354000         102.07997     -134.33432     -1869.7876     -1690.3859      1095.1073     -2785.4932      371.68751      402.01506      1188.8114      0             -4748.0071      0              0             -150.41521      91572.215      45.073496      45.073496      45.073496      0.91605127    -68.759408      151.9757      -486.21927    
    177500   355000         100.17828      180.67364     -1505.2705     -1745.3263      1074.7061     -2820.0323      369.46272      385.87448      1185.3006      0             -4760.6702      0              0             -151.18683      91104.854      44.996683      44.996683      44.996683      0.92075055     155.67583      215.99201      170.35308    
    178000   356000         101.56538      21.742814     -1624.182      -1653.2088      1089.5868     -2742.7956      391.18787      396.58747      1196.5239      0             -4727.0949      0              0             -150.46932      91539.285      45.068092      45.068092      45.068092      0.9163808      300.81625     -203.02792     -32.559887    
    178500   357000         100.49643     -179.97719     -1953.4899     -1714.3149      1078.1192     -2792.4342      369.17609      422.27094      1171.7347      0             -4755.6159      0              0             -151.15871      91121.804      44.999474      44.999474      44.999474      0.92057927    -36.229322      21.7178       -525.42006    
    179000   358000         99.815248      239.76448     -1429.9955     -1748.2911      1070.8115     -2819.1026      360.42086      387.44379      1187.2706      0             -4754.2379      0              0             -151.31625      91026.931      44.983851      44.983851      44.983851      0.92153875     409.17978      250.05287      60.060792    
    179500   359000         101.80246      87.705972     -1569.9684     -1686.9081      1092.1302     -2779.0383      365.6766       410.18711      1185.2847      0             -4740.1868      0              0             -150.66012      91423.356      45.049059      45.049059      45.049059      0.91754281     89.720965      158.14291      15.254045    
    180000   360000         98.412007      203.60199     -1451.3979     -1722.5568      1055.7577     -2778.3144      366.43049      416.42854      1171.6289      0             -4732.8023      0              0             -150.83065      91319.994      45.032075      45.032075      45.032075      0.91858135     323.14907      324.64459     -36.987704    
    180500   361000         100.77178      53.139069     -1628.1985     -1698.9686      1081.0731     -2780.0417      368.72086      415.98919      1187.4055      0             -4752.1572      0              0             -150.83271      91318.748      45.03187       45.03187       45.03187       0.91859389     136.93812     -105.30686      127.78595    
    181000   362000         99.269833      399.53301     -1190.959      -1722.1348      1064.9604     -2787.0952      385.29214      407.20222      1173.555       0             -4753.1446      0              0             -151.09349      91161.133      45.005947      45.005947      45.005947      0.9201821      22.134053      717.01563      459.44935    
    181500   363000         102.19726     -291.90693     -2071.6951     -1682.3714      1096.3656     -2778.737       368.87743      411.93215      1169.0523      0             -4728.5989      0              0             -150.61384      91451.452      45.053673      45.053673      45.053673      0.91726093    -171.58633     -476.64835     -227.4861     
    182000   364000         99.494519     -267.3928      -2063.2924     -1705.9775      1067.3708     -2773.3483      374.59591      404.99753      1175.2724      0             -4728.2141      0              0             -150.32455      91627.444      45.082555      45.082555      45.082555      0.91549911    -151.66418     -158.01454     -492.49967    
    182500   365000         101.81026      212.08549     -1435.0038     -1717.7425      1092.2139     -2809.9565      364.02739      398.25001      1160.8892      0             -4733.123       0              0             -150.68047      91411.011      45.047031      45.047031      45.047031      0.91766673     544.40005      164.75004     -72.893617    
    183000   366000         101.40117      7.0864408     -1683.3562     -1692.815       1087.8252     -2780.6402      375.90016      411.19101      1169.0438      0             -4736.7752      0              0             -150.4957       91523.241      45.065459      45.065459      45.065459      0.91654144     336.71608     -331.47401      16.017255    
    183500   367000         101.84852     -174.44345     -1953.5416     -1720.9312      1092.6244     -2813.5556      353.36397      406.81151      1169.1245      0             -4742.8556      0              0             -150.64577      91432.064      45.050489      45.050489      45.050489      0.91745542    -18.279382     -342.6166      -162.43437    
    184000   368000         98.80693       84.814768     -1649.4848     -1762.279       1059.9944     -2822.2734      364.56945      395.91106      1177.0647      0             -4759.8186      0              0             -151.04838      91188.361      45.010427      45.010427      45.010427      0.91990735     370.94401      63.970974     -180.47068    
    184500   369000         99.211315      259.00377     -1390.7525     -1734.8433      1064.3326     -2799.1759      377.58304      404.19364      1168.6589      0             -4749.6114      0              0             -151.20437      91094.288      44.994944      44.994944      44.994944      0.92085734     975.84222      85.722287     -284.55321    
    185000   370000         99.039327     -266.37898     -2062.3442     -1707.7564      1062.4875     -2770.2439      383.80411      412.52318      1177.9833      0             -4744.5545      0              0             -150.90634      91274.192      45.024545      45.024545      45.024545      0.9190423     -474.78018     -134.80665     -189.5501     
    185500   371000         102.07866      208.50569     -1411.4479     -1689.3012      1095.0933     -2784.3945      374.36865      395.06819      1193.2962      0             -4747.1275      0              0             -150.74184      91373.795      45.040917      45.040917      45.040917      0.91804049     463.09547      636.78913     -474.36752    
    186000   372000         99.845094     -35.14453      -1790.7773     -1744.0001      1071.1317     -2815.1318      359.08256      389.61491      1179.4841      0             -4743.3134      0              0             -150.92272      91264.282      45.022915      45.022915      45.022915      0.91914209     75.247342     -35.782545     -144.89839    
    186500   373000         100.1056       317.11067     -1283.6716     -1704.7451      1073.9264     -2778.6716      378.31801      413.43251      1182.5891      0             -4753.0112      0              0             -151.28094      91048.176      44.987351      44.987351      44.987351      0.92132371     748.79686      316.2028      -113.66765    
    187000   374000         101.97692     -146.16115     -1889.959      -1695.0715      1094.0018     -2789.0733      370.47303      395.41778      1188.7556      0             -4743.7197      0              0             -150.65355      91427.342      45.049713      45.049713      45.049713      0.91750282    -293.88775     -54.057591     -90.538114    
    187500   375000         100.10343     -42.658519     -1769.9825     -1713.0582      1073.9032     -2786.9613      367.85022      405.56955      1172.4678      0             -4732.8489      0              0             -150.53564      91498.959      45.061473      45.061473      45.061473      0.91678468    -4.0164583      67.373227     -191.33232    
    188000   376000         102.10613      36.121364     -1670.0011     -1717.9538      1095.3879     -2813.3417      358.54309      389.84881      1184.1943      0             -4745.9279      0              0             -151.31533      91027.488      44.983943      44.983943      44.983943      0.9215331      152.00399     -217.10789      173.468      
    188500   377000         98.24895      -357.39025     -2231.2617     -1755.3944      1054.0084     -2809.4028      359.99194      402.87546      1175.1459      0             -4747.416       0              0             -150.86489      91299.27       45.028668      45.028668      45.028668      0.91878986    -354.67342     -585.91529     -131.58204    
    189000   378000         98.499108      228.3433      -1426.8017     -1730.798       1056.6921     -2787.4901      382.94939      394.72983      1175.6034      0             -4740.7727      0              0             -150.88683      91285.992      45.026485      45.026485      45.026485      0.9189235      515.82815      32.037593      137.16417    
    189500   379000         98.291217     -114.82998     -1881.6607     -1728.2093      1054.4618     -2782.6711      356.57454      408.9831       1184.5619      0             -4732.7907      0              0             -150.31963      91630.441      45.083047      45.083047      45.083047      0.91546916    -170.12928      103.70489     -278.06555    
    190000   380000         100.8761       89.464407     -1609.2383     -1728.0553      1082.1922     -2810.2475      366.08688      413.21428      1162.2981      0             -4751.8468      0              0             -151.25271      91065.174      44.99015       44.99015       44.99015       0.92115174     283.54089      205.11801     -220.26568    
    190500   381000         101.29176     -218.16119     -1987.3683     -1696.5357      1086.6515     -2783.1872      368.86142      401.83552      1186.0449      0             -4739.9291      0              0             -150.68355      91409.143      45.046724      45.046724      45.046724      0.91768548    -338.41716     -326.19237      10.125953    
    191000   382000         101.16576      277.8717      -1341.9211     -1713.0718      1085.2997     -2798.3715      361.76175      396.12587      1187.4696      0             -4743.7287      0              0             -150.39225      91586.198      45.07579       45.07579       45.07579       0.91591141     801.78638     -27.340368      59.169097    
    191500   383000         98.997194     -113.44458     -1881.0134     -1729.9072      1062.0355     -2791.9427      370.12489      407.26184      1177.1535      0             -4746.4829      0              0             -150.81091      91331.946      45.034039      45.034039      45.034039      0.91846114    -51.616056     -25.625299     -263.09238    
    192000   384000         100.23673      179.20111     -1484.0595     -1723.1139      1075.3331     -2798.447       374.35915      403.04591      1174.1051      0             -4749.9572      0              0             -150.58275      91470.331      45.056773      45.056773      45.056773      0.91707161     106.98061      484.82714     -54.204427    
    192500   385000         99.436735      69.293883     -1634.093      -1726.5402      1066.7509     -2793.291       369.74979      407.6787       1169.2094      0             -4739.9289      0              0             -150.568        91479.292      45.058244      45.058244      45.058244      0.91698177     408.12155     -132.26675     -67.973142    
    193000   386000         96.776538     -32.127223     -1792.2647     -1749.5492      1038.2124     -2787.7617      379.87982      402.87084      1176.6631      0             -4747.1754      0              0             -151.08451      91166.556      45.006839      45.006839      45.006839      0.92012737     312.64777      46.340525     -455.36997    
    193500   387000         100.18413     -228.54524     -1991.3594     -1686.7909      1074.7689     -2761.5598      378.22637      406.59167      1192.4744      0             -4738.8522      0              0             -150.73656      91376.997      45.041443      45.041443      45.041443      0.91800832    -0.65873099    -247.01015     -437.96684    
    194000   388000         97.946881      141.23099     -1545.1917     -1733.2307      1050.7678     -2783.9985      366.83854      408.3682       1190.7782      0             -4749.9834      0              0             -150.87369      91293.945      45.027793      45.027793      45.027793      0.91884345     353.40989      261.2703      -190.98722    
    194500   389000         99.549102      8.7066184     -1699.5398     -1711.1239      1067.9563     -2779.0802      369.54805      419.44053      1179.3432      0             -4747.4119      0              0             -150.98027      91229.496      45.017194      45.017194      45.017194      0.91949257     261.35789     -267.53826      32.300227    
    195000   390000         97.96716      -78.304019     -1852.2224     -1747.7373      1050.9854     -2798.7227      371.74447      394.41271      1172.5602      0             -4737.4401      0              0             -150.5432       91494.36       45.060718      45.060718      45.060718      0.91683076     39.556055      75.773442     -350.24155    
    195500   391000         102.91549      716.85317     -725.22519     -1677.559       1104.0707     -2781.6298      379.2059       405.38877      1178.1441      0             -4744.3685      0              0             -151.20716      91092.605      44.994667      44.994667      44.994667      0.92087436     1006.6761      1063.5755      80.307832    
    196000   392000         99.918513      214.99355     -1433.9817     -1720.4586      1071.9193     -2792.3779      380.56208      397.32375      1177.9664      0             -4748.2301      0              0             -150.75343      91366.77       45.039762      45.039762      45.039762      0.91811108     355.38634      291.22227     -1.627961     
    196500   393000         101.75606     -243.65449     -2042.2439     -1717.7275      1091.6324     -2809.36        366.86444      397.65179      1167.3097      0             -4741.1859      0              0             -150.82356      91324.288      45.032781      45.032781      45.032781      0.91853816     197.00942     -521.29215     -406.68075    
    197000   394000         101.09864      31.443586     -1666.9645     -1708.8265      1084.5797     -2793.4063      378.36065      378.12307      1187.6813      0             -4737.5713      0              0             -150.8839       91287.766      45.026777      45.026777      45.026777      0.91890565     49.389721      176.54873     -131.6077     
    197500   395000         101.28233     -409.79854     -2283.6244     -1736.5959      1086.5503     -2823.1462      356.58076      380.53351      1177.9164      0             -4738.1768      0              0             -150.48451      91530.043      45.066575      45.066575      45.066575      0.91647333    -54.033138     -655.29827     -520.0642     
    198000   396000         99.559796      392.53939     -1199.279      -1722.3787      1068.0711     -2790.4497      377.61597      385.35735      1192.3368      0             -4745.7599      0              0             -150.74056      91374.571      45.041044      45.041044      45.041044      0.9180327      451.04779      630.39581      96.174571    
    198500   397000         100.09086      301.99389     -1312.7855     -1714.0844      1073.7683     -2787.8527      388.50875      389.54413      1188.5278      0             -4754.4334      0              0             -151.16858      91115.849      44.998494      44.998494      44.998494      0.92063943     226.40144      673.5242       6.056035     
    199000   398000         103.16871     -330.96317     -2129.1823     -1687.8446      1106.7873     -2794.6319      371.97826      403.15943      1164.8406      0             -4734.6102      0              0             -150.6399       91435.63       45.051075      45.051075      45.051075      0.91741965    -36.46962      -525.19144     -431.22846    
    199500   399000         101.88519      175.76093     -1470.7472     -1705.5286      1093.0177     -2798.5463      366.74669      391.40375      1175.9288      0             -4732.6256      0              0             -150.37995      91593.686      45.077018      45.077018      45.077018      0.91583653    -7.413651       619.99077     -85.294338    
    200000   400000         96.520936     -122.17164     -1929.5709     -1766.8257      1035.4704     -2802.296       364.51291      401.9996       1178.5077      0             -4747.3162      0              0             -150.79726      91340.213      45.035398      45.035398      45.035398      0.91837801    -171.67126     -331.44058      136.59692    
    200500   401000         99.980448      73.470819     -1605.9738     -1703.8639      1072.5838     -2776.4477      371.57694      411.13214      1172.6256      0             -4731.7824      0              0             -150.76741      91358.296      45.03837       45.03837       45.03837       0.91819624     112.42857      51.341144      56.642742    
    201000   402000         101.51449     -215.81937     -1974.9129     -1686.8571      1089.0409     -2775.8981      375.84387      403.6484       1181.1752      0             -4736.5656      0              0             -150.50304      91518.779      45.064726      45.064726      45.064726      0.91658613    -548.22124     -323.65599      224.41911    
    201500   403000         102.26843      166.9899      -1466.1402     -1688.709       1097.1291     -2785.8381      373.30237      401.38923      1179.2513      0             -4739.781       0              0             -150.71531      91389.882      45.04356       45.04356       45.04356       0.91787889     278.90972     -4.5353342      226.59532    
    202000   404000         99.542157      30.800795     -1693.0055     -1734.0532      1067.8818     -2801.935       367.02111      402.04501      1180.1186      0             -4751.1197      0              0             -150.73174      91379.915      45.041922      45.041922      45.041922      0.91797901     323.57678     -158.16498     -73.009417    
    202500   405000         100.76291     -170.03108     -1930.9532     -1704.2103      1080.978      -2785.1883      369.84873      410.16787      1179.3873      0             -4744.5922      0              0             -150.635        91438.605      45.051563      45.051563      45.051563      0.9173898      673.02186     -621.79966     -561.31543    
    203000   406000         97.465065      294.0978      -1365.1739     -1757.8148      1045.5989     -2803.4137      369.45783      395.51069      1170.371       0             -4738.7532      0              0             -150.46227      91543.576      45.068796      45.068796      45.068796      0.91633785     578.2426       418.99258     -114.94177    
    203500   407000         100.7474       77.284789     -1609.9626     -1712.8973      1080.8116     -2793.7089      367.44776      404.02476      1172.6278      0             -4737.8092      0              0             -150.82164      91325.448      45.032971      45.032971      45.032971      0.91852649     381.77663     -436.09649      286.17422    
    204000   408000         100.15914     -236.33863     -2053.7604     -1739.4533      1074.5008     -2813.9541      357.95807      396.03353      1184.6333      0             -4752.579       0              0             -151.04691      91189.246      45.010573      45.010573      45.010573      0.91989843     254.67566     -630.75338     -332.93817    
    204500   409000         103.65324     -31.878881     -1741.8773     -1699.3528      1111.9852     -2811.338       360.43827      402.94951      1178.309       0             -4753.0348      0              0             -150.58957      91466.191      45.056093      45.056093      45.056093      0.91711312     137.64082     -173.16492     -60.112547    
    205000   410000         100.6129       92.585285     -1616.2302     -1739.5774      1079.3687     -2818.9461      361.51425      384.25983      1180.4167      0             -4745.1369      0              0             -150.7801       91350.608      45.037107      45.037107      45.037107      0.91827351     15.016258      171.29095      91.448649    
    205500   411000         100.25251     -258.4855      -2033.4537     -1688.6213      1075.5025     -2764.1238      370.70444      410.01795      1200.6499      0             -4745.4961      0              0             -150.57728      91473.656      45.057319      45.057319      45.057319      0.91703827     64.862091     -446.99003     -393.32856    
    206000   412000         99.21812       88.772368     -1613.0569     -1731.1274      1064.4056     -2795.533       370.76734      394.72818      1178.2876      0             -4739.3161      0              0             -151.03158      91198.502      45.012096      45.012096      45.012096      0.91980506     73.724199      17.509769      175.08314    
    206500   413000         100.14003      6.3805804     -1709.6792     -1718.2102      1074.2958     -2792.506       361.43494      399.61869      1175.4822      0             -4729.0419      0              0             -150.24095      91678.43       45.090916      45.090916      45.090916      0.91498997     303.0873      -261.08373     -22.861835    
    207000   414000         101.65713     -178.20314     -1924.7629     -1688.1117      1090.5712     -2778.6828      374.54742      412.10205      1187.7317      0             -4753.064       0              0             -151.26483      91057.878      44.988948      44.988948      44.988948      0.92122555    -168.21213      169.37993     -535.77723    
    207500   415000         100.58758      151.75524     -1512.662      -1714.8469      1079.0971     -2793.944       367.58295      415.05643      1176.8145      0             -4753.3979      0              0             -150.774        91354.305      45.037714      45.037714      45.037714      0.91823635     291.06514      249.75409     -85.5535      
    208000   416000         101.90938      553.89442     -942.9256      -1680.0124      1093.2772     -2773.2897      380.4196       415.06219      1163.3937      0             -4732.1652      0              0             -150.95229      91246.409      45.019976      45.019976      45.019976      0.91932213     504.35905      678.9426       478.38159    
    208500   417000         100.26239      91.311144     -1601.958      -1723.7297      1075.6084     -2799.3381      359.36151      416.45002      1171.8119      0             -4746.9615      0              0             -150.62911      91442.178      45.05215       45.05215       45.05215       0.91735395     475.77885     -360.38997      158.54455    
    209000   418000         102.6363      -82.263766     -1803.689      -1694.0034      1101.0756     -2795.079       366.89009      415.76531      1161.1498      0             -4738.8842      0              0             -150.65738      91425.018      45.049332      45.049332      45.049332      0.91752614    -75.731934      268.85001     -439.90937    
    209500   419000         99.408489      299.5793      -1332.853      -1732.6591      1066.4478     -2799.1069      375.45011      400.80018      1174.1603      0             -4749.5175      0              0             -150.51986      91508.552      45.063048      45.063048      45.063048      0.91668857     645.20676      129.19789      124.33326    
    210000   420000         100.16115      88.286808     -1637.0204     -1754.4944      1074.5224     -2829.0168      364.02071      393.29471      1163.585       0             -4749.9172      0              0             -150.96821      91236.782      45.018393      45.018393      45.018393      0.91941914     406.92212      44.51063      -186.57233    
    210500   421000         102.57666     -90.669891     -1789.5015     -1668.5561      1100.4358     -2768.9919      381.2053       410.52288      1183.7608      0             -4744.4809      0              0             -150.59307      91464.061      45.055743      45.055743      45.055743      0.91713448     228.69672      29.70331      -530.4097     
    211000   422000         100.9613       139.11342     -1521.654      -1706.9023      1083.1063     -2790.0087      371.89691      412.03411      1181.4893      0             -4755.429       0              0             -150.85024      91308.137      45.030126      45.030126      45.030126      0.91870063     154.51338      89.740087      173.08678    
    211500   423000         100.86838      176.27587     -1490.7318     -1725.5007      1082.1095     -2807.6102      366.57287      399.55406      1166.4127      0             -4740.1498      0              0             -150.8286       91321.233      45.032279      45.032279      45.032279      0.91856888     633.93544     -161.84545      56.737618    
    212000   424000         100.33629     -232.703       -2031.3342     -1720.95        1076.4012     -2797.3512      363.20356      408.2307       1181.7363      0             -4750.5218      0              0             -150.60305      91458.004      45.054749      45.054749      45.054749      0.91719521    -386.06666      235.08127     -547.1236     
    212500   425000         100.73271      153.57214     -1502.841      -1706.96        1080.654      -2787.614       380.44446      407.34488      1156.12        0             -4731.5234      0              0             -151.13341      91137.058      45.001985      45.001985      45.001985      0.92042518     123.64334     -90.44154       427.51463    
    213000   426000         99.430469      166.03435     -1493.897      -1714.9221      1066.6836     -2781.6058      373.05287      420.84331      1172.7722      0             -4748.2742      0              0             -150.89942      91278.376      45.025233      45.025233      45.025233      0.91900018     170.79482      361.30798     -33.999747    
    213500   427000         102.10076     -55.553646     -1778.7876     -1704.6513      1095.3304     -2799.9817      360.40988      406.67832      1174.2126      0             -4741.2825      0              0             -150.5266       91504.449      45.062374      45.062374      45.062374      0.91672967    -32.201582      217.58726     -352.04661    
    214000   428000         101.2357      -31.306972     -1735.1922     -1693.5489      1086.0501     -2779.5989      379.85395      398.49536      1195.1435      0             -4753.0918      0              0             -151.01741      91207.061      45.013504      45.013504      45.013504      0.91971875    -335.50579      92.00548       149.5794     
    214500   429000         99.802321      164.13918     -1501.8609     -1719.7566      1070.6728     -2790.4294      364.5056       405.45026      1179.9431      0             -4740.3284      0              0             -151.31951      91024.973      44.983529      44.983529      44.983529      0.92155856     298.56778      160.48287      33.366885    
    215000   430000         100.20063     -147.5612      -1924.7037     -1727.8243      1074.9459     -2802.7702      357.76299      401.27885      1172.0048      0             -4733.8168      0              0             -150.55777      91485.507      45.059265      45.059265      45.059265      0.91691948     24.835326     -219.64927     -247.86965    
    215500   431000         99.176903      144.79324     -1533.7965     -1726.3667      1063.9634     -2790.3301      365.23139      405.66088      1183.3215      0             -4744.5438      0              0             -151.03954      91193.696      45.011305      45.011305      45.011305      0.91985353    -285.97838      465.75788      254.60021    
    216000   432000         100.15385      53.047157     -1659.5228     -1730.1574      1074.444      -2804.6014      361.6957       402.56857      1181.7117      0             -4750.5773      0              0             -150.86071      91301.799      45.029084      45.029084      45.029084      0.91876441     439.52309     -46.410664     -233.97096    
    216500   433000         101.64124      45.734697     -1638.324      -1699.3657      1090.4006     -2789.7663      366.77136      388.64259      1188.0438      0             -4733.2241      0              0             -150.50491      91517.637      45.064539      45.064539      45.064539      0.91659756     158.41297      65.582313     -86.791195    
    217000   434000         100.04035     -15.368868     -1732.913      -1712.4672      1073.2264     -2785.6936      362.93874      409.75515      1185.3066      0             -4743.6942      0              0             -150.99726      91219.233      45.015506      45.015506      45.015506      0.91959602     17.641592      61.912589     -125.66078    
    217500   435000         100.67397      43.018637     -1674.2532     -1731.4021      1080.0239     -2811.426       364.48123      394.62942      1182.1116      0             -4752.6482      0              0             -151.20997      91090.911      44.994388      44.994388      44.994388      0.92089147     38.61996       79.845857      10.590094    
    218000   436000         100.67146     -193.67679     -1969.1859     -1711.156       1079.9969     -2791.1529      359.53845      408.16519      1186.798       0             -4745.6545      0              0             -150.77833      91351.682      45.037283      45.037283      45.037283      0.91826272    -38.230075     -130.59898     -412.20132    
    218500   437000         100.82537      38.646065     -1636.6672     -1688.2947      1081.6481     -2769.9428      378.30566      398.40041      1182.6194      0             -4729.2683      0              0             -150.36806      91600.926      45.078206      45.078206      45.078206      0.91576414     513.06634     -395.95891     -1.1692337    
    219000   438000         101.57653     -488.58135     -2353.4546     -1701.2409      1089.7065     -2790.9474      367.04284      394.7815       1189.8028      0             -4742.5746      0              0             -150.47986      91532.876      45.06704       45.06704       45.06704       0.91644497    -69.426047     -549.30055     -847.01745    
    219500   439000         100.59974     -14.145069     -1734.9964     -1716.1413      1079.2275     -2795.3687      365.9951       399.03421      1179.756       0             -4740.154       0              0             -150.69767      91400.576      45.045317      45.045317      45.045317      0.9177715     -126.85479      186.53572     -102.11614    
    220000   440000         102.23        -446.52742     -2273.9891     -1677.4347      1096.7168     -2774.1515      372.44837      405.2211       1186.2443      0             -4738.0653      0              0             -150.35901      91606.442      45.079111      45.079111      45.079111      0.915709      -301.05932     -360.06735     -678.45558    
    220500   441000         99.167778      140.69322     -1537.8707     -1725.1861      1063.8655     -2789.0516      371.76084      388.4696       1186.9822      0             -4736.2642      0              0             -150.87983      91290.23       45.027182      45.027182      45.027182      0.91888084     728.50019     -322.9329       16.512385    
    221000   442000         101.54653     -196.98311     -1995.6122     -1732.973       1089.3846     -2822.3576      354.53133      388.95628      1172.0838      0             -4737.929       0              0             -150.66104      91422.802      45.048968      45.048968      45.048968      0.91754838    -191.68266      140.66647     -539.93314    
    221500   443000         98.182621     -42.929123     -1803.134      -1745.9967      1053.2968     -2799.2935      360.60446      406.37899      1179.1545      0             -4745.4314      0              0             -150.92573      91262.465      45.022617      45.022617      45.022617      0.91916039     102.09464     -396.03501      165.15299    
    222000   444000         100.35555      122.46185     -1562.5539     -1725.6         1076.6079     -2802.2079      367.04664      400.18822      1166.5176      0             -4735.9604      0              0             -150.87653      91292.225      45.02751       45.02751       45.02751       0.91886076     448.75792      554.19005     -635.56241    
    222500   445000         100.41589     -706.08311     -2628.7011     -1684.8601      1077.2552     -2762.1153      373.17813      398.13625      1184.2784      0             -4717.7081      0              0             -150.27556      91657.316      45.087454      45.087454      45.087454      0.91520074    -1051.7334     -236.10438     -830.41157    
    223000   446000         97.874989      278.45103     -1357.0608     -1727.7986      1049.9966     -2777.7952      372.33696      408.60134      1191.3632      0             -4750.0967      0              0             -150.87359      91294.004      45.027802      45.027802      45.027802      0.91884286     567.6071      -191.15419      458.90018    
    223500   447000         99.932941      38.066764     -1699.9258     -1750.6852      1072.0741     -2822.7594      359.44332      390.3798       1168.1566      0             -4740.7391      0              0             -150.64686      91431.404      45.05038       45.05038       45.05038       0.91746205     28.138099      310.01391     -223.95171    
    224000   448000         100.61531     -176.7869      -1947.9615     -1710.9681      1079.3945     -2790.3627      364.79528      387.95693      1177.8313      0             -4720.9462      0              0             -149.846        91920.062      45.130496      45.130496      45.130496      0.91258471     529.5282      -473.45268     -586.43623    
    224500   449000         100.3977       195.35535     -1478.19       -1738.2528      1077.06       -2815.3128      357.12927      402.59678      1162.9388      0             -4737.9777      0              0             -150.89627      91280.283      45.025546      45.025546      45.025546      0.91898098     73.485784      370.63894      141.94132    
    225000   450000         101.69626      16.155579     -1709.1493     -1730.6396      1090.9909     -2821.6305      362.44453      387.37593      1176.9137      0             -4748.3646      0              0             -151.01214      91210.24       45.014027      45.014027      45.014027      0.91968669    -83.417833     -54.552273      186.43684    
    225500   451000         101.14442     -294.26111     -2114.9965     -1723.9159      1085.0708     -2808.9867      360.67057      393.12367      1179.2369      0             -4742.0178      0              0             -151.14646      91129.188      45.000689      45.000689      45.000689      0.92050468    -40.354145     -272.75813     -569.67105    
    226000   452000         99.340559     -79.813325     -1835.1536     -1728.8299      1065.7191     -2794.549       360.49713      405.88892      1175.9001      0             -4736.8351      0              0             -150.79147      91343.723      45.035975      45.035975      45.035975      0.91834272     271.11114      16.910852     -527.46197    
    226500   453000         99.184998      149.84956     -1513.0616     -1712.8176      1064.0502     -2776.8679      369.94579      400.36826      1188.5852      0             -4735.7672      0              0             -150.69083      91404.724      45.045998      45.045998      45.045998      0.91772985     629.41521     -79.150467     -100.71607    
    227000   454000         99.971307      20.301124     -1684.0025     -1710.9726      1072.4857     -2783.4583      366.67578      405.46649      1197.0433      0             -4752.6439      0              0             -151.20605      91093.274      44.994777      44.994777      44.994777      0.92086759     592.35173     -252.44403     -279.00434    
    227500   455000         98.636775     -64.5283       -1835.6888     -1749.8189      1058.1689     -2807.9879      363.82741      387.95759      1170.0481      0             -4729.8209      0              0             -150.9527       91246.157      45.019935      45.019935      45.019935      0.91932468     38.319179      287.82659     -519.73067    
    228000   456000         100.45751      45.088447     -1650.6093     -1710.6706      1077.7017     -2788.3722      361.48814      412.35685      1175.546       0             -4737.7632      0              0             -150.80035      91338.345      45.035091      45.035091      45.035091      0.9183968      161.96977     -229.29587      202.59144    
    228500   457000         98.920412     -137.86583     -1917.7964     -1733.9608      1061.2118     -2795.1726      362.48153      400.4928       1188.5181      0             -4746.665       0              0             -150.64626      91431.771      45.050441      45.050441      45.050441      0.91745837     153.42182      85.314777     -652.33408    
    229000   458000         101.02581     -141.9758      -1921.5108     -1732.3854      1083.7984     -2816.1838      356.77868      395.21039      1181.8132      0             -4749.986       0              0             -150.79807      91339.721      45.035317      45.035317      45.035317      0.91838296     277.19483     -436.95804     -266.16418    
    229500   459000         99.575778     -201.43561     -1984.3075     -1716.1352      1068.2425     -2784.3777      377.5853       397.3772       1180.0097      0             -4739.3499      0              0             -150.88767      91285.486      45.026402      45.026402      45.026402      0.9189286     -217.66947     -8.6792342     -377.95814    
    230000   460000         101.96302     -143.08908     -1882.6408     -1692.1429      1093.8526     -2785.9956      378.16332      400.80933      1176.8086      0             -4741.7768      0              0             -150.88555      91286.766      45.026612      45.026612      45.026612      0.91891572    -1.3040943     -349.94635     -78.0168      
    230500   461000         100.61917     -120.73308     -1844.0275     -1683.0668      1079.436      -2762.5028      378.5489       416.21347      1180.2803      0             -4737.5455      0              0             -150.67384      91415.031      45.047691      45.047691      45.047691      0.91762637    -251.94144      274.26106     -384.51888    
    231000   462000         99.454667     -68.078876     -1818.299      -1727.4114      1066.9432     -2794.3546      363.91253      401.43182      1171.6583      0             -4731.3573      0              0             -150.46618      91541.193      45.068405      45.068405      45.068405      0.91636171     546.57822     -646.45044     -104.36442    
    231500   463000         102.18379     -51.66852      -1763.7331     -1694.9577      1096.2211     -2791.1788      360.05774      413.08762      1177.7129      0             -4742.0371      0              0             -150.9121       91270.707      45.023972      45.023972      45.023972      0.91907739     0.26966088    -154.28843     -0.98679052   
    232000   464000         99.834977      212.01061     -1452.1018     -1734.0301      1071.0232     -2805.0533      363.89162      405.38848      1175.0084      0             -4749.3418      0              0             -151.06027      91181.181      45.009246      45.009246      45.009246      0.91997978     359.4211       135.40924      141.20151    
    232500   465000         101.78002      154.89077     -1505.9586     -1712.2174      1091.8895     -2804.1069      376.54962      395.60722      1170.8731      0             -4747.1368      0              0             -150.84966      91308.487      45.030183      45.030183      45.030183      0.91869711     258.14014      292.24573     -85.71355     
    233000   466000         99.878879     -245.20212     -2033.5848     -1706.9281      1071.4942     -2778.4222      363.5541       401.42494      1203.1921      0             -4746.5934      0              0             -150.78701      91346.423      45.036419      45.036419      45.036419      0.91831558    -56.333853     -490.90116     -188.37136    
    233500   467000         98.868447     -22.003635     -1750.0224     -1720.6579      1060.6543     -2781.3122      367.82514      408.31904      1183.6326      0             -4741.0889      0              0             -150.52302      91506.626      45.062732      45.062732      45.062732      0.91670786     278.0714       55.967537     -400.04984    
    234000   468000         98.782688      51.587627     -1685.0992     -1753.7958      1059.7343     -2813.5301      361.448        398.86976      1190.7884      0             -4764.6363      0              0             -150.8486       91309.126      45.030288      45.030288      45.030288      0.91869069     63.066366     -262.10888      353.80539    
    234500   469000         98.84142      -190.27197     -1975.7409     -1722.7421      1060.3644     -2783.1064      376.84046      403.24946      1186.6291      0             -4749.8254      0              0             -151.07325      91173.349      45.007957      45.007957      45.007957      0.92005881    -189.70958     -29.495996     -351.61034    
    235000   470000         98.284479      28.908252     -1721.9306     -1760.3242      1054.3895     -2814.7137      352.96525      403.79773      1179.6571      0             -4751.1338      0              0             -151.24979      91066.929      44.990439      44.990439      44.990439      0.92113399    -156.69202      229.31526      14.101514    
    235500   471000         100.35627      129.73339     -1548.7704     -1721.3667      1076.6156     -2797.9823      358.87943      408.89883      1178.5183      0             -4744.2789      0              0             -150.9912       91222.892      45.016108      45.016108      45.016108      0.91955913     126.02821      202.08415      61.087826    
    236000   472000         101.09386      77.504849     -1621.6423     -1724.899       1084.5284     -2809.4273      352.62565      396.81532      1183.3936      0             -4742.2619      0              0             -150.77952      91350.958      45.037164      45.037164      45.037164      0.91826999     49.639898      222.24976     -39.375115    
    236500   473000         100.05109     -154.71091     -1927.6674     -1721.5318      1073.3416     -2794.8734      367.68499      397.10168      1184.0296      0             -4743.6896      0              0             -150.76456      91360.024      45.038654      45.038654      45.038654      0.91817887    -33.879055     -366.86242     -63.391241    
    237000   474000         98.07843       395.33252     -1224.0936     -1749.1883      1052.1791     -2801.3673      362.43854      397.42197      1180.8463      0             -4742.0741      0              0             -151.2364       91074.995      44.991767      44.991767      44.991767      0.92105241     369.72068      436.50731      379.76957    
    237500   475000         101.85916      364.6051      -1200.0946     -1685.6775      1092.7385     -2778.416       379.44223      407.77285      1177.6769      0             -4743.308       0              0             -150.83104      91319.758      45.032036      45.032036      45.032036      0.91858372     557.40279      484.05648      52.356046    
    238000   476000         100.04093      12.874201     -1704.1152     -1721.2708      1073.2326     -2794.5034      357.50485      415.44728      1174.4366      0             -4741.8921      0              0             -150.74582      91371.381      45.04052       45.04052       45.04052       0.91806474    -124.73138      113.65052      49.703464    
    238500   477000         101.19279      174.74399     -1467.3473     -1700.1715      1085.5897     -2785.7612      367.33971      402.87231      1184.7539      0             -4740.7271      0              0             -150.76675      91358.699      45.038436      45.038436      45.038436      0.91819219     696.83266     -182.87749      10.276791    
    239000   478000         100.96921      377.20276     -1196.6424     -1698.1571      1083.1912     -2781.3483      369.4277       407.39117      1185.3104      0             -4743.4776      0              0             -151.08541      91166.007      45.006749      45.006749      45.006749      0.92013291     406.41854      551.03066      174.15909    
    239500   479000         99.020017      18.053711     -1696.2603     -1720.2948      1062.2803     -2782.5751      364.71384      412.73822      1185.5269      0             -4745.5541      0              0             -150.89078      91283.6        45.026092      45.026092      45.026092      0.91894758     109.6565      -265.00362      209.50825    
    240000   480000         97.964283      55.160069     -1662.3662     -1735.6197      1050.9545     -2786.5742      371.8459       410.75811      1190.2922      0             -4759.4705      0              0             -151.2612       91060.062      44.989308      44.989308      44.989308      0.92120346     42.558354      95.280513      27.64134     
    240500   481000         103.37988     -35.638784     -1743.6407     -1696.2246      1109.0527     -2805.2772      374.37241      380.05978      1180.3694      0             -4740.0788      0              0             -150.98309      91227.792      45.016914      45.016914      45.016914      0.91950974     145.42876     -368.68063      116.33552    
    241000   482000         100.34283      328.55588     -1272.9383     -1708.6278      1076.4714     -2785.0992      370.63587      412.15093      1178.7838      0             -4746.6698      0              0             -151.48289      90926.798      44.96735       44.96735       44.96735       0.92255359     770.22667     -31.117937      246.55892    
    241500   483000         99.53227      -286.61819     -2123.5236     -1740.9603      1067.7758     -2808.7361      359.49365      385.32178      1192.4655      0             -4746.017       0              0             -150.49836      91521.62       45.065193      45.065193      45.065193      0.91655768    -294.71611     -128.676       -436.46245    
    242000   484000         99.662747      118.83074     -1580.261      -1738.8178      1069.1755     -2807.9933      354.1512       403.18014      1176.7543      0             -4742.0789      0              0             -150.54815      91491.352      45.060224      45.060224      45.060224      0.91686091     414.8958       52.195102     -110.59868    
    242500   485000         101.03893      8.4571185     -1675.5751     -1686.8653      1083.9391     -2770.8044      374.77852      403.76678      1187.0797      0             -4736.4294      0              0             -150.47035      91538.661      45.06799       45.06799       45.06799       0.91638705     29.175554     -104.83267      101.02847    
    243000   486000         98.400801     -340.70889     -2183.8397     -1731.2086      1055.6374     -2786.846       368.46081      402.18262      1187.4128      0             -4744.9022      0              0             -151.20651      91092.994      44.994731      44.994731      44.994731      0.92087042    -599.2178      -74.055011     -348.85388    
    243500   487000         97.62832       50.916295     -1678.2908     -1746.0385      1047.3503     -2793.3888      368.60515      391.56327      1195.6621      0             -4749.2193      0              0             -150.97112      91235.024      45.018104      45.018104      45.018104      0.91943685     89.902105      69.053493     -6.2067147    
    244000   488000         99.340585      142.66295     -1521.3508     -1710.3098      1065.7194     -2776.0291      380.25251      420.68553      1186.7905      0             -4763.7577      0              0             -151.66142      90819.763      44.949699      44.949699      44.949699      0.92364086     154.33335     -131.85556      405.51107    
    244500   489000         98.540286     -276.41955     -2085.0179     -1715.7108      1057.1338     -2772.8446      366.829        427.7846       1177.741       0             -4745.1992      0              0             -150.35312      91610.032      45.079699      45.079699      45.079699      0.91567312    -297.7722      -94.753682     -436.73277    
    245000   490000         98.945077     -112.25175     -1904.2391     -1755.0362      1061.4764     -2816.5126      360.7679       398.12848      1172.8285      0             -4748.2374      0              0             -151.12875      91139.865      45.002447      45.002447      45.002447      0.92039683    -150.48507      94.045771     -280.31596    
    245500   491000         101.2714      -81.275702     -1805.1541     -1696.8171      1086.433      -2783.2501      372.84963      399.41107      1183.0045      0             -4738.5154      0              0             -150.70066      91398.766      45.045019      45.045019      45.045019      0.91778967     253.44064     -25.541548     -471.72619    
    246000   492000         100.48634      251.40812     -1372.3834     -1707.1028      1078.011      -2785.1137      362.3777       421.06835      1170.6317      0             -4739.1915      0              0             -150.87936      91290.512      45.027228      45.027228      45.027228      0.918878       174.64509      330.26972      249.30955    
    246500   493000         100.12977     -211.54204     -2038.0915     -1756.7601      1074.1857     -2830.9459      349.21667      405.22046      1171.2418      0             -4756.6248      0              0             -151.04625      91189.648      45.010639      45.010639      45.010639      0.91989437     262.72662     -932.75259      35.399854    
    247000   494000         99.957975      70.858274     -1633.7165     -1728.1213      1072.3427     -2800.464       363.44182      405.97133      1173.487       0             -4743.3642      0              0             -150.77442      91354.051      45.037672      45.037672      45.037672      0.9182389      326.47537      170.25958     -284.16013    
    247500   495000         102.34501      436.23353     -1101.3867     -1682.2731      1097.9506     -2780.2237      382.49331      409.70309      1174.4142      0             -4746.8343      0              0             -150.85483      91305.354      45.029668      45.029668      45.029668      0.91872864     325.0718       235.47861      748.15019    
    248000   496000         99.009305      195.85015     -1491.502      -1751.8578      1062.1654     -2814.0232      353.20083      394.86404      1186.9396      0             -4749.0278      0              0             -151.1082       91152.259      45.004487      45.004487      45.004487      0.92027169     282.05169      684.23135     -378.7326     
    248500   497000         98.542196     -469.20219     -2380.4609     -1753.2289      1057.1543     -2810.3832      349.83062      392.61016      1177.6339      0             -4730.4579      0              0             -150.26687      91662.615      45.088323      45.088323      45.088323      0.91514783    -319.91765     -345.06622     -742.62272    
    249000   498000         100.05905     -118.73721     -1878.9144     -1720.7651      1073.427      -2794.1921      366.44858      401.56565      1179.811       0             -4742.0174      0              0             -150.81717      91328.158      45.033417      45.033417      45.033417      0.91849923    -550.71497     -51.50624       246.00956    
    249500   499000         98.598011     -65.118382     -1851.1391     -1764.5883      1057.7531     -2822.3414      350.37897      396.056        1187.285       0             -4756.0613      0              0             -151.13452      91136.386      45.001874      45.001874      45.001874      0.92043197     224.13653     -180.81924     -238.67244    
    250000   500000         102.15759      3.5962699     -1696.6417     -1701.4285      1095.9401     -2797.3685      361.95936      402.5398       1185.6799      0             -4747.5476      0              0             -150.9191       91266.471      45.023275      45.023275      45.023275      0.91912005     378.16095      8.8041056     -376.17625    
Loop time of 678.399 on 1 procs for 250000 steps with 3600 atoms

Performance: 63.679 ns/day, 0.377 hours/ns, 368.515 timesteps/s, 1.327 Matom-step/s
99.7% CPU use with 1 MPI tasks x 1 OpenMP threads

MPI task timing breakdown:
Section |  min time  |  avg time  |  max time  |%varavg| %total
---------------------------------------------------------------
Pair    | 562.93     | 562.93     | 562.93     |   0.0 | 82.98
Bond    | 90.161     | 90.161     | 90.161     |   0.0 | 13.29
Neigh   | 0.0087484  | 0.0087484  | 0.0087484  |   0.0 |  0.00
Comm    | 9.0891     | 9.0891     | 9.0891     |   0.0 |  1.34
Output  | 0.032581   | 0.032581   | 0.032581   |   0.0 |  0.00
Modify  | 13.79      | 13.79      | 13.79      |   0.0 |  2.03
Other   |            | 2.384      |            |       |  0.35

Nlocal:           3600 ave        3600 max        3600 min
Histogram: 1 0 0 0 0 0 0 0 0 0
Nghost:          14408 ave       14408 max       14408 min
Histogram: 1 0 0 0 0 0 0 0 0 0
Neighs:              0 ave           0 max           0 min
Histogram: 1 0 0 0 0 0 0 0 0 0

Total # of neighbors = 0
Ave neighs/atom = 0
Ave special neighs/atom = 5.9666667
Neighbor list builds = 2450
Dangerous builds = 0
WARNING: No fixes with time integration, atoms won't move
For more information see https://docs.lammps.org/err0028 (src/verlet.cpp:60)


---------------------------------------------------------------------
      Device Time Info (average): 
---------------------------------------------------------------------
Data Transfer:   9.0409 s.
Neighbor copy:   5.4323 s.
Neighbor build:  13.2438 s.
Force calc:      613.5984 s.
Device Overhead: 625.4193 s.
CPU Neighbor:    0.2882 s.
CPU Cast/Pack:   4.8990 s.
CPU Driver_Time: 3.7571 s.
CPU Idle_Time:   545.2721 s.
Average split:   1.0000.
Max Mem / Proc:  36.42 MB.
Prefetch mode:   None.
Vector width:    32.
Lanes / atom:    4.
Pair block:      256.
Neigh block:     128.
Neigh mode:      Hybrid (binning on host) with subgroup support.
Neigh sorting:   Unavailable or disabled.
---------------------------------------------------------------------


--------------------------------------------------------------------------
- Using acceleration for lj/cut:
-  with 1 proc(s) per device.
-  with 1 thread(s) per proc.
-  Horizontal vector operations: ENABLED
-  Shared memory system: No
--------------------------------------------------------------------------
Device 0: NVIDIA A800 40GB Active, 108 CUs, 20/39 GB, 1.4 GHZ (Mixed Precision)
--------------------------------------------------------------------------

Initializing Device and compiling on process 0...Done.
Initializing Device 0 on core 0...Done.

Generated 1 of 1 mixed pair_coeff terms from arithmetic mixing rule
Setting up Verlet run ...
  Unit style    : real
  Current step  : 250000
  Time step     : 2
Per MPI rank memory allocation (min/avg/max) = 14.71 | 14.71 | 14.71 Mbytes
   Step          Time           Temp          Press         Enthalpy        TotEng         KinEng         PotEng         E_bond        E_angle        E_dihed        E_impro         E_vdwl         E_coul         E_long         E_tail         Volume           Lx             Ly             Lz          Density          Pxx            Pyy            Pzz      
    250000   500000         102.15759      3.5962805     -1696.6417     -1701.4285      1095.9401     -2797.3685      361.95936      402.5398       1185.6799      0             -4747.5476      0              0             -150.9191       91266.471      45.023275      45.023275      45.023275      0.91912005     378.16096      8.8041388     -376.17626    
Loop time of 1.082e-06 on 1 procs for 0 steps with 3600 atoms

92.4% CPU use with 1 MPI tasks x 1 OpenMP threads

MPI task timing breakdown:
Section |  min time  |  avg time  |  max time  |%varavg| %total
---------------------------------------------------------------
Pair    | 0          | 0          | 0          |   0.0 |  0.00
Bond    | 0          | 0          | 0          |   0.0 |  0.00
Neigh   | 0          | 0          | 0          |   0.0 |  0.00
Comm    | 0          | 0          | 0          |   0.0 |  0.00
Output  | 0          | 0          | 0          |   0.0 |  0.00
Modify  | 0          | 0          | 0          |   0.0 |  0.00
Other   |            | 1.082e-06  |            |       |100.00

Nlocal:           3600 ave        3600 max        3600 min
Histogram: 1 0 0 0 0 0 0 0 0 0
Nghost:          14403 ave       14403 max       14403 min
Histogram: 1 0 0 0 0 0 0 0 0 0
Neighs:              0 ave           0 max           0 min
Histogram: 1 0 0 0 0 0 0 0 0 0

Total # of neighbors = 0
Ave neighs/atom = 0
Ave special neighs/atom = 5.9666667
Neighbor list builds = 0
Dangerous builds = 0
System init for write_data ...


---------------------------------------------------------------------
      Device Time Info (average): 
---------------------------------------------------------------------
Data Transfer:   0.0001 s.
Neighbor copy:   0.0013 s.
Neighbor build:  0.0054 s.
Force calc:      0.0001 s.
Device Overhead: 0.0025 s.
CPU Neighbor:    0.0001 s.
CPU Cast/Pack:   0.0000 s.
CPU Driver_Time: 0.0000 s.
CPU Idle_Time:   0.0069 s.
Average split:   1.0000.
Max Mem / Proc:  36.10 MB.
Prefetch mode:   None.
Vector width:    32.
Lanes / atom:    4.
Pair block:      256.
Neigh block:     128.
Neigh mode:      Hybrid (binning on host) with subgroup support.
Neigh sorting:   Unavailable or disabled.
---------------------------------------------------------------------


--------------------------------------------------------------------------
- Using acceleration for lj/cut:
-  with 1 proc(s) per device.
-  with 1 thread(s) per proc.
-  Horizontal vector operations: ENABLED
-  Shared memory system: No
--------------------------------------------------------------------------
Device 0: NVIDIA A800 40GB Active, 108 CUs, 20/39 GB, 1.4 GHZ (Mixed Precision)
--------------------------------------------------------------------------

Initializing Device and compiling on process 0...Done.
Initializing Device 0 on core 0...Done.

Generated 1 of 1 mixed pair_coeff terms from arithmetic mixing rule
STAGE COMPLETE: Tg step T=100K P=1.0atm steps=250000
Cuda driver error 4 in call at file '/home/alexzhao/lammps/lib/gpu/geryon/nvd_timer.h' in line 98.
Cuda driver error 4 in call at file '/home/alexzhao/lammps/lib/gpu/geryon/nvd_timer.h' in line 99.
Cuda driver error 4 in call at file '/home/alexzhao/lammps/lib/gpu/geryon/nvd_timer.h' in line 98.
Cuda driver error 4 in call at file '/home/alexzhao/lammps/lib/gpu/geryon/nvd_timer.h' in line 99.
Cuda driver error 4 in call at file '/home/alexzhao/lammps/lib/gpu/geryon/nvd_timer.h' in line 98.
Cuda driver error 4 in call at file '/home/alexzhao/lammps/lib/gpu/geryon/nvd_timer.h' in line 99.
