Authorization required, but no authorization protocol specified

Authorization required, but no authorization protocol specified

Authorization required, but no authorization protocol specified

Authorization required, but no authorization protocol specified

LAMMPS (22 Jul 2025 - Update 3)
KOKKOS mode with Kokkos version 4.6.2 is enabled
  will use up to 1 GPU(s) per node
  using 1 OpenMP thread(s) per MPI task
Reading data file ...
  orthogonal box = (4.6426144 4.6426144 4.6426144) to (49.641256 49.641256 49.641256)
  1 by 1 by 1 MPI processor grid
  reading atoms ...
  7860 atoms
  reading velocities ...
  7860 velocities
  scanning bonds ...
  4 = max bonds/atom
  scanning angles ...
  14 = max angles/atom
  scanning dihedrals ...
  34 = max dihedrals/atom
  scanning impropers ...
  11 = max impropers/atom
  orthogonal box = (4.6426144 4.6426144 4.6426144) to (49.641256 49.641256 49.641256)
  1 by 1 by 1 MPI processor grid
  reading bonds ...
  8340 bonds
  reading angles ...
  14700 angles
  reading dihedrals ...
  23430 dihedrals
  reading impropers ...
  6860 impropers
Finding 1-2 1-3 1-4 neighbors ...
  special bond factors lj:    0        0        1       
  special bond factors coul:  0        0        1       
     4 = max # of 1-2 neighbors
     8 = max # of 1-3 neighbors
    12 = max # of special neighbors
  special bonds CPU = 0.004 seconds
  read_data CPU = 0.295 seconds
PPPM Kokkos initialization ...
  using 12-bit tables for long-range coulomb
  G vector (1/distance) = 0.29520072
  grid = 30 30 30
  stencil order = 5
  estimated absolute RMS force accuracy = 0.00039126335
  estimated relative force accuracy = 1.178278e-06
  using double precision cuFFT
  3d grid and FFT values/proc = 50653 27000
Generated 6 of 6 mixed pair_coeff terms from sixthpower/sixthpower mixing rule
Neighbor list info ...
  update: every = 1 steps, delay = 0 steps, check = yes
  max neighbors/atom: 4000, page size: 100000
  master list distance cutoff = 11.5
  ghost atom cutoff = 11.5
  binsize = 11.5, bins = 4 4 4
  1 neighbor lists, perpetual/occasional/extra = 1 0 0
  (1) pair lj/class2/coul/long/kk, perpetual
      attributes: full, newton off, kokkos_device
      pair build: full/bin/kk/device
      stencil: full/bin/3d
      bin: kk/device
Setting up Verlet run ...
  Unit style    : real
  Current step  : 0
  Time step     : 1
Per MPI rank memory allocation (min/avg/max) = 46.87 | 46.87 | 46.87 Mbytes
   Step          Time           Temp          Press         Enthalpy        TotEng         KinEng         PotEng         E_bond        E_angle        E_dihed        E_impro         E_vdwl         E_coul         E_long         E_tail         Volume           Lx             Ly             Lz          Density          Pxx            Pyy            Pzz      
         0   0              474.62808      584.8841       20808.04       20030.82       11118.726      8912.0939      4982.169       4470.9372     -1561.3251      398.72597      741.52443      4617.3491     -4737.2868     -473.48388      91116.748      44.998642      44.998642      44.998642      0.93044362     1877.7399      101.35335     -224.44096    
      1000   1000           469.23012     -628.75477      19276.726      20108.676      10992.272      9116.4042      5149.1112      4589.6326     -1562.6032      394.15879      675.70318      4609.9981     -4739.5965     -475.51393      90727.755      44.934515      44.934515      44.934515      0.93443288    -64.530619      967.59227     -2789.3259    
      2000   2000           470.47896     -1003.795       18704.33       20044.244      11021.528      9022.7166      5014.2599      4601.987      -1595.1212      391.57847      726.08002      4618.4997     -4734.5673     -471.35421      91528.43       45.066311      45.066311      45.066311      0.92625861    -2163.4809     -964.35922      116.45511    
      3000   3000           478.36105     -2017.0125      17535.004      20235.726      11206.175      9029.5505      4968.7568      4638.2736     -1630.1457      377.32763      784.38183      4620.4405     -4729.4842     -469.90294      91811.112      45.112658      45.112658      45.112658      0.92340671    -2649.7244     -2001.7282     -1399.5851    
      4000   4000           471.14802      2123.3859      22983.148      20143.293      11037.201      9106.0916      5126.9431      4605.6535     -1719.4195      384.30384      822.2662       4617.8693     -4731.5249     -470.44848      91704.646      45.095213      45.095213      45.095213      0.92447876     1579.1435      3329.2134      1461.8008    
      5000   5000           483.43822      373.46073      20880.879      20379.255      11325.114      9054.1416      5055.8087      4548.4238     -1673.826       390.0126       837.29156      4621.5342     -4725.1033     -468.43142      92099.524      45.159847      45.159847      45.159847      0.92051504     848.3492      -827.03537      1099.0684    
      6000   6000           478.61856      1114.7107      21684.888      20206.732      11212.207      8994.5243      5082.2757      4443.1214     -1556.8969      397.70245      746.34159      4613.7596     -4731.7795     -474.48355      90924.778      44.967017      44.967017      44.967017      0.93240807     2662.8347     -127.25812      808.55561    
      7000   7000           471.65358     -571.41811      19324.66       20092.38       11049.044      9043.3358      5010.3993      4565.8089     -1550.8231      399.42213      738.63959      4614.4438     -4734.5549     -468.30675      92124.042      45.163854      45.163854      45.163854      0.92027005    -708.52626      90.517389     -1096.2454    
      8000   8000           471.04907     -325.86125      19651.204      20084.106      11034.883      9049.2228      4993.2956      4557.3385     -1560.6601      394.61357      787.76705      4613.4607     -4736.5925     -473.61193      91092.112      44.994586      44.994586      44.994586      0.93069526    -137.90703     -878.93201      39.255295    
      9000   9000           472.94648     -557.34345      19478.004      20223.385      11079.332      9144.0527      5226.8495      4485.4554     -1616.4823      410.36159      751.31681      4612.464      -4725.9123     -470.4613       91702.146      45.094804      45.094804      45.094804      0.92450395    -554.91746     -361.81155     -755.30136    
     10000   10000          466.3929      -1134.6685      18492.049      20015.728      10925.807      9089.9214      5029.8089      4600.4342     -1518.4998      392.8554       698.37483      4619.1898     -4732.2419     -468.54877      92076.458      45.156077      45.156077      45.156077      0.92074564    -470.18469     -399.99162     -2533.8292    
     11000   11000          471.45355      615.98609      21008.464      20187.946      11044.359      9143.5879      5057.6395      4654.0326     -1672.3777      395.42506      835.79171      4601.0328     -4727.9561     -472.34855      91335.755      45.034665      45.034665      45.034665      0.92821258     1716.16        195.81713     -64.018874    
     12000   12000          467.85575     -395.10806      19342.049      19874.508      10960.076      8914.4316      5029.3629      4507.7532     -1651.5868      399.38161      740.43918      4614.8662     -4725.7847     -466.88447      92404.681      45.209669      45.209669      45.209669      0.91747513    -1191.8591      829.20948     -822.67457    
     13000   13000          475.22027      402.79373      20725.232      20191.896      11132.599      9059.2978      5060.0906      4691.8185     -1634.7684      387.52358      657.25875      4627.8053     -4730.4306     -475.18341      90790.861      44.94493       44.94493       44.94493       0.93378338     1104.1161     -378.90117      483.1663     
     14000   14000          466.55442      414.31516      20605.9        20050.411      10929.591      9120.82        5070.9257      4573.5394     -1593.3822      395.37261      795.45854      4608.3806     -4729.4745     -469.28287      91932.422      45.132518      45.132518      45.132518      0.92218823     199.51223      158.86723      884.56604    
     15000   15000          466.31687     -2123.7772      17093.149      19930.3        10924.026      9006.2738      5084.8492      4529.0084     -1567.7862      387.13149      681.17186      4620.136      -4728.2371     -470.98361      91600.452      45.078128      45.078128      45.078128      0.92553034    -2425.3334     -2527.7733     -1418.2249    
     16000   16000          470.91767      455.91094      20660.181      20051.504      11031.805      9019.6987      5075.1319      4589.6132     -1668.9714      390.5658       752.47263      4622.1064     -4741.2198     -471.2729       91544.223      45.068902      45.068902      45.068902      0.92609882     1521.3062     -194.23441      40.661038    
     17000   17000          462.48725     -140.04765      19674.022      19860.669      10834.312      9026.3567      4995.5888      4589.3699     -1587.117       399.57881      739.56732      4623.9453     -4734.5764     -472.09857      91384.116      45.042613      45.042613      45.042613      0.92772136    -1648.5478      788.74965      439.65518    
     18000   18000          468.01192      1633.3961      21973.365      19825.729      10963.734      8861.9947      5057.3781      4548.4638     -1710.9495      389.13955      715.14607      4607.587      -4744.7704     -478.53103      90155.722      44.839879      44.839879      44.839879      0.94036179    -143.9066       1319.3927      3724.7023    
     19000   19000          470.66937     -1020.5473      18600.005      19961.569      11025.988      8935.5807      5110.749       4506.1617     -1621.1705      384.67491      671.51833      4620.3124     -4736.6652     -471.60066      91480.6        45.058459      45.058459      45.058459      0.92674291     114.2445      -1053.989      -2121.8974    
     20000   20000          472.67683     -1004.8444      18667.366      19995.739      11073.015      8922.7242      5018.8755      4563.8716     -1650.1879      383.06617      723.39659      4613.7897     -4730.0876     -475.94622      90645.349      44.920906      44.920906      44.920906      0.93528237    -543.7875      -1175.6169     -1295.1289    
     21000   21000          471.87368     -590.86304      19573.313      20368.478      11054.201      9314.2774      5299.5176      4539.4101     -1623.4524      381.73408      833.83718      4612.8249     -4729.5941     -467.5295       92277.195      45.188868      45.188868      45.188868      0.91874267    -367.68092     -461.88764     -943.02056    
     22000   22000          470.43083     -406.82086      19379.701      19920.597      11020.4        8900.1968      5097.3946      4425.2251     -1591.3694      374.95546      718.55205      4609.3023     -4733.8633     -473.22649      91166.305      45.006798      45.006798      45.006798      0.92993784     248.19452     -1680.583       211.92589    
     23000   23000          468.12891      456.47981      20806.456      20197.108      10966.475      9230.6334      5169.3938      4570.387      -1577.9281      401.18309      777.88933      4614.6112     -4724.903      -471.34126      91530.944      45.066723      45.066723      45.066723      0.92623317     1201.4928      382.62525     -214.67862    
     24000   24000          466.68455     -175.98696      19595.841      19829.064      10932.639      8896.4248      5011.8746      4406.8225     -1557.0245      389.60535      763.03565      4614.8439     -4732.7327     -474.77626      90868.72       44.957774      44.957774      44.957774      0.93298329     1080.0741      219.99326     -1828.0283    
     25000   25000          472.73411     -570.74175      19400.159      20157.665      11074.357      9083.3073      5101.0889      4446.749      -1499.8015      396.10646      764.40913      4610.5978     -4735.8426     -474.0595       91006.111      44.980421      44.980421      44.980421      0.93157477    -1989.4912     -367.75696      645.02293    
     26000   26000          468.84999      1076.947       21281.334      19852.76       10983.367      8869.3929      5097.7501      4521.4417     -1735.1487      380.66892      722.28244      4614.021      -4731.6226     -474.3195       90956.225      44.972201      44.972201      44.972201      0.9320857      2719.0358      258.44498      253.36028    
     27000   27000          470.26572     -617.74334      19131.631      19962.765      11016.532      8946.2325      5121.2808      4479.9012     -1676.2398      387.07977      752.38103      4614.3646     -4732.535      -467.64527      92254.352      45.185139      45.185139      45.185139      0.91897017     308.94971     -1313.9977     -848.18207    
     28000   28000          470.01901      1521.3841      22105.044      20073.724      11010.753      9062.9715      5113.0112      4591.2801     -1691.1244      377.1728       797.84049      4605.7553     -4730.964      -471.23762      91551.076      45.070027      45.070027      45.070027      0.9260295      745.33602      1755.6775      2063.1387    
     29000   29000          464.51579     -1469.3333      17795.221      19761.675      10881.833      8879.8416      5146.5196      4423.6794     -1666.3684      388.64136      702.87144      4615.9325     -4731.4343     -470.12773      91767.213      45.105467      45.105467      45.105467      0.92384845    -3252.2294     -1973.7495      817.97892    
     30000   30000          463.06738     -591.8708       19070.286      19866.037      10847.903      9018.1339      5116.1747      4453.0859     -1610.8843      380.82435      792.7722       4616.8059     -4730.6449     -467.98208      92187.956      45.174296      45.174296      45.174296      0.91963203     1648.1215     -2858.5461     -565.18774    
     31000   31000          471.57641     -1479.9555      18079.411      20068.217      11047.237      9020.9804      5035.5236      4516.898      -1584.3074      402.86942      767.24435      4613.4139     -4730.6614     -468.20432      92144.196      45.167147      45.167147      45.167147      0.92006877    -931.28147     -1586.6719     -1921.9131    
     32000   32000          460.92258      557.535        20418.978      19672.585      10797.658      8874.9269      5015.0516      4516.5619     -1696.4877      385.50361      745.86595      4631.2337     -4722.8021     -469.98527      91795.029      45.110024      45.110024      45.110024      0.9235685      167.30587      837.66847      667.63067    
     33000   33000          473.3445       546.41188      20803.568      20079.539      11088.656      8990.883       5041.16        4504.3376     -1636.7478      407.93736      792.53554      4611.6964     -4730.0361     -474.83623      90857.244      44.955882      44.955882      44.955882      0.93310112     1178.7792     -81.839981      542.29643    
     34000   34000          466.79953      1457.0346      21753.17       19786.289      10935.333      8850.956       4914.7902      4483.2952     -1623.0738      393.37365      781.13793      4625.7989     -4724.366      -466.09137      92561.918      45.235297      45.235297      45.235297      0.9159166      2443.599       2956.2548     -1028.7499    
     35000   35000          475.69151     -124.82269      19900.962      20067.742      11143.638      8924.1045      5014.5305      4494.1843     -1601.9828      404.71208      741.34283      4608.2204     -4736.9028     -470.89864      91616.979      45.080839      45.080839      45.080839      0.92536338     242.07895     -365.96415     -250.58287    
     36000   36000          461.61122      1418.7369      21565.987      19671.616      10813.79       8857.8252      4976.3632      4540.2095     -1739.9687      392.42526      820.16322      4600.569      -4731.9362     -471.21174      91556.103      45.070852      45.070852      45.070852      0.92597865     608.26766      1530.7742      2117.1687    
     37000   37000          467.30665     -1304.6458      18239.901      19994.861      10947.213      9047.6485      5071.0608      4512.3167     -1567.5684      403.88764      747.05952      4607.1183     -4726.2261     -467.74015      92235.638      45.182083      45.182083      45.182083      0.91915662    -2570.5704     -1831.7139      488.34683    
     38000   38000          462.98864     -564.03814      18886.503      19641.068      10846.058      8795.0101      4901.2074      4508.0901     -1627.2446      377.93148      752.85439      4608.3351     -4726.1637     -470.3172       91730.243      45.099409      45.099409      45.099409      0.92422078    -2325.0458      509.79014      123.14128    
     39000   39000          465.15379     -14.567565      19849.153      19868.733      10896.779      8971.9535      5030.0519      4571.6318     -1656.8201      404.78864      733.6018       4620.2945     -4731.595      -468.11128      92162.511      45.17014       45.17014       45.17014       0.91988593     943.82759     -1154.1833      166.65298    
     40000   40000          476.85737     -204.66285      19818.975      20090.625      11170.95       8919.6756      4963.7384      4509.5118     -1525.9748      394.4235       697.16944      4614.1216     -4733.3143     -474.03359      91011.085      44.981241      44.981241      44.981241      0.93152386    -315.61001     -1220.6499      922.27133    
     41000   41000          464.24344      1160.3652      21485.437      19915.209      10875.453      9039.756       5112.1227      4497.0922     -1743.5334      403.77718      873.97232      4626.2258     -4729.9009     -464.95533      92788.078      45.272109      45.272109      45.272109      0.91368416     1752.172       166.58945      1562.334     
     42000   42000          465.28389      214.16174      20187.363      19900.332      10899.827      9000.5049      4983.7814      4534.4178     -1611.3801      385.08899      817.31487      4624.3762     -4733.0943     -469.45256      91899.193      45.12708       45.12708       45.12708       0.92252167    -594.79743      2049.2942     -812.01151    
     43000   43000          466.09034      1238.6757      21501.363      19831.204      10918.719      8912.4848      5028.7266      4568.7679     -1747.6805      364.33492      806.80502      4623.3838     -4731.853      -466.63684      92453.717      45.217664      45.217664      45.217664      0.91698851     1040.4234     -310.57947      2986.1831    
     44000   44000          466.22467     -461.19031      19079.529      19693.944      10921.866      8772.0781      4986.5283      4486.2846     -1716.6381      362.4676       748.97388      4631.9262     -4727.4644     -472.27801      91349.396      45.036907      45.036907      45.036907      0.92807398     0.94111376    -1563.7158      179.20377    
     45000   45000          472.14081     -1111.4488      18239.394      19739.128      11060.458      8678.6692      4909.5193      4431.1251     -1651.9058      385.35651      725.45302      4610.2426     -4731.1215     -466.28832      92522.822      45.228928      45.228928      45.228928      0.91630362    -2258.6692     -88.977552     -986.69977    
     46000   46000          475.72954     -1179.0802      18498.947      20084.304      11144.529      8939.7751      5015.4503      4549.2848     -1615.8403      373.82548      717.88992      4629.686      -4730.5212     -467.94598      92195.067      45.175458      45.175458      45.175458      0.9195611     -742.834       -1309.215      -1485.1916    
     47000   47000          472.95102      512.32721      20500.865      19817.628      11079.439      8738.189       4954.4916      4443.0055     -1696.0875      373.96439      787.32328      4614.1354     -4738.6436     -471.7969       91442.548      45.052211      45.052211      45.052211      0.92712855     382.73807      1361.7812     -207.53762    
     48000   48000          460.60577     -443.46762      19050.284      19644.727      10790.237      8854.49        5015.7123      4450.8471     -1649.3824      389.42317      757.76241      4619.9627     -4729.8354     -469.38696      91912.036      45.129182      45.129182      45.129182      0.92239276    -357.82327     -478.14597     -494.43363    
     49000   49000          464.40878     -542.00913      19214.399      19931.338      10879.327      9052.011       5086.5937      4608.3866     -1641.3298      403.8879       712.84826      4619.0436     -4737.4193     -475.66809      90698.349      44.92966       44.92966       44.92966       0.93473583    -444.06882      262.86403     -1444.8226    
     50000   50000          468.76461     -689.33736      19057.468      19980.269      10981.367      8998.9022      5006.0193      4544.7667     -1587.0241      408.27297      746.44863      4619.2957     -4738.8769     -470.00547      91791.084      45.109377      45.109377      45.109377      0.92360819    -1434.2254     -1459.0265      825.23981    
     51000   51000          467.09658      137.20807      19951.56       19768.727      10942.291      8826.4355      5035.4927      4435.411      -1630.9225      376.59491      723.28645      4615.2582     -4728.6852     -472.17753      91368.836      45.040102      45.040102      45.040102      0.92787651     727.97032      652.58262     -968.92872    
     52000   52000          472.64534     -110.01426      19786.033      19932.262      11072.278      8859.9843      4957.92        4576.4588     -1667.7498      381.10916      729.82531      4614.5832     -4732.1623     -473.3648       91139.669      45.002415      45.002415      45.002415      0.93020962     589.23334     -2582.3715      1663.0954    
     53000   53000          471.49128     -1962.153       17408.872      20007.769      11045.243      8962.5267      5113.273       4574.866      -1676.8318      371.66338      697.15538      4616.6314     -4734.2308     -475.03217      90819.766      44.9497        44.9497        44.9497        0.93348618    -1627.6443     -2602.9906     -1655.8239    
     54000   54000          466.74181     -825.82858      18636.319      19746.93       10933.98       8812.9491      5122.375       4388.1298     -1689.216       373.51827      741.60457      4610.5106     -4733.9732     -467.85085      92213.813      45.178519      45.178519      45.178519      0.91937416    -1425.6675     -281.44728     -770.37094    
     55000   55000          471.00444     -993.95584      18693.353      20011.687      11033.838      8977.8498      5017.8969      4607.1717     -1617.577       390.13322      671.46791      4636.4168     -4727.6598     -474.3737       90945.832      44.970488      44.970488      44.970488      0.93219222    -1715.8244     -1244.641      -21.402092    
     56000   56000          466.99518      369.71734      20410.515      19912.066      10939.916      8972.1498      5036.5077      4548.2353     -1645.3807      387.14197      767.68863      4613.8888     -4735.9319     -466.68929      92443.328      45.215971      45.215971      45.215971      0.91709157     602.83265     -291.85135      798.17072    
     57000   57000          465.1489       192.46041      19875.894      19622.058      10896.665      8725.3936      4962.4946      4479.8779     -1732.8601      384.08671      744.92776      4624.9861     -4738.1194     -477.0546       90434.744      44.88609       44.88609       44.88609       0.93746046    -227.07066      814.36504     -9.913138     
     58000   58000          469.11763     -808.56373      18826.03       19907.115      10989.637      8917.4781      5007.9529      4552.9831     -1704.1835      402.59801      759.27492      4623.0442     -4724.1916     -470.58023      91678.971      45.091004      45.091004      45.091004      0.92473766     828.46164     -1692.2874     -1561.8654    
     59000   59000          465.96493     -405.01147      19191.529      19727.81       10915.781      8812.0291      4976.6536      4460.7064     -1636.3469      400.00345      723.39882      4623.7213     -4736.1075     -475.17576      90792.324      44.945172      44.945172      44.945172      0.93376834    -353.34596     -367.7695      -493.91897    
     60000   60000          470.49102     -435.53217      19399.515      19971.519      11021.81       8949.709       5085.6781      4447.3636     -1585.7261      397.00733      722.95462      4612.9887     -4730.5573     -479.0713       90054.051      44.823017      44.823017      44.823017      0.94142347    -1490.7529     -164.21183      348.36823    
     61000   61000          466.64374      487.01259      20340.846      19696.8        10931.683      8765.117       4840.5117      4479.9914     -1611.9602      389.17681      763.80346      4634.3409     -4730.7469     -475.77595      90677.789      44.926264      44.926264      44.926264      0.93494777    -276.59853      1982.936      -245.29969    
     62000   62000          465.28008      1114.6905      21003.101      19535.59       10899.738      8635.8518      4990.7323      4458.5948     -1749.3181      369.91423      681.36962      4621.0578     -4736.4989     -477.91656      90271.639      44.859088      44.859088      44.859088      0.93915429     920.17932      656.76436      1767.128     
     63000   63000          464.04944      1427.5009      21731.683      19846.1        10870.909      8975.1913      5099.2076      4526.0926     -1622.2053      392.27918      703.23121      4611.14       -4734.554      -476.33235      90571.868      44.908765      44.908765      44.908765      0.93604117     744.28384      2159.9921      1378.2268    
     64000   64000          468.22711      508.05756      20290.407      19619.168      10968.775      8650.3928      4839.7683      4475.17       -1611.9034      390.15585      681.97869      4617.9719     -4742.7485     -476.22861      90591.598      44.912025      44.912025      44.912025      0.93583731     1082.5171      601.65356     -159.99796    
     65000   65000          470.01343      2319.8353      22929.626      19850.758      11010.622      8840.1362      5072.4759      4508.8618     -1738.2376      376.44619      738.14762      4617.0032     -4734.561      -474.07321      91003.479      44.979988      44.979988      44.979988      0.93160171     2543.4579      2496.0397      1920.0083    
     66000   66000          464.81127     -218.4961       19372.615      19662.057      10888.755      8773.302       5066.6274      4415.0423     -1655.6027      379.86099      677.42576      4627.926      -4737.9778     -474.96475      90832.658      44.951826      44.951826      44.951826      0.9333537     -521.72798      177.9033      -311.66362    
     67000   67000          463.12881     -89.878735      19573.633      19693.094      10849.342      8843.7521      5122.3533      4460.2704     -1722.7747      390.7705       696.73148      4632.232      -4735.8308     -473.38009      91136.725      45.00193       45.00193       45.00193       0.93023967     268.27314     -386.09505     -151.81429    
     68000   68000          469.63497      384.04934      20224.138      19714.355      11001.756      8712.5985      4951.3448      4462.601      -1665.9033      388.73084      702.70078      4610.378      -4737.2535     -474.00277      91017.002      44.982216      44.982216      44.982216      0.93146329     1423.0116     -851.80116      580.93762    
     69000   69000          470.9871       866.57347      20778.033      19637.043      11033.432      8603.6118      4974.415       4460.6471     -1774.7925      386.01503      672.89633      4619.2286     -4734.7978     -477.86241      90281.868      44.860783      44.860783      44.860783      0.93904788     2139.0565      1514.5365     -1053.8725    
     70000   70000          471.05037      277.84482      20490.53       20119.605      11034.914      9084.691       5066.9266      4668.8045     -1643.1377      388.00463      713.73964      4617.9376     -4727.5843     -471.29796      91539.355      45.068103      45.068103      45.068103      0.92614807     650.3588      -644.20518      827.38084    
     71000   71000          466.24137      161.21179      19908.528      19695.593      10922.257      8773.3356      4926.4265      4571.2186     -1683.0783      380.23163      699.08403      4614.8305     -4735.3773     -476.35193      90568.147      44.90815       44.90815       44.90815       0.93607963    -980.55518     -119.96038      1584.1509    
     72000   72000          458.27409      795.31359      20493.636      19440.563      10735.614      8704.9489      4916.311       4513.004      -1706.6076      385.33823      733.97682      4601.6273     -4738.701      -475.18128      90791.269      44.944998      44.944998      44.944998      0.93377918     324.13315      1136.451       925.35662    
     73000   73000          463.408       -703.99763      18681.44       19610.285      10855.882      8754.4031      5049.8114      4425.4548     -1661.2276      398.78481      665.44055      4615.8237     -4739.6846     -476.87797      90468.24       44.891631      44.891631      44.891631      0.93711337    -1057.9657     -1004.658      -49.369137    
     74000   74000          459.45491     -558.09485      18791.468      19529.884      10763.276      8766.6079      4999.5695      4447.0701     -1624.9632      385.62608      681.02087      4608.6831     -4730.3986     -475.53864      90723.04       44.933736      44.933736      44.933736      0.93448144    -1724.3841     -1072.669       1122.7686    
     75000   75000          475.34228      585.9556       20623.501      19848.091      11135.457      8712.6338      5066.014       4435.9999     -1756.461       384.83891      721.17506      4602.0095     -4740.9426     -475.45831      90738.368      44.936267      44.936267      44.936267      0.93432358     317.94632      657.8997       782.02079    
     76000   76000          459.73839      675.61705      20383.362      19487.116      10769.917      8717.1986      4987.4071      4476.6437     -1717.3655      383.98144      697.80131      4619.6772     -4730.9466     -474.29949      90960.061      44.972833      44.972833      44.972833      0.93204639     1978.8912     -546.75949      594.71946    
     77000   77000          464.42493     -674.20393      18912.302      19814.406      10879.705      8934.7012      5041.8617      4425.4859     -1533.4619      382.40615      741.80434      4609.0716     -4732.4666     -470.23415      91746.444      45.102064      45.102064      45.102064      0.92405758    -1779.8107      266.63467     -509.43576    
     78000   78000          463.73954     -51.433654      19690.802      19758.605      10863.649      8894.9565      4937.7942      4585.0588     -1646.3711      392.79258      758.39836      4605.8144     -4738.5306     -477.28393      90391.292      44.878899      44.878899      44.878899      0.93791111     236.61262      249.24901     -640.16259    
     79000   79000          469.04063      383.11007      20167.039      19663.592      10987.833      8675.7591      4977.5539      4471.3808     -1702.8787      401.75054      644.62779      4623.6161     -4740.2913     -478.79454      90106.105      44.831652      44.831652      44.831652      0.94087961     285.37163      318.68548      545.27311    
     80000   80000          467.5929       486.60337      20470.94       19825.659      10953.918      8871.7401      4961.7619      4524.9801     -1612.6192      399.18689      716.41627      4615.4412     -4733.4271     -474.46605      90928.13       44.96757       44.96757       44.96757       0.9323737     -1053.0997      858.11202      1654.7978    
     81000   81000          462.85672      1081.373       21070.598      19635.616      10842.968      8792.6482      5092.3816      4408.7175     -1720.7792      386.44004      747.22993      4613.3906     -4734.7322     -474.1417       90990.333      44.977822      44.977822      44.977822      0.9317363      799.35797      1007.2039      1437.557     
     82000   82000          462.551        292.82048      19802.02       19415.859      10835.806      8580.0529      4834.4642      4459.6679     -1650.9616      379.06221      671.08085      4622.0535     -4735.3141     -477.10243      90425.678      44.88459       44.88459       44.88459       0.93755445    -231.32373      1513.4821     -403.69691    
     83000   83000          457.85018     -224.2312       19277.335      19574.624      10725.684      8848.9402      4974.9907      4572.4006     -1684.0795      390.99409      711.06971      4612.8957     -4729.3312     -474.56557      90909.063      44.964427      44.964427      44.964427      0.93256925     9.9745644     -86.813669     -595.85448    
     84000   84000          473.8895      -362.82894      19432.207      19909.685      11101.424      8808.2614      4916.576       4491.4972     -1603.2436      392.98362      727.59279      4616.0155     -4733.1601     -478.11         90235.115      44.853037      44.853037      44.853037      0.93953443    -330.8193      -219.62521     -538.04231    
     85000   85000          461.63137     -610.05186      18689.064      19494.433      10814.262      8680.1702      5042.5425      4484.5516     -1754.5834      384.136        639.41772      4617.0511     -4732.9453     -476.59722      90521.533      44.900444      44.900444      44.900444      0.93656166    -990.21605     -1006.7013      166.76179    
     86000   86000          465.81605      93.6701        19870.467      19746.627      10912.294      8834.3335      4940.4762      4559.1158     -1643.1437      386.61673      699.76614      4627.7715     -4736.2692     -475.90231      90653.712      44.922288      44.922288      44.922288      0.93519609     584.20425      560.40105     -863.59499    
     87000   87000          463.91398     -161.58203      19309.895      19525.429      10867.735      8657.6936      4870.5591      4516.0571     -1660.344       374.31543      682.61551      4611.1864     -4736.696      -471.69104      91463.071      45.055581      45.055581      45.055581      0.92692052    -797.43931      950.78603     -638.09282    
     88000   88000          465.47276      674.70819      20410.953      19522.369      10904.252      8618.1172      4910.7342      4516.5851     -1732.5779      372.24523      669.10449      4618.6833     -4736.6572     -477.74552      90303.957      44.864441      44.864441      44.864441      0.93881818     302.41761      423.47477      1298.2322    
     89000   89000          460.44544      1174.1629      21137.704      19583.146      10786.481      8796.6656      4911.1898      4573.2554     -1660.171       387.82202      705.94559      4618.3302     -4739.7064     -475.22672      90782.587      44.943565      44.943565      44.943565      0.93386848     364.66943      483.95162      2673.8676    
     90000   90000          456.27672     -611.07924      18660.23       19464.762      10688.823      8775.9385      5030.4538      4568.2965     -1708.8265      390.59363      619.57321      4612.2755     -4736.4277     -477.89642      90275.444      44.859718      44.859718      44.859718      0.93911471    -331.42042     -110.05659     -1391.7607    
     91000   91000          470.93675     -134.96544      19589.779      19769.652      11032.252      8737.4002      5078.3768      4439.4479     -1785.9633      382.81673      720.44609      4626.4346     -4724.1586     -472.10072      91383.701      45.042544      45.042544      45.042544      0.92772558     1141.4221     -1012.7861     -533.53231    
     92000   92000          457.88224     -31.100908      19463.395      19504.436      10726.435      8778.0015      5031.7729      4544.4696     -1715.3287      383.89231      641.68149      4624.6721     -4733.1582     -476.79453      90484.072      44.894249      44.894249      44.894249      0.9369494      507.27386     -438.26264     -162.31394    
     93000   93000          470.52382     -821.30339      18641.148      19722.223      11022.579      8699.6443      5019.1945      4525.3485     -1710.3753      379.63215      603.99197      4618.0593     -4736.2069     -477.99913      90256.046      44.856505      44.856505      44.856505      0.93931654    -1332.5028     -796.05194     -335.35542    
     94000   94000          459.93172     -53.692809      19560.554      19632.435      10774.446      8857.9891      4988.3158      4546.9145     -1677.8117      393.82669      714.10543      4622.7415     -4730.103      -469.97736      91796.573      45.110276      45.110276      45.110276      0.92355297    -330.89553     -340.12517      509.94228    
     95000   95000          463.39785      900.83546      20837.442      19638.915      10855.644      8783.2703      4982.4186      4478.6856     -1692.1103      392.71374      754.73141      4603.1207     -4736.2895     -472.90806      91227.693      45.016898      45.016898      45.016898      0.92931208     478.491        1335.0756      888.93976    
     96000   96000          462.71481     -270.33817      19187.295      19547.195      10839.643      8707.5517      5010.119       4462.2463     -1748.7074      375.37548      720.15695      4620.0607     -4731.6992     -472.61275      91284.695      45.026272      45.026272      45.026272      0.92873177     126.11733     -1440.939       503.80713    
     97000   97000          467.48229     -378.48504      19116.866      19618.704      10951.327      8667.3767      4901.5109      4534.1043     -1709.4701      381.01355      672.18278      4622.1301     -4734.0948     -474.53113      90915.661      44.965515      44.965515      44.965515      0.93250157     42.016986     -366.80449     -810.66761    
     98000   98000          471.17609      175.24552      20075.116      19841.549      11037.859      8803.69        5015.9153      4495.1843     -1708.59        387.40931      737.60528      4609.5648     -4733.3989     -472.07757      91388.183      45.043281      45.043281      45.043281      0.92768008    -1805.7145      621.37772      1710.0733    
     99000   99000          460.886        859.51643      20533.67       19398.606      10796.801      8601.8053      4928.5495      4435.3682     -1776.1083      374.07187      751.21913      4615.2239     -4726.519      -476.44577      90550.308      44.905201      44.905201      44.905201      0.93626404     1109.8361      453.46656      1015.2466    
    100000   100000         465.37646      780.86515      20661.872      19625.309      10901.996      8723.3133      4874.0549      4614.5283     -1756.1997      382.41554      741.02432      4605.4398     -4737.9497     -473.97936      91021.497      44.982956      44.982956      44.982956      0.9314173      766.64335      1022.3143      553.63783    
    101000   101000         458.6578      -293.33174      19220.542      19611.256      10744.603      8866.6526      4930.5962      4506.7103     -1639.9069      402.88077      776.25706      4623.9219     -4733.8066     -472.36741      91332.108      45.034066      45.034066      45.034066      0.92824964    -595.0498       1512.7039     -1797.6493    
    102000   102000         462.31403      679.90586      20564.21       19648.563      10830.255      8818.3082      4870.5085      4525.9989     -1669.3824      388.81109      832.85038      4594.5802     -4725.0585     -467.19705      92342.858      45.199584      45.199584      45.199584      0.91808938     572.86922      1571.2435     -104.39515    
    103000   103000         465.38441      52.919751      19810.507      19740.773      10902.182      8838.5915      5046.5052      4484.2041     -1656.0044      400.56692      688.29717      4609.6424     -4734.6198     -477.48095      90353.994      44.872726      44.872726      44.872726      0.93829828    -781.24103      782.13337      157.86692    
    104000   104000         463.62461      545.66803      20321.066      19593.024      10860.956      8732.0672      4901.2809      4543.514      -1737.9427      387.60843      736.91847      4633.1323     -4732.4442     -471.57558      91485.464      45.059258      45.059258      45.059258      0.92669364    -480.88048      463.26742      1654.6171    
    105000   105000         463.79396      853.20444      20865.112      19733.334      10864.924      8868.4108      5093.2811      4551.0427     -1751.9537      395.65979      700.22757      4611.3163     -4731.163      -474.31993      90956.142      44.972187      44.972187      44.972187      0.93208656     818.90249      1034.09        706.62079    
    106000   106000         463.69748     -662.10815      18833.81       19724.376      10862.663      8861.7128      4905.5237      4575.2387     -1669.3202      391.76543      769.97628      4613.8235     -4725.2947     -467.78057      92227.667      45.180782      45.180782      45.180782      0.91923606    -1520.1354      463.89533     -930.08439    
    107000   107000         464.69389     -415.76468      18978.441      19534.168      10886.005      8648.1623      4990.9279      4476.2894     -1806.3361      382.72926      725.21022      4607.8662     -4728.5245     -470.72272      91651.218      45.086454      45.086454      45.086454      0.92501768     364.64612     -1990.6833      378.74315    
    108000   108000         455.53768      233.83302      19622.406      19308.371      10671.51       8636.861       4870.4808      4524.6189     -1720.737       396.52736      682.20744      4614.6571     -4730.8935     -468.49798      92086.439      45.157708      45.157708      45.157708      0.92064584    -1544.8376      1821.4393      424.89731    
    109000   109000         464.37018      323.14971      19827.102      19400.704      10878.422      8522.282       4867.2701      4465.391      -1708.9376      362.93677      657.74157      4616.8171     -4738.9369     -476.83544      90476.309      44.892965      44.892965      44.892965      0.93702979     924.80118     -734.2928       778.94076    
    110000   110000         461.59663      588.68151      20259.425      19475.953      10813.449      8662.5047      4915.4239      4451.9038     -1703.6699      385.65015      743.18785      4604.5107     -4734.5018     -472.75524      91257.183      45.021748      45.021748      45.021748      0.92901177    -390.14941      1200.0917      956.10226    
    111000   111000         459.55938     -593.8967       18641.544      19435.877      10765.724      8670.1532      5023.5231      4462.94       -1727.3618      366.34729      657.75345      4619.2637     -4732.3124     -470.42229      91709.751      45.09605       45.09605       45.09605       0.92442729    -1358.9202      727.58502     -1150.355     
    112000   112000         467.94562     -2598.6779      16303.753      19740.476      10962.181      8778.2949      4995.09        4459.6621     -1580.9481      381.4662       632.75869      4620.5121     -4730.2462     -475.75925      90680.971      44.92679       44.92679       44.92679       0.93491497    -2357.3839     -2776.2418     -2662.408     
    113000   113000         456.11322      713.9479       20410.232      19451.666      10684.993      8766.6725      5038.228       4467.4212     -1726.4905      372.80958      719.26858      4627.8232     -4732.3875     -468.62322      92061.83       45.153685      45.153685      45.153685      0.92089194     1285.5846      94.287156      761.9719     
    114000   114000         466.10142      735.4922       20609.943      19628.575      10918.979      8709.5965      4982.7257      4446.381      -1713.5234      389.37003      716.7162       4622.6444     -4734.7174     -471.54746      91490.921      45.060153      45.060153      45.060153      0.92663836     1586.4888      748.99416     -129.00634    
    115000   115000         463.55239     -366.18479      19103.1        19590.083      10859.265      8730.8188      4933.4747      4451.4201     -1643.0605      386.47063      710.01621      4621.6166     -4729.119      -473.11387      91188.007      45.010369      45.010369      45.010369      0.92971652     878.07005     -946.2726      -1030.3518    
    116000   116000         456.84023     -988.14028      18183.568      19512.97       10702.024      8810.9454      5017.7222      4398.0374     -1603.8208      374.19905      732.63747      4619.7593     -4727.5892     -467.67241      92248.997      45.184265      45.184265      45.184265      0.91902351    -640.74079     -1142.3714     -1181.3087    
    117000   117000         458.52826      605.39214      20145.206      19338.072      10741.568      8596.5032      4911.8981      4437.0624     -1778.8454      378.15926      766.72914      4609.753      -4728.2532     -471.92197      91418.315      45.048231      45.048231      45.048231      0.92737431     1060.3407      1346.0787     -590.24297    
    118000   118000         462.26115      1795.4684      21977.916      19591.225      10829.016      8762.2091      4953.4611      4519.3663     -1794.1957      387.77352      810.2069       4616.4329     -4730.8359     -473.32661      91147.022      45.003625      45.003625      45.003625      0.93013458     932.77445      2269.7073      2183.9235    
    119000   119000         463.38704     -577.71329      18587.078      19354.627      10855.391      8499.2354      4933.4621      4429.3257     -1786.2876      364.68286      685.05143      4605.0957     -4732.0947     -473.57146      91099.896      44.995867      44.995867      44.995867      0.93061573    -2009.1251     -76.622282      352.6075     
    120000   120000         456.6544       581.30058      20234.429      19458.5        10697.671      8760.8288      5042.6905      4346.6516     -1689.3251      388.23569      791.68227      4611.238      -4730.3441     -471.36597      91526.147      45.065936      45.065936      45.065936      0.92628172     1753.2927     -1141.3032      1131.9122    
    121000   121000         463.61835      148.99635      19951.079      19752.367      10860.81       8891.5567      5166.6509      4409.1807     -1672.1119      386.63819      713.07079      4619.6594     -4731.5315     -471.76882      91447.991      45.053104      45.053104      45.053104      0.92707337    -1046.6224      1381.1461      112.46534    
    122000   122000         465.3483      -360.31877      19020.273      19498.215      10901.336      8596.8789      4946.7868      4397.329      -1649.6028      387.19758      629.11563      4616.3352     -4730.2825     -474.34123      90952.059      44.971514      44.971514      44.971514      0.9321284     -1201.7705      406.5789      -285.7647     
    123000   123000         460.41242     -1778.8436      17276.236      19631.934      10785.707      8846.2267      5038.4125      4506.4252     -1636.2013      389.89315      641.32823      4631.216      -4724.847      -475.11359      90804.204      44.947132      44.947132      44.947132      0.93364617     404.84833     -3451.8909     -2289.4882    
    124000   124000         456.57887      619.40805      20109.881      19286.126      10695.902      8590.2249      4995.92        4439.7932     -1831.789       373.91316      709.87506      4626.9294     -4724.4169     -473.10579      91189.564      45.010625      45.010625      45.010625      0.92970065     144.88254      36.770317      1676.5713    
    125000   125000         461.84377     -1666.2998      17227.481      19431.394      10819.238      8612.1555      4907.8954      4473.1497     -1641.5421      370.92181      623.39024      4612.2657     -4733.9253     -475.70526      90691.263      44.928489      44.928489      44.928489      0.93480887    -1080.476      -1350.955      -2567.4683    
    126000   126000         456.9303       829.56266      20514.284      19406.682      10704.134      8702.5478      5075.3376      4435.3811     -1777.5844      386.14845      695.17604      4621.3135     -4733.2246     -471.24305      91550.021      45.069854      45.069854      45.069854      0.92604017     1981.6412      743.51579     -236.46897    
    127000   127000         462.76258     -1276.1402      17770.914      19467.961      10840.762      8627.1984      4933.7953      4292.0333     -1597.8968      384.50789      736.34178      4612.1957     -4733.7788     -473.1337       91184.186      45.00974       45.00974       45.00974       0.92975549    -1227.0204     -1678.1695     -923.23064    
    128000   128000         457.77064      1099.6333      20724.925      19265.745      10723.82       8541.9251      5048.242       4347.0595     -1821.3007      368.40624      723.48815      4609.2263     -4733.1963     -474.15303      90988.159      44.977464      44.977464      44.977464      0.93175857     2672.4726      294.78802      331.63937    
    129000   129000         466.40421     -561.89445      18857.946      19595.634      10926.072      8669.5621      4941.7514      4514.1936     -1649.9052      375.1184       596.79273      4621.3083     -4729.6972     -479.24903      90020.654      44.817475      44.817475      44.817475      0.94177273    -1486.9507      286.44836     -485.181      
    130000   130000         465.58717      1481.2676      21255.892      19285.011      10906.932      8378.0792      4965.2307      4296.6609     -1845.8334      362.7078       707.44929      4621.9862     -4730.1223     -472.8816       91232.797      45.017737      45.017737      45.017737      0.92926009     940.58383     -275.74758      3778.9665    
    131000   131000         461.33044      203.71057      19779.177      19507.773      10807.213      8700.5597      5035.7456      4409.3181     -1708.3242      380.71043      707.01783      4610.4369     -4734.3449     -472.25501      91353.845      45.037638      45.037638      45.037638      0.92802878     1199.6259     -306.78289     -281.71133    
    132000   132000         459.72883      312.53246      19978.999      19564.864      10769.693      8795.1713      5142.3794      4386.8542     -1718.2045      392.72615      726.37001      4602.3764     -4737.3304     -474.82421      90859.545      44.956261      44.956261      44.956261      0.9330775      2468.3711      256.19119     -1786.9649    
    133000   133000         451.84562      117.43443      19461.088      19303.366      10585.02       8718.3468      5019.7718      4354.6169     -1697.1104      385.34572      774.58838      4604.7541     -4723.6197     -468.47274      92091.401      45.158519      45.158519      45.158519      0.92059623    -331.1334       1748.8581     -1065.4214    
    134000   134000         461.8866       1362.5142      21364.725      19552.643      10820.241      8732.4016      5069.9027      4415.0299     -1773.7587      372.58771      767.07731      4606.0157     -4724.4531     -473.08859      91192.879      45.011171      45.011171      45.011171      0.92966685     1013.5657      1820.9712      1253.0056    
    135000   135000         463.7891       1260.619       21060.061      19381.871      10864.81       8517.0611      4886.7497      4417.5353     -1775.5012      376.6686       706.86212      4627.4713     -4722.7247     -472.63086      91281.197      45.025697      45.025697      45.025697      0.92876736     1046.1422      1112.6059      1623.1091    
    136000   136000         466.66267     -2.4244445      19691.956      19695.169      10932.127      8763.042       5011.93        4490.5876     -1719.3093      384.56593      718.47392      4609.5609     -4732.767      -474.78826      90866.424      44.957396      44.957396      44.957396      0.93300686    -136.81927      530.78354     -401.2376     
    137000   137000         462.10403      1431.754       21428.412      19525.794      10825.335      8700.4589      4959.1435      4447.4081     -1664.9945      382.58534      694.60299      4617.3612     -4735.6478     -473.47399      91118.651      44.998955      44.998955      44.998955      0.93042419     3636.3376     -413.55095      1072.4755    
    138000   138000         453.03875     -442.18601      18671.83       19263.004      10612.97       8650.0337      4866.5819      4424.7582     -1656.2761      391.09587      714.69584      4632.4362     -4723.2583     -470.61856      91671.503      45.08978       45.08978       45.08978       0.92481299    -405.84581     -1471.5588      550.84662    
    139000   139000         463.418       -960.63551      18223.609      19510.18       10856.116      8654.064       4833.1838      4507.4322     -1670.0599      386.23541      705.64271      4619.8454     -4728.2155     -469.7902       91833.144      45.116266      45.116266      45.116266      0.92318517    -2138.5499     -12.845225     -730.51145    
    140000   140000         451.72086      902.03295      20259.535      19069.283      10582.097      8487.1859      4956.595       4440.7627     -1884.4936      368.97114      725.82782      4617.2928     -4737.7699     -476.82901      90477.53       44.893167      44.893167      44.893167      0.93701715     866.40293      500.98472      1338.7112    
    141000   141000         465.60586     -1506.9552      17516.431      19515.582      10907.37       8608.2123      4810.2333      4407.6099     -1591.583       386.38369      701.4143       4624.4536     -4730.2994     -474.27932      90963.931      44.973471      44.973471      44.973471      0.93200674    -1026.9433     -2488.5099     -1005.4125    
    142000   142000         452.14542      387.77499      19727.645      19216.401      10592.043      8624.3579      4895.0525      4439.2401     -1664.9498      390.94873      697.69982      4599.8654     -4733.4989     -477.233        90400.939      44.880496      44.880496      44.880496      0.93781102     673.2857       20.108356      469.93092    
    143000   143000         459.65474      1593.8814      21626.402      19493.636      10767.958      8725.6781      5077.3898      4442.9244     -1843.263       374.4991       784.9984       4615.6083     -4726.4789     -470.21009      91751.138      45.102833      45.102833      45.102833      0.9240103      729.19243      2806.721       1245.7307    
    144000   144000         462.95511      393.18277      19988.511      19467.871      10845.273      8622.5988      4892.486       4415.4754     -1668.7604      384.01119      707.09416      4621.3036     -4729.0113     -475.15675      90795.955      44.945771      44.945771      44.945771      0.93373099     900.88962      20.491686      258.16702    
    145000   145000         456.16725      1262.5596      21091.588      19407.9        10686.259      8721.6406      4958.9796      4514.1399     -1764.8262      378.27766      756.3706       4611.8394     -4733.1404     -471.8124       91439.545      45.051718      45.051718      45.051718      0.927159       479.14414      441.75505      2866.7797    
    146000   146000         458.86656     -80.216659      19437.718      19544.763      10749.493      8795.27        5034.6681      4492.1652     -1708.0821      378.44006      725.88071      4606.4093     -4734.2112     -471.49361      91501.37       45.061869      45.061869      45.061869      0.92653255     641.7586      -178.03999     -704.36859    
    147000   147000         459.52819      142.17711      19619.44       19431.013      10764.993      8666.0205      4923.2195      4517.3211     -1733.5449      390.35124      693.75751      4610.8434     -4735.9273     -474.75094      90873.567      44.958574      44.958574      44.958574      0.93293352     43.458055     -2.6259869      385.69925    
    148000   148000         464.1487      -373.66273      19140.5        19643.946      10873.234      8770.7122      4871.4362      4431.0593     -1535.9144      396.20313      717.52432      4614.7039     -4724.3002     -466.98809      92384.179      45.206325      45.206325      45.206325      0.91767874     1297.0928     -25.020897     -2393.06      
    149000   149000         452.44114     -338.0565       18795.725      19245.511      10598.97       8646.541       4909.6896      4475.6057     -1710.4342      383.1322       718.66491      4597.4686     -4727.5859     -472.89222      91230.748      45.0174        45.0174        45.0174        0.92928096     133.17813     -947.99242     -199.3552     
    150000   150000         452.16242      462.66125      19779.936      19160.456      10592.441      8568.0146      4864.0333      4426.4371     -1772.171       393.60589      780.38242      4605.7939     -4730.0671     -469.91035      91809.664      45.112421      45.112421      45.112421      0.92342127     22.981114      204.84244      1160.1602    
    151000   151000         458.44758     -242.61219      18988.711      19309.977      10739.678      8570.2983      4788.8689      4512.4777     -1674.0018      388.08619      671.88826      4611.7994     -4728.8204     -475.14662      90797.892      44.94609       44.94609       44.94609       0.93371107     345.28297     -1399.4196      326.30002    
    152000   152000         450.89089     -115.65034      19083.958      19239.099      10562.654      8676.4451      4921.1521      4475.5204     -1679.747       388.1101       669.76136      4626.358      -4724.7098     -469.02762      91982.453      45.140704      45.140704      45.140704      0.92168663    -600.04448     -104.02695      357.12039    
    153000   153000         459.11774     -1801.1812      17016.815      19400.146      10755.378      8644.7684      4967.1237      4531.5297     -1690.441       381.58957      587.52319      4605.1249     -4737.6817     -475.50207      90730.017      44.934888      44.934888      44.934888      0.93440958    -2558.75       -662.92106     -2181.8726    
    154000   154000         456.35108     -450.0645       18941.632      19539.966      10690.565      8849.4012      5034.0896      4507.2749     -1681.1021      394.69928      708.60199      4618.035      -4732.1975     -473.2715       91157.636      45.005372      45.005372      45.005372      0.93002628    -448.57953     -1438.1062      536.49227    
    155000   155000         452.96136     -1521.9674      17151.455      19171.766      10611.157      8560.609       4846.892       4521.8864     -1737.3746      377.64016      688.24038      4600.0227     -4736.698      -473.987        91020.03       44.982714      44.982714      44.982714      0.93143231    -2215.777      -2075.7887     -274.33646    
    156000   156000         456.04696     -378.77523      18844.993      19350.438      10683.441      8666.9966      5092.2385      4453.3015     -1824.6722      363.16069      702.18066      4610.5634     -4729.7759     -471.50592      91498.981      45.061477      45.061477      45.061477      0.92655674    -645.19394     -295.01359     -196.11815    
    157000   157000         459.19975      1112.9201      20873.507      19393.662      10757.299      8636.3632      4920.8042      4502.6782     -1785.7059      369.4922       747.17438      4616.598      -4734.6779     -473.18068      91175.133      45.008251      45.008251      45.008251      0.9298478      1937.3929      33.406736      1367.9607    
    158000   158000         458.63872      40.707434      19221.616      19167.823      10744.156      8423.6665      4820.6372      4362.9008     -1690.4322      370.14023      672.76362      4618.3311     -4730.6742     -476.12509      90611.295      44.91528       44.91528       44.91528       0.93563387     317.32971      319.47816     -514.68557    
    159000   159000         456.69784      147.26385      19774.09       19577.233      10698.689      8878.5443      4978.267       4612.6285     -1688.2146      397.51007      698.09502      4616.1129     -4735.8545     -470.67921      91659.69       45.087843      45.087843      45.087843      0.92493218    -87.467802      479.74678      49.512577    
    160000   160000         459.54561     -732.85282      18219.693      19190.47       10765.401      8425.069       4792.784       4438.043      -1710.4454      388.72971      654.37859      4600.4038     -4738.8248     -474.98153      90829.45       44.951297      44.951297      44.951297      0.93338666    -1771.9256      287.17625     -713.8091     
    161000   161000         469.13246      31.219119      19779.81       19738.321      10989.984      8748.3362      5074.0021      4477.0041     -1775.0312      380.87345      709.92293      4615.6051     -4734.0403     -473.43201      91126.731      45.000285      45.000285      45.000285      0.9303417     -561.83696     -112.56079      768.05511    
    162000   162000         459.34612      2368.3465      22376.35       19237.391      10760.728      8476.6636      4878.0144      4502.4879     -1871.0402      347.60806      731.74851      4620.1959     -4732.351      -474.72149      90879.204      44.959503      44.959503      44.959503      0.93287565     2897.4596      1430.4854      2777.0946    
    163000   163000         467.61675      76.899842      19570.855      19468.674      10954.477      8514.197       4923.0983      4382.6809     -1741.2741      377.8991       689.99753      4610.4078     -4728.6125     -473.51645      91110.48       44.99761       44.99761       44.99761       0.93050763     1187.4407     -194.61059     -762.13063    
    164000   164000         454.86779      385.99251      19752.555      19243.147      10655.818      8587.3294      4904.6336      4482.2998     -1759.4217      386.51333      675.02207      4635.0695     -4736.7873     -476.75189      90492.165      44.895588      44.895588      44.895588      0.9368656     -875.28788      1381.5279      651.73748    
    165000   165000         458.79736      665.98181      20363.921      19484.914      10747.872      8737.042       4925.4011      4558.6906     -1777.6846      386.16657      760.4888       4621.0673     -4737.0877     -476.70471      90501.121      44.897069      44.897069      44.897069      0.93677289    -1756.48        1724.038       2030.3875    
    166000   166000         455.65809     -391.62362      18601.431      19124.644      10674.331      8450.3126      4875.7298      4373.0124     -1773.8757      370.92261      712.3832       4619.9895     -4727.8491     -470.94407      91608.142      45.079389      45.079389      45.079389      0.92545264    -1429.8855     -1354.2605      1609.2751    
    167000   167000         452.61694      691.71841      20321.379      19400.871      10603.089      8797.7825      5061.6706      4514.852      -1752.1942      370.17611      722.79906      4616.0703     -4735.5914     -472.80388      91247.795      45.020204      45.020204      45.020204      0.92910735     295.77895      744.00389      1035.3724    
    168000   168000         448.75699      752.88746      20072.362      19075.981      10512.665      8563.3159      4915.0813      4342.8526     -1691.8157      400.70884      715.88729      4615.3871     -4734.7855     -475.42716      90744.314      44.937248      44.937248      44.937248      0.93426236     610.52098     -459.40798      2107.5494    
    169000   169000         455.847       -50.814364      19269.887      19337.932      10678.757      8659.1754      4933.1745      4449.4568     -1689.7504      384.49633      698.56064      4611.3641     -4728.1266     -469.86212      91819.087      45.113964      45.113964      45.113964      0.92332651    -328.42596     -189.41803      365.4009     
    170000   170000         452.76637      103.69098      19346.3        19209.31       10606.589      8602.7207      4980.0684      4511.0042     -1765.5949      370.28194      634.22442      4605.292      -4732.5555     -476.24631      90588.232      44.911469      44.911469      44.911469      0.93587208    -521.53116     -180.3611       1012.9652    
    171000   171000         451.09222      394.11606      19772.584      19246.881      10567.37       8679.5108      4965.501       4379.5212     -1688.1916      394.09412      739.37929      4618.367      -4729.1601     -471.69687      91461.94       45.055395      45.055395      45.055395      0.92693198    -1641.2501      1307.9089      1515.6894    
    172000   172000         460.68994     -1177.5634      17876.659      19451.499      10792.208      8659.2905      4977.7514      4415.3936     -1726.5338      387.84545      718.97888      4615.843      -4729.9879     -470.46482      91701.461      45.094691      45.094691      45.094691      0.92451087    -1258.351      -2151.8591     -122.48017    
    173000   173000         459.62882     -1023.9007      17908.36       19264.455      10767.35       8497.105       4903.915       4450.3097     -1713.2103      379.29979      614.30946      4601.4001     -4738.9187     -475.05853      90814.727      44.948868      44.948868      44.948868      0.93353798    -1420.1106     -724.53014     -927.06145    
    174000   174000         460.62504     -697.32567      18501.195      19428.745      10790.688      8638.0568      4947.6089      4502.9456     -1716.3197      379.38152      642.33892      4613.6769     -4731.5753     -473.01818      91206.455      45.013404      45.013404      45.013404      0.92952848    -1274.2679     -240.12802     -577.58104    
    175000   175000         461.42339     -426.81418      18573.178      19136.997      10809.39       8327.6071      4873.6111      4338.5544     -1766.3201      365.23806      621.91052      4628.7793     -4734.1661     -476.29695      90578.601      44.909877      44.909877      44.909877      0.93597159    -976.15092     -60.186219     -244.10539    
    176000   176000         456.18073     -190.54009      19001.016      19252          10686.575      8565.4257      5006.6104      4383.5023     -1691.5403      382.64656      609.79431      4611.8995     -4737.4871     -477.65935      90320.248      44.867139      44.867139      44.867139      0.93864885     432.24695      24.130931     -1027.9982    
    177000   177000         449.74061      60.248572      19043.56       18963.501      10535.707      8427.7936      4817.608       4389.4981     -1763.2145      376.35184      729.55606      4609.5134     -4731.5193     -473.49355      91114.887      44.998335      44.998335      44.998335      0.93046263    -238.37137     -630.82515      1049.9422    
    178000   178000         454.51056      430.47374      19898.771      19330.082      10647.449      8682.6329      4857.9613      4505.5332     -1670.3427      383.63174      731.44985      4613.7727     -4739.3731     -476.26778      90584.149      44.910794      44.910794      44.910794      0.93591426     132.90706      751.83058      406.68357    
    179000   179000         448.21541     -1166.1769      17445.828      19003.652      10499.978      8503.6746      4905.8614      4422.0657     -1707.9139      381.98678      635.34         4604.8639     -4738.5292     -471.00465      91596.359      45.077457      45.077457      45.077457      0.92557169    -1453.8273     -823.62416     -1221.0793    
    180000   180000         444.85285     -294.7059       18527.134      18915.013      10421.206      8493.8071      4863.6723      4428.5911     -1720.1997      377.30747      683.37288      4599.8381     -4738.775      -478.0492       90246.591      44.854939      44.854939      44.854939      0.93941495    -358.43792     -595.02381      69.344038    
    181000   181000         454.8645      -82.749692      19091.621      19201.243      10655.74       8545.5022      4936.7259      4338.0646     -1731.5277      370.58391      750.03682      4619.052      -4737.4334     -474.94977      90835.524      44.952299      44.952299      44.952299      0.93332425     1648.2801     -706.58027     -1189.949     
    182000   182000         463.06466      209.78648      19615          19333.969      10847.839      8486.1305      4764.8788      4513.3741     -1770.6334      377.08605      718.49831      4613.9489     -4731.0222     -469.68065      91854.563      45.119774      45.119774      45.119774      0.9229699     -311.37916      1201.1529     -260.4143     
    183000   183000         456.62416      348.32376      19452.14       18992.712      10696.963      8295.7496      4869.4514      4404.4568     -1894.7577      348.07769      681.11081      4620.8856     -4733.475      -477.0288       90439.635      44.886899      44.886899      44.886899      0.93740976     1335.6535      583.79532     -874.47754    
    184000   184000         454.93364      471.90273      19739.318      19113.402      10657.36       8456.042       4794.0783      4344.1195     -1661.568       383.54727      717.50993      4611.4616     -4733.1066     -474.3687       90946.79       44.970646      44.970646      44.970646      0.93218239    -694.44199      1455.2192      654.93095    
    185000   185000         463.86935      598.79524      20202.362      19405.617      10866.69       8538.9269      4818.0042      4400.6465     -1655.8355      391.01873      689.45336      4627.2275     -4731.588      -472.8661       91235.787      45.018229      45.018229      45.018229      0.92922963    -385.12191      1802.2758      379.23188    
    186000   186000         451.38563     -301.80444      18668.063      19069.759      10574.244      8495.5149      4821.7937      4409.662      -1661.5512      371.49295      668.55966      4620.5304     -4734.9725     -472.72476      91263.067      45.022716      45.022716      45.022716      0.92895188    -1313.3736     -735.1154       1143.0756    
    187000   187000         449.29245     -332.0868       18584.205      19024.74       10525.209      8499.5311      4896.2458      4373.1302     -1717.9629      368.26519      705.82967      4607.6998     -4733.6766     -474.2978       90960.387      44.972887      44.972887      44.972887      0.93204306     466.3934      -525.63712     -937.01668    
    188000   188000         452.25406      764.7102       20224.222      19206.599      10594.588      8612.0112      4902.7391      4437.6646     -1712.1847      375.08057      710.90334      4629.4254     -4731.6171     -472.81266      91246.099      45.019925      45.019925      45.019925      0.92912462    -99.903707      525.61889      1868.4154    
    189000   189000         454.04011     -434.52976      18603.871      19186.473      10636.428      8550.0452      4870.8206      4400.8037     -1765.51        375.18705      785.55021      4610.2899     -4727.0962     -469.2745       91934.062      45.132787      45.132787      45.132787      0.92217177    -317.08009     -677.41219     -309.09699    
    190000   190000         448.87073     -654.71267      18071.363      18934.821      10515.329      8419.4914      4784.0131      4302.28       -1640.2326      382.82902      714.70564      4611.5638     -4735.6677     -477.07751      90430.402      44.885371      44.885371      44.885371      0.93750547    -1173.1502     -708.1985      -82.78929     
    191000   191000         454.63746      902.10871      20271.77       19063.266      10650.422      8412.8438      4837.4037      4284.9507     -1765.9096      376.33838      807.99413      4609.0652     -4736.9987     -469.66695      91857.242      45.120212      45.120212      45.120212      0.92294298     491.77736      1706.7784      507.77035    
    192000   192000         460.66568     -496.76729      18733.467      19389.441      10791.64       8597.8013      4903.0239      4405.5853     -1706.6351      392.40413      716.63397      4619.7583     -4732.9692     -476.48083      90543.645      44.904099      44.904099      44.904099      0.93633294    -786.23457     -1035.0511      330.98385    
    193000   193000         457.19917      1194.3587      20734.444      19140.411      10710.433      8429.9778      4793.7162      4451.8232     -1813.7611      375.76505      739.1647       4614.549      -4731.2793     -471.42927      91513.857      45.063919      45.063919      45.063919      0.92640611     1367.114       466.59437      1749.3678    
    194000   194000         447.62683      0.14979336     19071.822      19071.624      10486.19       8585.4343      4855.1473      4332.0346     -1616.1446      401.04355      739.73249      4613.8984     -4740.2774     -476.09042      90617.893      44.91637       44.91637       44.91637       0.93556575    -352.99704     -56.900085      410.3465     
    195000   195000         456.53445      1076.2385      20595.939      19167.374      10694.861      8472.5129      4793.9814      4477.2528     -1785.6301      383.57411      729.54304      4612.4369     -4738.6454     -474.01035      91015.546      44.981976      44.981976      44.981976      0.9314782      1568.5028      112.79578      1547.4169    
    196000   196000         446.0053       214.3249       19132.29       18850.74       10448.203      8402.5363      4847.2182      4388.5435     -1804.9646      351.97071      718.96123      4635.4075     -4734.6002     -478.95558      90075.809      44.826626      44.826626      44.826626      0.94119607     16.582133      1851.3158     -1224.9232    
    197000   197000         451.42813      1483.581       21073.479      19113.995      10575.239      8538.756       4870.5934      4426.2417     -1765.2984      380.64774      751.67953      4612.2075     -4737.3154     -476.37487      90563.785      44.907429      44.907429      44.907429      0.93612471     835.84434      2062.3886      1552.5101    
    198000   198000         445.30941     -662.53922      17934.889      18818.417      10431.901      8386.516       4852.0029      4381.5392     -1777.8563      373.79014      654.83195      4632.7209     -4730.5128     -471.81378      91439.278      45.051674      45.051674      45.051674      0.92716171    -750.20145     -522.72299     -714.69323    
    199000   199000         449.25689      518.88304      19693.526      19014.555      10524.375      8490.1796      4923.0423      4441.9957     -1812.9449      368.84073      686.43221      4621.3127     -4738.4991     -480.83689      89723.381      44.768088      44.768088      44.768088      0.94489303     1218.826      -737.79325      1075.6164    
    200000   200000         448.01693      183.50765      19204.017      18960.983      10495.328      8465.6548      4874.8719      4377.7913     -1717.0507      373.77712      689.751        4605.0994     -4738.5852     -475.0797       90810.681      44.948201      44.948201      44.948201      0.93357957     480.90623     -19.861991      89.478703    
    201000   201000         453.52511     -428.84833      18474.761      19042.83       10624.364      8418.4666      4805.6081      4409.4687     -1750.2535      381.2631       675.1706       4632.2039     -4734.9943     -474.98746      90828.316      44.95111       44.95111       44.95111       0.93339831    -201.4514      -647.16636     -437.92722    
    202000   202000         457.88876     -905.61379      18088.71       19294.556      10726.587      8567.9683      4946.7234      4340.2876     -1677.1807      383.07435      673.38633      4633.4856     -4731.8082     -472.53147      91300.397      45.028853      45.028853      45.028853      0.92857205    -1303.4936     -1534.1452      120.79743    
    203000   203000         450.82837     -456.80595      18371.667      18974.294      10561.189      8413.1044      4749.6262      4492.9863     -1775.8212      369.40611      696.88033      4616.2791     -4736.2525     -476.93867      90456.727      44.889726      44.889726      44.889726      0.93723264     1357.7186     -1253.3026     -1474.8338    
    204000   204000         452.55075      878.48978      20276.381      19113.665      10601.538      8512.1274      4884.0847      4395.8264     -1727.2558      379.88015      695.65343      4623.4109     -4739.4725     -475.38165      90753.001      44.938682      44.938682      44.938682      0.93417293    -525.97135      2403.4891      757.95158    
    205000   205000         456.12886     -719.40746      18274.342      19232.872      10685.359      8547.513       4952.9141      4356.9009     -1682.2811      377.64977      662.14256      4616.6556     -4736.4689     -472.22405      91359.835      45.038623      45.038623      45.038623      0.92796793    -110.27913      331.00787     -2378.9511    
    206000   206000         451.63811     -589.08161      18179.962      18963.944      10580.158      8383.7857      4818.3589      4379.9657     -1742.9562      383.04092      656.43367      4624.9645     -4736.0217     -472.76852      91254.619      45.021326      45.021326      45.021326      0.92903787    -299.64382     -320.05342     -1147.5476    
    207000   207000         454.88791      317.64971      19628.547      19206          10656.289      8549.7107      4928.0445      4440.5285     -1771.3512      376.89284      689.248        4620.2989     -4733.9508     -472.99045      91211.802      45.014284      45.014284      45.014284      0.92947398     1000.704      -23.495376     -24.259497    
    208000   208000         450.13105     -770.57489      17990.808      19007.58       10544.854      8462.7258      4745.6112      4476.1752     -1713.9831      357.97019      699.14068      4632.7242     -4734.9126     -476.83778      90475.866      44.892892      44.892892      44.892892      0.93703438    -737.06103     -1581.4586      6.7949665    
    209000   209000         445.43243     -1942.5401      16258.555      18851.18       10434.783      8416.3972      4764.937       4401.4204     -1694.8003      374.25835      668.3225       4636.2951     -4734.0359     -471.42167      91515.333      45.064161      45.064161      45.064161      0.92639118    -3755.6819     -849.5758      -1222.3625    
    210000   210000         445.82375     -1798.8801      16506.09       18865.656      10443.95       8421.7056      4832.9617      4469.859      -1704.6234      373.93831      561.63084      4626.1952     -4738.256      -479.6776       89940.225      44.804124      44.804124      44.804124      0.94261491    -771.20868     -3065.738      -1559.6938    
    211000   211000         453.87098     -1443.8117      17130.853      19039.704      10632.466      8407.2378      4899.3552      4453.7891     -1887.0989      350.65183      712.14383      4614.145      -4735.7483     -475.90225      90653.724      44.92229       44.92229       44.92229       0.93519597     773.5983      -4023.5626     -1081.4708    
    212000   212000         448.92977      318.47072      19250.428      18831.972      10516.712      8315.2593      4819.9882      4393.8094     -1821.305       366.57331      668.61367      4628.9079     -4741.3281     -478.84878      90095.899      44.829959      44.829959      44.829959      0.94098619    -715.81815      1148.5151      522.71519    
    213000   213000         448.63289      1424.7779      20716.287      18845.232      10509.758      8335.4743      4751.5293      4402.2835     -1764.7235      361.78683      697.63412      4626.4983     -4739.5343     -479.11507      90045.824      44.821652      44.821652      44.821652      0.94150948     618.55533      1098.4804      2557.298     
    214000   214000         452.57666     -1397.6888      17321.009      19179.912      10602.145      8577.7672      4962.8039      4467.4901     -1761.386       363.29747      677.97868      4609.4643     -4741.8813     -473.07838      91194.849      45.011495      45.011495      45.011495      0.92964677    -1817.009      -736.93507     -1639.1223    
    215000   215000         451.66798      711.8131       19829.645      18888.489      10580.858      8307.6305      4874.2408      4348.3447     -1852.4596      359.28159      682.23041      4631.2867     -4735.2941     -475.86465      90660.887      44.923473      44.923473      44.923473      0.93512208     1441.2943      385.70676      308.43825    
    216000   216000         448.55514      1155.5947      20550.783      19050.557      10507.936      8542.6204      4879.3733      4527.8093     -1797.7595      378.34994      685.17268      4614.7583     -4745.0835     -484.64994      89017.47       44.650372      44.650372      44.650372      0.95238606     2091.8134      835.13548      539.83535    
    217000   217000         453.5307       2007.7565      21689.487      19037.844      10624.495      8413.3498      4913.5659      4412.3935     -1819.1064      368.40021      661.82399      4617.3222     -4741.0495     -476.40394      90558.258      44.906515      44.906515      44.906515      0.93618185     2412.5231      1926.3143      1684.4321    
    218000   218000         453.8167      -511.56514      18229.515      18898.727      10631.195      8267.5322      4826.4055      4323.6673     -1647.5693      371.03187      525.73617      4611.8141     -4743.5535     -480.96846      89698.836      44.764005      44.764005      44.764005      0.94515158    -349.69171     -965.50288     -219.50084    
    219000   219000         454.30738     -429.95769      18493.154      19059.256      10642.689      8416.5668      4775.3265      4464.0589     -1734.651       366.38166      676.40355      4609.4349     -4740.3876     -477.87035      90280.368      44.860534      44.860534      44.860534      0.93906349    -541.69505      541.70642     -1289.8844    
    220000   220000         453.17153     -1238.1091      17273.129      18914.872      10616.081      8298.7916      4844.8408      4277.8801     -1690.1         371.5786       593.48962      4630.934      -4729.8315     -474.49635      90922.324      44.966613      44.966613      44.966613      0.93243324    -2015.2454     -1085.572      -613.50988    
    221000   221000         450.99814     -197.73422      18671.989      18932.576      10565.166      8367.41        4773.9797      4454.969      -1751.6361      366.58575      641.89876      4619.2777     -4737.6648     -477.42757      90364.096      44.874398      44.874398      44.874398      0.93819339    -96.194186     -18.512788     -478.49568    
    222000   222000         457.57672     -808.74644      18081.763      19145.898      10719.277      8426.621       4798.8479      4420.1503     -1694.1371      384.18689      629.28236      4625.3784     -4737.0877     -478.18382      90221.186      44.850729      44.850729      44.850729      0.93967948    -1850.7219     -925.00919      349.49177    
    223000   223000         449.74218      689.26683      19851.637      18947.469      10535.744      8411.7245      4815.6316      4410.2502     -1744.8361      379.93825      675.17277      4614.8625     -4739.2947     -479.64215      89946.871      44.805227      44.805227      44.805227      0.94254526     853.51383      149.16378      1065.1229    
    224000   224000         449.01851     -135.44702      18741.382      18919.013      10518.791      8400.2221      4859.3306      4323.4725     -1721.1533      372.94863      701.21071      4605.793      -4741.3801     -479.765        89923.839      44.801403      44.801403      44.801403      0.94278667    -969.49506      395.26128      167.89272    
    225000   225000         449.43527      1114.3872      20411.45       18932.371      10528.554      8403.8167      4738.2192      4489.6748     -1739.876       374.87419      667.78093      4608.607      -4735.4633     -474.04994      91007.945      44.980723      44.980723      44.980723      0.931556       899.32784      1981.0057      462.82801    
    226000   226000         454.61136     -1131.463       17523.381      19004.156      10649.81       8354.3461      4874.5871      4371.1334     -1724.2797      374.6143       590.51718      4610.7853     -4743.0115     -480.76248      89737.267      44.770397      44.770397      44.770397      0.94474681    -873.45016     -864.16464     -1656.7742    
    227000   227000         453.66457      1304.1188      20896.225      19176.567      10627.631      8548.9362      4851.2013      4471.5402     -1704.861       382.11541      692.17981      4599.491      -4742.7305     -477.14919      90416.817      44.883123      44.883123      44.883123      0.93764634     1495.9328      1903.6912      512.73231    
    228000   228000         460.26537      1038.4397      20398.399      19024.139      10782.262      8241.8766      4756.0792      4360.4396     -1809.1087      360.98868      692.56058      4612.5073     -4731.5901     -475.43548      90742.725      44.936986      44.936986      44.936986      0.93427872     2843.3476      441.90416     -169.93256    
    229000   229000         448.13638      1111.6386      20184.345      18723.546      10498.126      8225.4198      4734.004       4302.5115     -1797.0777      359.2059       740.45365      4622.4524     -4736.1299     -478.79816      90105.424      44.831539      44.831539      44.831539      0.94088672     982.08648      3039.6013     -686.77194    
    230000   230000         450.63886      335.14833      19563.534      19116.142      10556.75       8559.3925      4874.2488      4388.7931     -1724.8322      386.71874      737.45831      4626.1894     -4729.1837     -471.33421      91532.315      45.066948      45.066948      45.066948      0.9262193     -212.05987      305.48363      912.02124    
    231000   231000         456.52824     -46.547555      18992.284      19053.8        10694.715      8359.0841      4800.6966      4396.9627     -1719.6076      368.53043      641.59495      4610.241      -4739.334      -476.09389      90617.234      44.916261      44.916261      44.916261      0.93557256     368.08573     -1105.4233      597.69494    
    232000   232000         447.03772      636.34407      19587.486      18740.12       10472.389      8267.731       4812.0588      4295.8154     -1841.2271      371.54452      745.43528      4619.6305     -4735.5264     -472.49817      91306.833      45.029911      45.029911      45.029911      0.9285066      421.40441      1494.0022     -6.3743792    
    233000   233000         448.04591     -2399.2455      15795.693      18997.285      10496.007      8501.2786      4867.4939      4386.5672     -1697.3997      377.38919      694.63362      4608.4145     -4735.8202     -471.50674      91498.821      45.06145       45.06145       45.06145       0.92655835    -4342.4525     -2779.6918     -75.592113    
    234000   234000         450.87779     -23.823979      18825.163      18856.733      10562.347      8294.3858      4867.6683      4344.2568     -1844.1321      358.62667      685.60735      4617.5954     -4735.2366     -474.814        90861.497      44.956583      44.956583      44.956583      0.93305745     928.16952     -709.92119     -289.72026    
    235000   235000         448.25054     -345.574        18617.938      19077.824      10500.801      8577.0239      4929.4247      4381.4206     -1678.7772      393.83621      654.30921      4629.3765     -4732.5663     -472.79143      91250.197      45.020599      45.020599      45.020599      0.92908289    -33.845089     -1731.4154      728.53849    
    236000   236000         450.57427      159.66677      18927.123      18714.782      10555.237      8159.5448      4844.6785      4233.7642     -1822.8615      371.8436       657.61757      4609.1541     -4734.6517     -473.10668      91189.393      45.010597      45.010597      45.010597      0.9297024     -277.25683      22.416725      733.8404     
    237000   237000         446.55127     -869.83625      17775.825      18932.473      10460.993      8471.4802      4844.8879      4465.601      -1727.5431      366.61233      649.10927      4611.08       -4738.2672     -473.168        91177.575      45.008653      45.008653      45.008653      0.92982289    -1633.1418      175.05468     -1151.4216    
    238000   238000         454.57464     -883.09266      17964.058      19132.69       10648.95       8483.7395      4948.9637      4337.9642     -1722.893       358.02596      680.2051       4617.2494     -4735.7758     -475.45347      90739.291      44.936419      44.936419      44.936419      0.93431408    -196.63232     -1372.0959     -1080.5498    
    239000   239000         446.63859      380.76053      19459.385      18957.496      10463.039      8494.4575      4984.7716      4345.0806     -1778.9449      369.10281      701.88829      4610.9895     -4738.4304     -477.33571      90381.487      44.877277      44.877277      44.877277      0.93801286     120.43379      877.67338      144.17441    
    240000   240000         446.43568     -19.108191      18783.412      18808.786      10458.285      8350.5001      4915.4599      4327.6035     -1818.899       369.22709      683.53978      4605.9614     -4732.3925     -473.83252      91049.704      44.987602      44.987602      44.987602      0.93112875     902.87318     -1693.6568      733.45909    
    241000   241000         442.24066     -101.31034      18485.099      18618.61       10360.012      8258.5979      4775.4842      4366.5602     -1800.5554      363.64293      682.26817      4608.1997     -4737.0019     -477.43809      90362.105      44.874069      44.874069      44.874069      0.93821405    -336.70438      235.33235     -202.55899    
    242000   242000         450.29065      206.96539      19334.844      19059.393      10548.593      8510.8         4868.9627      4383.1432     -1762.4331      381.74895      771.34755      4601.1392     -4733.1085     -472.75027      91258.141      45.021906      45.021906      45.021906      0.92900202    -619.3049      -519.89653      1760.0976    
    243000   243000         445.59694     -246.60132      18467.941      18794.705      10438.637      8356.068       4890.7546      4351.3945     -1775.2218      362.58146      640.44301      4615.5145     -4729.3984     -474.83252      90857.954      44.955999      44.955999      44.955999      0.93309384    -902.8334       978.5968      -815.56735    
    244000   244000         449.45361     -654.87003      18091.186      18961.549      10528.984      8432.565       4849.4883      4351.3611     -1726.129       368.27232      693.89184      4626.7752     -4731.0947     -473.40634      91131.672      45.001098      45.001098      45.001098      0.93029125    -778.43532     -694.27952     -491.89525    
    245000   245000         450.57336     -385.68583      18462.249      18972.826      10555.215      8417.6102      4830.7802      4327.6371     -1700.1674      378.6558       708.93061      4603.7346     -4731.9607     -475.28261      90771.911      44.941803      44.941803      44.941803      0.93397832    -1477.9489     -26.274151      347.16558    
    246000   246000         444.2697      -1327.066       16975.913      18716.388      10407.545      8308.8432      4776.1401      4408.9556     -1745.387       370.98644      628.46587      4606.0573     -4736.3752     -479.73795      89928.909      44.802245      44.802245      44.802245      0.94273352    -879.81715     -2128.9371     -972.44383    
    247000   247000         452.57047      226.36459      19293.798      18994.036      10602          8392.0354      4896.3347      4372.7847     -1771.8724      380.77897      652.01047      4597.97       -4735.971      -475.12744      90801.556      44.946695      44.946695      44.946695      0.93367339    -502.6681      -130.71825      1312.4801    
    248000   248000         455.71008     -2221.0918      15916.913      18849.257      10675.549      8173.7081      4629.8158      4311.5197     -1636.843       361.35969      631.02334      4613.193      -4736.3603     -476.5746       90525.83       44.901154      44.901154      44.901154      0.9365172     -2100.3868     -2008.3104     -2554.5782    
    249000   249000         447.53853      110.48335      18845.432      18700.508      10484.121      8216.3875      4824.282       4232.2489     -1723.1486      360.40486      659.8824       4605.6971     -4742.9792     -479.66372      89942.828      44.804556      44.804556      44.804556      0.94258763    -894.31928      868.57324      357.19608    
    250000   250000         448.67008      680.72017      19791.867      18888.64       10510.629      8378.0114      4897.6169      4384.7347     -1881.9551      358.32292      755.57933      4603.5255     -4739.8129     -474.18885      90981.285      44.976331      44.976331      44.976331      0.93182897     3.9095185      1319.4946      718.75636    
Loop time of 1142.93 on 1 procs for 250000 steps with 7860 atoms

Performance: 18.899 ns/day, 1.270 hours/ns, 218.737 timesteps/s, 1.719 Matom-step/s
100.0% CPU use with 1 MPI tasks x 1 OpenMP threads

MPI task timing breakdown:
Section |  min time  |  avg time  |  max time  |%varavg| %total
---------------------------------------------------------------
Pair    | 498.14     | 498.14     | 498.14     |   0.0 | 43.58
Bond    | 177.3      | 177.3      | 177.3      |   0.0 | 15.51
Kspace  | 204.83     | 204.83     | 204.83     |   0.0 | 17.92
Neigh   | 161.85     | 161.85     | 161.85     |   0.0 | 14.16
Comm    | 10.254     | 10.254     | 10.254     |   0.0 |  0.90
Output  | 3.7248     | 3.7248     | 3.7248     |   0.0 |  0.33
Modify  | 65.855     | 65.855     | 65.855     |   0.0 |  5.76
Other   |            | 20.97      |            |       |  1.83

Nlocal:           7860 ave        7860 max        7860 min
Histogram: 1 0 0 0 0 0 0 0 0 0
Nghost:          19346 ave       19346 max       19346 min
Histogram: 1 0 0 0 0 0 0 0 0 0
Neighs:              0 ave           0 max           0 min
Histogram: 1 0 0 0 0 0 0 0 0 0
FullNghs:  4.32258e+06 ave 4.32258e+06 max 4.32258e+06 min
Histogram: 1 0 0 0 0 0 0 0 0 0

Total # of neighbors = 4322576
Ave neighs/atom = 549.94606
Ave special neighs/atom = 5.8625954
Neighbor list builds = 12602
Dangerous builds = 0
System init for write_data ...
PPPM Kokkos initialization ...
  using 12-bit tables for long-range coulomb
  G vector (1/distance) = 0.29523977
  grid = 30 30 30
  stencil order = 5
  estimated absolute RMS force accuracy = 0.00039069659
  estimated relative force accuracy = 1.1765712e-06
  using double precision cuFFT
  3d grid and FFT values/proc = 50653 27000
Generated 6 of 6 mixed pair_coeff terms from sixthpower/sixthpower mixing rule
System init for write_restart ...
PPPM Kokkos initialization ...
  using 12-bit tables for long-range coulomb
  G vector (1/distance) = 0.29523977
  grid = 30 30 30
  stencil order = 5
  estimated absolute RMS force accuracy = 0.00039069659
  estimated relative force accuracy = 1.1765712e-06
  using double precision cuFFT
  3d grid and FFT values/proc = 50653 27000
Generated 6 of 6 mixed pair_coeff terms from sixthpower/sixthpower mixing rule
STAGE COMPLETE: NPT T=473.0->448.0K P=1.0->1.0atm steps=250000
