LAMMPS (22 Jul 2025 - Update 3)
KOKKOS mode with Kokkos version 4.6.2 is enabled
  will use up to 1 GPU(s) per node
  using 1 OpenMP thread(s) per MPI task
Reading data file ...
  orthogonal box = (4.9502558 4.9502558 4.9502558) to (47.255454 47.255454 47.255454)
  1 by 1 by 1 MPI processor grid
  reading atoms ...
  6500 atoms
  reading velocities ...
  6500 velocities
  scanning bonds ...
  4 = max bonds/atom
  scanning angles ...
  16 = max angles/atom
  scanning dihedrals ...
  38 = max dihedrals/atom
  scanning impropers ...
  12 = max impropers/atom
  orthogonal box = (4.9502558 4.9502558 4.9502558) to (47.255454 47.255454 47.255454)
  1 by 1 by 1 MPI processor grid
  reading bonds ...
  6970 bonds
  reading angles ...
  11760 angles
  reading dihedrals ...
  17500 dihedrals
  reading impropers ...
  4800 impropers
Finding 1-2 1-3 1-4 neighbors ...
  special bond factors lj:    0        0        1       
  special bond factors coul:  0        0        1       
     4 = max # of 1-2 neighbors
    10 = max # of 1-3 neighbors
    14 = max # of special neighbors
  special bonds CPU = 0.003 seconds
  read_data CPU = 0.248 seconds
PPPM Kokkos initialization ...
  using 12-bit tables for long-range coulomb
  G vector (1/distance) = 0.30055021
  grid = 30 30 30
  stencil order = 5
  estimated absolute RMS force accuracy = 0.0003171715
  estimated relative force accuracy = 9.5515254e-07
  using double precision cuFFT
  3d grid and FFT values/proc = 50653 27000
Generated 28 of 28 mixed pair_coeff terms from sixthpower/sixthpower mixing rule
Neighbor list info ...
  update: every = 1 steps, delay = 0 steps, check = yes
  max neighbors/atom: 4000, page size: 100000
  master list distance cutoff = 11.5
  ghost atom cutoff = 11.5
  binsize = 11.5, bins = 4 4 4
  1 neighbor lists, perpetual/occasional/extra = 1 0 0
  (1) pair lj/class2/coul/long/kk, perpetual
      attributes: full, newton off, kokkos_device
      pair build: full/bin/kk/device
      stencil: full/bin/3d
      bin: kk/device
Setting up Verlet run ...
  Unit style    : real
  Current step  : 0
  Time step     : 1
Per MPI rank memory allocation (min/avg/max) = 45.06 | 45.06 | 45.06 Mbytes
   Step          Time           Temp          Press         Enthalpy        TotEng         KinEng         PotEng         E_bond        E_angle        E_dihed        E_impro         E_vdwl         E_coul         E_long         E_tail         Volume           Lx             Ly             Lz          Density          Pxx            Pyy            Pzz      
         0   0              349.69716      99.806762      16392.227      16282.018      6774.4329      9507.585       3277.3005      3291.9396      2416.9431      247.63857     -237.45313      4903.1231     -4391.9068     -520.16679      75714.874      42.305198      42.305198      42.305198      1.1651035      352.96695     -218.68656      165.13989    
      1000   1000           352.6816       821.05692      17287.794      16391.394      6832.2483      9559.1454      3291.4396      3271.3143      2465.7135      262.32208     -241.02092      4902.0316     -4392.6547     -526.10339      74860.5        42.145471      42.145471      42.145471      1.1784007      1133.0842     -319.49947      1649.586     
      2000   2000           348.08568     -1613.8386      14645.04       16417.497      6743.2149      9674.2824      3310.8434      3321.2708      2567.5184      264.11607     -300.22036      4902.5686     -4391.8145     -522.97884      75307.756      42.229237      42.229237      42.229237      1.1714021     -1254.3575     -2207.6379     -1379.5206    
      3000   3000           349.43655      1088.9728      17511.437      16320.008      6769.3843      9550.6233      3287.1225      3397.6654      2331.7282      263.44702     -240.44695      4901.3108     -4390.2036     -524.98693      75019.701      42.175326      42.175326      42.175326      1.1758999      1538.1149      769.07507      959.72848    
      4000   4000           353.84993      149.42093      16601.979      16438.636      6854.8816      9583.7546      3256.6445      3295.151       2471.5465      264.30747     -202.92171      4893.1374     -4394.1106     -525.42463      74957.207      42.163611      42.163611      42.163611      1.1768803     -352.1728       1139.6221     -339.18649    
      5000   5000           346.78769      654.14942      17030.749      16316.327      6718.0698      9598.2576      3281.9697      3347.7267      2468.6088      262.67369     -265.46426      4893.8229     -4391.0799     -525.9232       74886.148      42.150283      42.150283      42.150283      1.1779971     -443.95478      1551.8281      854.57496    
      6000   6000           345.08353     -710.92093      15465.099      16242.117      6685.0564      9557.0608      3274.0792      3319.3481      2477.7158      250.19931     -260.19557      4887.0168     -4391.1028     -525.52091      74943.474      42.161036      42.161036      42.161036      1.177096       713.12319     -1267.2673     -1578.6187    
      7000   7000           351.82213     -460.8813       15982.353      16488.249      6815.5984      9672.6502      3327.3261      3348.3306      2480.5037      267.29468     -269.29524      4907.8388     -4389.3484     -523.27252      75265.491      42.221335      42.221335      42.221335      1.1720599     -1501.091      -729.4241       847.87118    
      8000   8000           345.10459      1413.5786      17688.41       16149.66       6685.4643      9464.1957      3370.5039      3238.4607      2323.8279      259.65103     -237.97965      4899.9149     -4390.183      -527.65679      74640.113      42.104072      42.104072      42.104072      1.1818801      1176.8757      521.41919      2542.4409    
      9000   9000           349.84297     -634.97309      15697.303      16386.391      6777.2575      9609.1339      3371.8289      3303.9075      2457.6876      265.02959     -306.03469      4909.4698     -4392.7548     -529.27319      74412.162      42.061166      42.061166      42.061166      1.1855006     -342.21112      761.74197     -2324.4501    
     10000   10000          340.70008     -2364.528       13507.861      16100.743      6600.139       9500.6045      3266.937       3268.7504      2505.4027      262.16574     -313.61809      4901.735      -4390.7682     -523.79504      75190.408      42.207291      42.207291      42.207291      1.1732303     -1638.9853     -3018.3584     -2436.2402    
     11000   11000          348.86696      1200.9943      17777.585      16477.509      6758.35        9719.1595      3360.6292      3410.4555      2504.1348      277.01681     -338.57709      4897.2364     -4391.7361     -530.60588      74225.266      42.025922      42.025922      42.025922      1.1884856     -109.56125      91.556576      3620.9875    
     12000   12000          352.52787     -401.29504      15900.063      16338.803      6829.2702      9509.5331      3267.1894      3315.9924      2460.0373      265.42648     -292.61903      4887.9517     -4394.4451     -525.35855      74966.635      42.165379      42.165379      42.165379      1.1767323     -1728.6914      124.66528      400.14099    
     13000   13000          353.29396      974.18939      17558.363      16490.391      6844.1111      9646.2802      3385.4581      3321.2884      2406.9296      267.81262     -245.77204      4900.3942     -4389.8308     -523.94206      75169.309      42.203343      42.203343      42.203343      1.1735596      1083.2891      650.48602      1188.793     
     14000   14000          347.03475     -904.06965      15326.67       16322.197      6722.856       9599.3413      3302.1485      3243.3255      2518.189       272.57546     -238.37923      4892.2626     -4390.7805     -521.61316      75504.925      42.266059      42.266059      42.266059      1.1683432     -2269.6569      197.2016      -639.75361    
     15000   15000          347.18713     -1007.8288      15094.812      16191.854      6725.8078      9466.0463      3292.4833      3294.5497      2482.0665      266.98216     -382.38328      4901.0996     -4388.7517     -527.6707       74638.146      42.103702      42.103702      42.103702      1.1819112     -677.06412     -1393.977      -952.44521    
     16000   16000          349.76165      235.18085      16485.369      16228.967      6775.6821      9453.2847      3267.1489      3273.9851      2402.0883      257.63261     -260.0049       4902.3041     -4389.8693     -526.84089      74755.706      42.125796      42.125796      42.125796      1.1800526      1712.9237     -1140.8376      133.45639    
     17000   17000          351.67437     -962.54268      15330.209      16380.365      6812.7359      9567.6287      3300.5514      3302.3908      2456.2277      262.92335     -253.56751      4890.951      -4391.848      -526.46059      74809.706      42.135936      42.135936      42.135936      1.1792008     -1710.4849      1011.6344     -2188.7776    
     18000   18000          346.96501     -366.43012      15907.584      16304.542      6721.5049      9583.0375      3283.7456      3328.8334      2542.1785      259.02207     -338.06641      4895.579      -4388.2547     -530.20731      74281.064      42.036451      42.036451      42.036451      1.1875929     -199.20623      79.517009     -979.60114    
     19000   19000          344.04608      726.14142      16921.736      16137.09       6664.9585      9472.1313      3300.5041      3351.9024      2361.9262      266.29146     -314.6465       4897.1148     -4390.9612     -531.55376      74092.905      42.000927      42.000927      42.000927      1.1906088      1906.8223     -820.33394      1091.9359    
     20000   20000          351.15323      560.67569      17020.398      16408.206      6802.6402      9605.5656      3309.0929      3293.2259      2464.9424      274.75569     -251.15469      4902.8935     -4388.1902     -526.0455       74868.738      42.147016      42.147016      42.147016      1.178271       2002.7129     -459.10183      138.41597    
     21000   21000          342.56473     -1133.7443      14805.786      16037.969      6636.2615      9401.7071      3253.4304      3271.6067      2425.5504      262.09951     -325.57291      4902.9731     -4388.38       -528.49364      74521.923      42.081836      42.081836      42.081836      1.1837545      490.24105     -685.00916     -3206.4647    
     22000   22000          347.81479      556.04286      16907.89       16301.873      6737.9672      9563.9061      3404.9241      3268.9467      2435.9933      268.69189     -311.44424      4888.6888     -4391.8945     -527.01544      74730.946      42.121144      42.121144      42.121144      1.1804435      242.0694       1321.6428      104.4164     
     23000   23000          351.8322       2498.1701      19302.666      16589.628      6815.7935      9773.8341      3399.6919      3403.5889      2396.1333      267.35094     -196.41888      4896.0661     -4392.5781     -528.89055      74465.998      42.071307      42.071307      42.071307      1.1846435      3512.8097      1506.6949      2475.0057    
     24000   24000          351.51027     -412.24317      15836.196      16283.515      6809.5569      9473.958       3248.642       3266.1565      2525.3491      269.10261     -331.47952      4891.0671     -4394.8797     -529.34156      74402.552      42.059355      42.059355      42.059355      1.1856537     -1430.5508     -1114.3042      1308.1255    
     25000   25000          347.42166     -534.94081      15613.546      16196.86       6730.3512      9466.5088      3301.7064      3216.3179      2460.7732      265.40922     -283.09835      4895.0133     -4389.6129     -526.74853      74768.813      42.128257      42.128257      42.128257      1.1798457     -1748.2976     -1065.268       1208.7432    
     26000   26000          346.56264      1130.0636      17447.304      16216.231      6713.71        9502.521       3253.8269      3409.7449      2370.5142      258.32946     -314.21899      4912.2291     -4387.9046     -527.25269      74697.32       42.114826      42.114826      42.114826      1.1809749      2347.1061      370.90678      672.17793    
     27000   27000          345.19772      345.0256       16673.419      16298.551      6687.2684      9611.2822      3256.731       3350.8915      2494.058       272.0163      -277.42687      4907.1194     -4392.1071     -528.65518      74499.152      42.07755       42.07755       42.07755       1.1841163      552.73463      381.56415      100.77801    
     28000   28000          349.69586      213.9587       16664.287      16432.605      6774.4077      9658.1974      3285.7073      3383.2386      2511.164       267.06118     -296.14571      4897.4439     -4390.2718     -530.44062      74248.391      42.030286      42.030286      42.030286      1.1881155      2155.9295     -460.24788     -1053.8055    
     29000   29000          347.81983      977.50849      17339.071      16269.539      6738.0646      9531.4748      3304.4026      3276.9311      2463.0449      263.97147     -290.25588      4901.7115     -4388.3308     -524.96069      75023.451      42.176028      42.176028      42.176028      1.1758412      861.32798     -175.6865       2246.884     
     30000   30000          349.45493     -125.88743      16158.484      16296.116      6769.7402      9526.3756      3261.8297      3342.414       2432.3924      255.84094     -288.64131      4912.2037     -4389.6637     -525.36709      74965.416      42.16515       42.16515       42.16515       1.1767515      865.53161     -929.69816     -313.49574    
     31000   31000          347.57925      561.89282      17018.018      16404.234      6733.4042      9670.8297      3381.0748      3326.0416      2429.1885      263.63568     -234.05795      4897.8532     -4392.9061     -525.82021      74900.816      42.153035      42.153035      42.153035      1.1777664      257.11693      758.94903      669.61249    
     32000   32000          345.53997     -1146.288       14965.616      16226.318      6693.8987      9532.4198      3262.4116      3293.2352      2505.3603      259.09638     -316.51839      4917.6624     -4388.8277     -522.25312      75412.403      42.248789      42.248789      42.248789      1.1697766     -532.49215     -2107.5837     -798.78826    
     33000   33000          347.73274      251.19349      16597.934      16324.298      6736.3776      9587.9204      3402.6451      3243.0272      2439.1491      261.17502     -271.943        4905.2136     -4391.3465     -527.27295      74694.45       42.114286      42.114286      42.114286      1.1810203      749.85796      594.3222      -590.59969    
     34000   34000          346.755        637.13132      17022.774      16327.516      6717.4365      9610.0791      3275.3625      3393.5368      2460.8632      264.51544     -309.50474      4915.1011     -4389.7953     -526.35957      74824.064      42.138632      42.138632      42.138632      1.1789745      2523.0532      765.52327     -1377.1825    
     35000   35000          343.70356      1770.8668      18184.903      16252.78       6658.3231      9594.4571      3347.8754      3341.6843      2392.3548      265.81271     -270.21958      4908.034      -4391.0846     -526.44238      74812.295      42.136422      42.136422      42.136422      1.1791599      1906.4742      1620.0892      1786.0371    
     36000   36000          351.84245     -209.52368      16147.67       16375.659      6815.992       9559.6675      3251.7953      3389.2676      2477.7373      250.59363     -317.86049      4899.5876     -4391.4534     -527.85919      74611.493      42.09869       42.09869       42.09869       1.1823334     -127.56794     -598.318        97.314899    
     37000   37000          345.86325     -280.58948      15893.787      16196.144      6700.1612      9495.9827      3238.9888      3335.413       2481.7384      253.7469      -337.16383      4912.387      -4389.1276     -533.02949      73887.774      41.96213       41.96213       41.96213       1.1939142      295.3325      -413.93938     -723.16157    
     38000   38000          346.28407      94.56054       16203.372      16100.808      6708.3136      9392.4943      3234.8634      3174.7221      2482.1255      267.77626     -272.51996      4895.9992     -4390.4722     -529.55913      74371.983      42.053594      42.053594      42.053594      1.186141       758.91379      408.35249     -883.58466    
     39000   39000          346.69123      96.174949      16278.371      16173.229      6716.2012      9457.0281      3301.1349      3289.3212      2404.6531      260.92555     -324.00055      4911.4552     -4386.4614     -525.39668      74961.194      42.164359      42.164359      42.164359      1.1768177      1128.2845      307.74684     -1147.5065    
     40000   40000          349.0352      -489.46021      15784.878      16319.782      6761.6092      9558.1723      3234.3693      3363.1123      2469.8376      256.28646     -278.35891      4900.6732     -4387.7478     -525.58378      74934.509      42.159355      42.159355      42.159355      1.1772368     -1476.1897      676.9758      -669.16671    
     41000   41000          339.63842      1362.9453      17625.635      16126.408      6579.5721      9546.8354      3233.9535      3256.4832      2439.8451      272.33925     -167.33166      4900.2365     -4388.6906     -522.16841      75424.636      42.251073      42.251073      42.251073      1.1695868      1426.1047      1043.8079      1618.9232    
     42000   42000          347.1076      -521.39338      15742.587      16315.41       6724.2672      9591.143       3346.448       3339.287       2448.3711      251.46222     -306.56846      4901.4576     -4389.3145     -522.81114      75331.912      42.233752      42.233752      42.233752      1.1710265     -981.78537      122.28906     -704.68382    
     43000   43000          349.48723      1674.6897      18166.223      16342.26       6770.3661      9571.8944      3275.6492      3316.3588      2480.0885      273.77871     -287.69257      4904.8723     -4391.1606     -527.37328      74680.239      42.111615      42.111615      42.111615      1.1812451      2670.0936      1451.8298      902.14563    
     44000   44000          346.96694      193.52722      16381.305      16170.649      6721.5423      9449.1071      3251.2305      3232.4581      2445.88        265.18697     -254.33085      4903.1091     -4394.4267     -527.67842      74637.054      42.103496      42.103496      42.103496      1.1819285     -812.7539       1199.3336      194.002      
     45000   45000          343.14588      504.94196      16704.326      16149.563      6647.5197      9502.0436      3227.1631      3261.0964      2461.548       262.16151     -220.05602      4902.394      -4392.2635     -522.79764      75333.857      42.234115      42.234115      42.234115      1.1709962      2344.0702     -84.126711     -745.11761    
     46000   46000          350.28195      307.58369      16664.009      16326.158      6785.7616      9540.3962      3344.4061      3207.0129      2449.3461      258.70318     -239.04688      4909.1443     -4389.1696     -522.9225       75315.869      42.230753      42.230753      42.230753      1.1712759      1540.5158     -909.09107      291.32638    
     47000   47000          349.56098     -149.14238      16122.684      16286.503      6771.7948      9514.7083      3291.8477      3267.6016      2470.9041      251.85318     -292.45381      4913.5789     -4388.6233     -522.9227       75315.841      42.230748      42.230748      42.230748      1.1712763      551.34329     -1457.224       458.45362    
     48000   48000          342.3553       565.18007      16857.751      16239.304      6632.2043      9607.0995      3373.8258      3290.98        2412.4948      256.59352     -242.50616      4906.1044     -4390.3928     -524.9088       75030.867      42.177418      42.177418      42.177418      1.175725      -490.67217      1411.9628      774.24963    
     49000   49000          342.67483      102.82037      16294.005      16180.989      6638.3943      9542.5946      3208.5726      3353.5762      2466.0662      252.30065     -248.48897      4904.1127     -4393.5447     -522.56208      75367.815      42.24046       42.24046       42.24046       1.1704686      1241.6717     -1222.4127      289.20217    
     50000   50000          351.06128      185.54154      16482.591      16280.899      6800.859       9480.04        3198.1992      3287.4857      2480.6133      266.76456     -282.48156      4916.2301     -4386.7712     -528.38743      74536.902      42.084656      42.084656      42.084656      1.1835166      701.57479      778.29521     -923.24538    
     51000   51000          345.80212      316.24292      16621.734      16276.577      6698.977       9577.6004      3302.4162      3353.2951      2427.1512      270.64169     -286.82037      4902.4529     -4391.5363     -526.26532      74837.465      42.141147      42.141147      42.141147      1.1787634      495.21389      936.37056     -482.85569    
     52000   52000          349.44769      412.70045      16560.712      16110.871      6769.6         9341.2707      3196.7858      3283.1785      2411.1417      260.986       -319.01499      4900.6257     -4392.4321     -526.95731      74739.19       42.122693      42.122693      42.122693      1.1803133      49.122018      1271.6659     -82.686616    
     53000   53000          344.59073     -93.077591      16122.556      16224.323      6675.5096      9548.8139      3281.8691      3319.8739      2471.3232      263.9521      -306.82887      4908.4731     -4389.8487     -525.33296      74970.287      42.166063      42.166063      42.166063      1.176675       44.067015     -1019.4701      696.17035    
     54000   54000          348.51724      122.72333      16340.71       16206.738      6751.5751      9455.1632      3220.8253      3288.2668      2460.2713      259.30289     -291.71573      4908.0694     -4389.8568     -526.15529      74853.116      42.144085      42.144085      42.144085      1.1785169      839.54678     -333.87285     -137.50394    
     55000   55000          345.84186     -73.968987      16058.417      16138.693      6699.747       9438.9459      3226.1206      3272.2392      2483.7925      266.38948     -330.10472      4910.5737     -4390.0648     -529.25598      74414.582      42.061622      42.061622      42.061622      1.185462       287.14294     -261.42598     -247.62392    
     56000   56000          348.49034     -16.61194       16353.702      16371.779      6751.0541      9620.7247      3372.9535      3288.9418      2482.0195      268.73493     -301.84142      4898.9372     -4389.0208     -527.82001      74617.032      42.099731      42.099731      42.099731      1.1822457     -265.90303      893.5498      -677.4826     
     57000   57000          341.77768     -486.44482      15585.501      16118.363      6621.0145      9497.349       3264.3773      3307.0911      2418.7601      272.38994     -286.67453      4911.195      -4389.7899     -524.34573      75111.439      42.19251       42.19251       42.19251       1.1744638      718.17848     -2031.6528     -145.86011    
     58000   58000          349.03173      2169.0305      18509.99       16154.681      6761.542       9393.139       3247.0678      3232.5065      2383.7685      263.43183     -247.42697      4902.9308     -4389.1395     -528.95342      74457.147      42.06964       42.06964       42.06964       1.1847844      2314.5241      2632.3357      1560.2319    
     59000   59000          345.85318      535.45444      16675.143      16095.759      6699.9662      9395.7924      3234.1015      3245.6603      2418.6046      255.16649     -277.37032      4908.7427     -4389.113      -530.83009      74193.915      42.020005      42.020005      42.020005      1.1889878      531.33784      1700.3424     -625.31689    
     60000   60000          340.60577     -20.062625      16086.071      16107.877      6598.3118      9509.5651      3332.2376      3226.0312      2454.25        267.29397     -279.6215       4898.576      -4389.2022     -528.47093      74525.126      42.082439      42.082439      42.082439      1.1837036      921.03609     -97.881372     -883.3426     
     61000   61000          341.86227      1156.0339      17362.569      16104.925      6622.6532      9482.2715      3321.5843      3252.8902      2394.6747      266.04045     -258.84127      4896.4479     -4390.5248     -527.97404      74595.264      42.095637      42.095637      42.095637      1.1825907     -189.2034      -71.803216      3729.1084    
     62000   62000          344.15247      665.08819      17055.264      16329.18       6667.0196      9662.1608      3394.7568      3237.4198      2446.5661      269.6122      -202.93025      4907.2847     -4390.5486     -526.12872      74856.895      42.144794      42.144794      42.144794      1.1784574      1678.684       1514.6194     -1198.0388    
     63000   63000          339.81655      297.92392      16370.116      16045.825      6583.0228      9462.8019      3346.5235      3280.4154      2355.5079      260.94844     -293.03909      4901.7541     -4389.3083     -527.67892      74636.983      42.103483      42.103483      42.103483      1.1819296      489.40424     -380.61996      784.98748    
     64000   64000          345.91275     -388.03874      15829.213      16251.978      6701.1201      9550.8574      3244.5922      3319.9626      2505.8909      256.93949     -288.7478       4901.9247     -4389.7046     -527.2009       74704.657      42.116205      42.116205      42.116205      1.1808589      1242.7884     -560.97437     -1845.9303    
     65000   65000          336.4485      -823.69549      15100.964      16003.086      6517.776       9485.3099      3261.4537      3326.6557      2410.9162      268.55916     -293.70618      4901.0382     -4389.6068     -524.44628      75097.039      42.189813      42.189813      42.189813      1.174689      -701.06976     -1901.8808      131.86409    
     66000   66000          341.94908     -497.84376      15601.747      16144.239      6624.3349      9519.9046      3353.9362      3260.1542      2393.3995      267.35366     -268.67172      4905.2566     -4391.5238     -527.10727      74717.928      42.118698      42.118698      42.118698      1.1806492      161.85939     -641.62643     -1013.7642    
     67000   67000          343.72158      1750.5096      18001.538      16092.742      6658.6722      9434.07        3306.3727      3331.3704      2291.048       252.3384      -255.12513      4899.6531     -4391.5875     -526.75034      74768.556      42.128209      42.128209      42.128209      1.1798497      3467.3193      1051.432       732.7774     
     68000   68000          341.97244      1284.4947      17493.297      16095.545      6624.7874      9470.7578      3267.8192      3326.1328      2349.919       251.70992     -253.88627      4918.3158     -4389.2527     -527.83979      74614.236      42.099205      42.099205      42.099205      1.18229        875.61283      1452.7584      1525.1129    
     69000   69000          342.43635     -295.40674      15796.859      16117.774      6633.7744      9483.9996      3287.1652      3289.2986      2425.7033      254.2306      -276.33907      4894.6456     -4390.7046     -528.72544      74489.252      42.075686      42.075686      42.075686      1.1842737      964.97836     -872.15828     -979.04031    
     70000   70000          344.45362     -471.23007      15611.005      16121.422      6672.8535      9448.5683      3194.7691      3295.0733      2538.4935      261.45779     -343.05602      4893.8998     -4392.0692     -530.28318      74270.435      42.034445      42.034445      42.034445      1.1877628      446.99207     -101.59174     -1759.0905    
     71000   71000          341.79509     -232.74235      15895.31       16148.861      6621.3518      9527.5092      3275.7938      3299.2745      2492.7778      263.21299     -330.34463      4915.73       -4388.9352     -527.24213      74698.815      42.115107      42.115107      42.115107      1.1809513      790.76837     -657.73886     -831.25655    
     72000   72000          340.21327     -224.23532      15780.958      16025.077      6590.7082      9434.3691      3256.5179      3190.2592      2512.3475      270.47334     -318.85808      4910.9656     -4387.3363     -527.59692      74648.583      42.105664      42.105664      42.105664      1.181746       15.733332     -33.119074     -655.32023    
     73000   73000          337.3749      -626.66613      15391.029      16072.217      6535.7225      9536.4945      3378.3747      3310.2323      2430.7841      263.77478     -353.70585      4895.8942     -4388.8596     -528.40742      74534.083      42.084125      42.084125      42.084125      1.1835614     -18.689336     -210.84487     -1650.4642    
     74000   74000          343.93516     -1677.8947      14486.771      16318.504      6662.8098      9655.6938      3405.605       3294.9523      2501.1628      266.25146     -318.00659      4895.4067     -4389.6779     -526.14133      74855.101      42.144457      42.144457      42.144457      1.1784856     -1298.8013     -1885.9752     -1848.9074    
     75000   75000          336.59957     -1370.2692      14483.118      15979.629      6520.7027      9458.9259      3207.2849      3274.8027      2518.2197      256.24108     -315.25831      4906.2476     -4388.6117     -525.92748      74885.539      42.150169      42.150169      42.150169      1.1780066     -2686.7153      230.74487     -1654.837     
     76000   76000          343.9007      -850.26816      15191.572      16125.292      6662.1422      9463.1503      3198.132       3288.3123      2441.8193      243.69559     -212.84177      4894.988      -4390.9551     -523.04466      75298.278      42.227465      42.227465      42.227465      1.1715495     -957.28113      59.384047     -1652.9074    
     77000   77000          348.13308      13.370877      16190.102      16175.493      6744.1331      9431.3598      3226.3622      3335.3448      2407.9557      250.76764     -293.72045      4897.0804     -4392.4304     -525.71269      74916.135      42.155909      42.155909      42.155909      1.1775255     -1590.788       356.05725      1274.8434    
     78000   78000          340.50005     -151.16329      15879.808      16046.073      6596.2638      9449.8089      3247.8305      3284.4664      2434.5656      255.72405     -283.00181      4898.2582     -4388.034      -522.21011      75418.614      42.249948      42.249948      42.249948      1.1696802     -738.2693      -306.01023      590.78967    
     79000   79000          343.19652     -788.64401      15194.047      16055.759      6648.5007      9407.2585      3277.3282      3266.8859      2396.0061      254.45093     -294.40719      4897.57       -4390.5754     -525.67648      74921.295      42.156877      42.156877      42.156877      1.1774444     -1534.7952     -156.71622     -674.42058    
     80000   80000          343.16773     -1521.1013      14454.151      16122.516      6647.9428      9474.5731      3192.3783      3235.7139      2538.0764      275.19807     -267.67311      4890.7255     -4389.8459     -523.68085      75206.803      42.210359      42.210359      42.210359      1.1729745     -1363.5346     -423.63335     -2776.1361    
     81000   81000          345.38617     -270.77609      15869.435      16165.639      6690.9192      9474.7195      3249.3122      3315.4318      2419.3053      260.44395     -278.81775      4900.2795     -4391.2355     -525.07209      75007.533      42.173045      42.173045      42.173045      1.1760907     -1414.5841      37.015408      565.24044    
     82000   82000          336.51421     -102.45693      15918.728      16030.515      6519.049       9511.4658      3261.2845      3277.2341      2486.8768      261.44885     -277.80802      4894.3208     -4391.8913     -526.4438       74812.093      42.136384      42.136384      42.136384      1.1791631     -978.1084       987.25026     -316.51266    
     83000   83000          340.07859     -538.13109      15459.829      16046.805      6588.0992      9458.7061      3330.1026      3287.1913      2375.9236      258.38271     -294.90277      4894.246      -4392.2373     -526.58339      74792.262      42.132661      42.132661      42.132661      1.1794758      1716.6579     -1200.5053     -2130.5458    
     84000   84000          339.72182     -1146.2266      14814.295      16069.999      6581.1877      9488.811       3343.4178      3220.2295      2440.7767      265.19051     -286.85109      4896.239      -4390.1914     -524.30368      75117.463      42.193638      42.193638      42.193638      1.1743696     -962.40329     -1118.7506     -1357.5261    
     85000   85000          339.6209      -1265.777       14546.345      15929.092      6579.2327      9349.8592      3210.1077      3180.9449      2437.3291      263.79754     -251.29799      4900.4695     -4391.4915     -525.79226      74904.797      42.153782      42.153782      42.153782      1.1777038     -760.99383     -1124.01       -1912.3273    
     86000   86000          342.2341      -106.40738      15911.766      16028.388      6629.8564      9398.5312      3319.3119      3283.7878      2329.1783      257.82335     -291.88923      4892.9934     -4392.6744     -524.07382      75150.41       42.199806      42.199806      42.199806      1.1738547     -431.18793     -520.83567      632.80146    
     87000   87000          342.02336      1052.2589      17278.631      16123.462      6625.7738      9497.6883      3241.0237      3262.6732      2444.5451      266.54039     -228.14703      4900.5411     -4389.4882     -523.21111      75274.324      42.222987      42.222987      42.222987      1.1719224      2026.8291      616.49317      513.45455    
     88000   88000          337.1757      -1092.157       14679.019      15875.992      6531.8636      9344.1283      3153.64        3254.342       2461.1402      248.95233     -278.09631      4898.0132     -4393.8632     -524.08364      75149.002      42.199542      42.199542      42.199542      1.1738767     -1746.683       86.85384      -1616.6419    
     89000   89000          339.52117      955.01678      17060.757      16013.746      6577.3006      9436.4454      3279.381       3258.5041      2382.1659      250.22824     -243.98944      4899.2204     -4389.0648     -523.91359      75173.393      42.204107      42.204107      42.204107      1.1734958      1185.9566      523.44313      1155.6506    
     90000   90000          349.39886     -658.44987      15533.645      16254.6        6768.6542      9485.9462      3281.2234      3244.9447      2487.1108      256.36111     -300.28751      4905.0973     -4388.5036     -524.58263      75077.52       42.186158      42.186158      42.186158      1.1749944     -1080.4717     -1716.0897      821.21178    
     91000   91000          337.91813     -987.0202       14888.026      15967.037      6546.2461      9420.7906      3329.9056      3181.3901      2456.8283      266.62361     -315.35693      4893.6281     -4392.2281     -525.41179      74959.039      42.163955      42.163955      42.163955      1.1768516     -144.63563     -1441.1493     -1375.2757    
     92000   92000          341.80422      542.32162      16656.531      16065.764      6621.5285      9444.2358      3273.974       3279.3254      2418.2596      249.26947     -285.13389      4900.0095     -4391.4683     -527.27907      74693.582      42.114123      42.114123      42.114123      1.181034       1429.4204      266.00289     -68.458442    
     93000   93000          346.49151      665.56899      16834.511      16108.015      6712.332       9395.6834      3261.2684      3225.7391      2425.8148      258.58793     -286.81403      4899.1199     -4388.0327     -526.21073      74845.229      42.142605      42.142605      42.142605      1.1786411      1673.1971     -953.29442      1276.8043    
     94000   94000          339.87189      693.46351      16674.989      15915.677      6584.0949      9331.5822      3140.141       3239.9627      2406.8385      266.06998     -233.38998      4900.6478     -4388.6878     -524.56991      75079.34       42.186499      42.186499      42.186499      1.1749659      1366.872       1337.1058     -623.5873     
     95000   95000          346.65458     -83.686915      16069.896      16161.532      6715.4912      9446.041       3230.001       3272.5191      2445.2533      262.20256     -274.18266      4901.6348     -4391.387      -524.55517      75081.45       42.186894      42.186894      42.186894      1.1749328      388.28021      812.85113     -1452.1921    
     96000   96000          339.02341      335.68148      16293.682      15924.421      6567.658       9356.7629      3221.772       3274.7216      2383.0677      255.14527     -276.14084      4893.5725     -4395.3753     -522.14815      75427.563      42.251619      42.251619      42.251619      1.1695415     -36.810286      263.26244      780.5923     
     97000   97000          341.37645      480.8373       16678.942      16153.188      6613.2417      9539.9462      3332.9262      3279.0668      2457.7794      262.46844     -306.49892      4904.5058     -4390.3016     -525.30965      74973.613      42.166687      42.166687      42.166687      1.1766228      1276.3838     -1457.1536      1623.2817    
     98000   98000          339.08489     -1665.595       14216.381      16034.825      6568.8489      9465.9761      3267.6756      3239.6423      2474.6753      254.06092     -273.82152      4892.2401     -4388.4967     -526.10119      74860.812      42.145529      42.145529      42.145529      1.1783957     -717.23061     -2244.8417     -2034.7126    
     99000   99000          340.67125      394.18868      16332.726      15897.444      6599.5803      9297.8636      3257.8567      3153.7801      2386.2942      246.66409     -252.94981      4897.2497     -4391.0314     -520.15559      75716.504      42.305502      42.305502      42.305502      1.1650784      1175.3681     -628.72123      635.91913    
    100000   100000         338.2564       787.02704      16933.746      16073.027      6552.7993      9520.228       3252.2561      3289.0959      2458.6557      256.61575     -247.76017      4900.8764     -4389.5118     -525.20429      74988.653      42.169506      42.169506      42.169506      1.1763868      2459.143       1072.8132     -1170.8751    
    101000   101000         339.78529     -1116.0195      14760.152      15978.445      6582.4174      9396.0277      3243.3464      3190.7026      2448.2789      255.19649     -254.49465      4901.2356     -4388.2376     -526.16241      74852.103      42.143895      42.143895      42.143895      1.1785329     -1512.4447     -1255.1515     -580.4624     
    102000   102000         338.45228      490.52263      16521.989      15989.072      6556.5938      9432.4777      3238.6965      3248.7758      2458.2839      245.99074     -276.76783      4906.6085     -4389.1098     -528.68677      74494.7        42.076712      42.076712      42.076712      1.1841871      1273.0277      749.86528     -551.3251     
    103000   103000         344.08963      260.78096      16514.593      16229.397      6665.8023      9563.5946      3341.7598      3256.6236      2420.933       263.43602     -228.74317      4901.9423     -4392.357      -525.20935      74987.932      42.169371      42.169371      42.169371      1.1763981      119.35717      1262.035      -599.04929    
    104000   104000         334.44616     -467.48863      15368.837      15879.972      6478.9861      9400.9857      3258.4263      3228.8018      2432.4675      265.54632     -282.05651      4891.1876     -4393.3874     -525.3337       74970.181      42.166044      42.166044      42.166044      1.1766767     -368.13428     -1617.9529      583.62132    
    105000   105000         341.75623     -81.529159      15823.365      15912.183      6620.5989      9291.5841      3197.9426      3195.392       2436.1235      256.50561     -299.78754      4897.7583     -4392.3504     -527.24543      74698.348      42.115019      42.115019      42.115019      1.1809587      823.41771      606.97199     -1674.9772    
    106000   106000         339.59075      1664.1434      17890.395      16064.883      6578.6486      9486.2347      3298.0338      3289.9409      2380.2484      264.8585      -258.76781      4902.4678     -4390.5468     -523.60746      75217.344      42.212331      42.212331      42.212331      1.1728101      1395.8373      875.11215      2721.4809    
    107000   107000         335.73708     -351.82673      15414.003      15800.778      6503.9942      9296.7834      3182.7786      3179.6299      2475.0288      262.14713     -306.0488       4894.745      -4391.4973     -522.48122      75379.48       42.242639      42.242639      42.242639      1.1702875      150.48972     -531.59165     -674.37825    
    108000   108000         338.35593      1787.9         17867.564      15923.804      6554.7273      9369.0768      3225.4134      3206.2785      2452.6563      254.31479     -294.97607      4911.5796     -4386.1898     -528.32403      74545.848      42.086339      42.086339      42.086339      1.1833746      1214.8377      475.63412      3673.2283    
    109000   109000         340.41428     -81.806361      15944.461      16034.495      6594.6022      9439.8929      3251.5367      3272.108       2387.5733      262.39356     -237.99109      4893.6219     -4389.3495     -521.89318      75464.413      42.258499      42.258499      42.258499      1.1689704     -237.86568      980.27367     -987.82707    
    110000   110000         335.40145      1118.6983      17092.355      15870.451      6497.4924      9372.9585      3245.8064      3227.2312      2405.4053      254.93934     -276.95393      4907.0696     -4390.5394     -525.86677      74894.184      42.151791      42.151791      42.151791      1.1778707      322.29246      1822.3183      1211.4841    
    111000   111000         338.08216      508.28953      16512.753      15962.739      6549.4238      9413.3154      3269.6154      3307.5743      2402.122       260.39858     -331.51095      4897.1632     -4392.0471     -530.80765      74197.052      42.020597      42.020597      42.020597      1.1889376      450.30298     -196.62514      1271.1908    
    112000   112000         340.31835      165.77098      16181.552      16000.872      6592.7439      9408.1286      3314.1418      3257.3739      2413.8037      246.68636     -342.91998      4910.4286     -4391.3859     -526.9859       74735.135      42.121931      42.121931      42.121931      1.1803774      1396.9009     -270.78846     -628.79947    
    113000   113000         335.25616     -362.77353      15482.645      15879.578      6494.6777      9384.9005      3266.6447      3181.2225      2483.6856      255.48038     -325.07569      4910.4641     -4387.5211     -524.9494       75025.064      42.17633       42.17633       42.17633       1.1758159     -290.93395     -1436.213       638.82639    
    114000   114000         340.64566      1243.375       17414.732      16053.553      6599.0847      9454.4678      3326.6867      3222.1823      2387.4106      253.99237     -238.3903       4894.9504     -4392.3643     -524.67045      75064.953      42.183804      42.183804      42.183804      1.1751911      1491.6886      450.29777      1788.1386    
    115000   115000         339.39307      1275.2211      17505.754      16103.271      6574.8191      9528.452       3248.979       3272.5317      2476.9332      262.62488     -235.93145      4897.4462     -4394.1315     -522.26123      75411.231      42.24857       42.24857       42.24857       1.1697947      1154.7317      1752.5531      918.37845    
    116000   116000         340.45554      547.87175      16585.035      15987.695      6595.4015      9392.2934      3246.9499      3268.0312      2365.5347      259.8593      -267.98058      4909.5343     -4389.6355     -526.81369      74759.566      42.126521      42.126521      42.126521      1.1799916      1044.1394      1616.9701     -1017.4943    
    117000   117000         335.86336     -674.71113      15174.269      15910.586      6506.4406      9404.1451      3290.3197      3246.59        2405.9136      259.19068     -294.91286      4888.4001     -4391.3563     -526.324        74829.122      42.139581      42.139581      42.139581      1.1788948     -929.71022     -886.05767     -208.3655     
    118000   118000         343.76594     -1332.8384      14615.56       16078.938      6659.5316      9419.4062      3269.9732      3213.3369      2447.4974      263.67935     -277.60167      4892.9521     -4390.431      -523.1435       75284.052      42.224806      42.224806      42.224806      1.1717709     -467.87828     -2921.1777     -609.45926    
    119000   119000         339.77742      602.57742      16688.99       16027.273      6582.2649      9445.0081      3244.885       3274.2728      2413.7791      262.47273     -250.79523      4890.0353     -4389.6417     -523.04656      75298.005      42.227414      42.227414      42.227414      1.1715538      678.95809      848.90093      279.87323    
    120000   120000         336.02619     -57.727396      15892.104      15955.048      6509.595       9445.4533      3201.3212      3332.2976      2445.5543      250.67327     -296.24059      4903.5231     -4391.6757     -526.77817      74764.607      42.127467      42.127467      42.127467      1.1799121      366.72058     -64.526272     -475.3765     
    121000   121000         335.62432     -654.0277       15022.519      15740.203      6501.8099      9238.393       3113.4872      3270.8643      2370.1203      243.74606     -276.65898      4907.4049     -4390.5709     -523.43499      75242.128      42.216966      42.216966      42.216966      1.1724238     -2094.8269     -878.78248      1011.5263    
    122000   122000         338.17825     -540.44613      15275.928      15865.284      6551.2852      9313.9986      3202.8735      3247.2055      2375.7816      242.27977     -279.48993      4913.1786     -4387.8305     -526.71376      74773.749      42.129185      42.129185      42.129185      1.1797678      265.69109     -181.68629     -1705.3432    
    123000   123000         337.74388     -531.5597       15373.381      15956.319      6542.8705      9413.4486      3217.4918      3263.8402      2427.0995      258.57138     -249.26429      4885.5638     -4389.8537     -523.75628      75195.972      42.208332      42.208332      42.208332      1.1731435     -673.0514      -1417.0209      495.39324    
    124000   124000         334.33699      2198.2671      18303.638      15897.34       6476.8712      9420.4686      3314.6139      3213.4308      2338.0659      251.97276     -226.32711      4915.2648     -4386.5525     -524.7237       75057.335      42.182377      42.182377      42.182377      1.1753103      3888.206       2070.8967      635.69862    
    125000   125000         335.04031     -350.58028      15508.602      15894.1        6490.4962      9403.6039      3218.1192      3294.493       2345.7045      253.66582     -221.00908      4900.6651     -4388.0346     -522.35391      75397.852      42.246071      42.246071      42.246071      1.1700023     -11.367458     -1443.885       403.5116     
    126000   126000         333.00492     -612.45492      15279.319      15946.787      6451.0661      9495.7213      3228.0233      3283.1089      2474.8758      264.0177      -268.91888      4902.8787     -4388.2643     -527.03928      74727.566      42.120509      42.120509      42.120509      1.1804969     -3691.1858      763.27614      1090.545     
    127000   127000         338.64677     -612.11225      15102.718      15774.46       6560.3616      9214.0983      3193.8179      3146.5219      2410.1957      249.32577     -304.48901      4905.836      -4387.1099     -523.39386      75248.04       42.218072      42.218072      42.218072      1.1723317     -459.896       -2371.501       995.06028    
    128000   128000         334.74882      515.11005      16427.477      15866.569      6484.8493      9381.7193      3215.0659      3245.4402      2405.2865      260.38582     -265.88811      4909.5835     -4388.1545     -527.48208      74664.835      42.10872       42.10872       42.10872       1.1814887      742.22742      974.94109     -171.83834    
    129000   129000         337.34772      829.4736       16788.208      15881.24       6535.1961      9346.0436      3158.1548      3252.649       2410.459       262.97009     -255.11094      4905.2428     -4388.3211     -525.30329      74974.521      42.166857      42.166857      42.166857      1.1766085      494.21086      1150.3806      843.82932    
    130000   130000         333.54298     -799.3084       14824.857      15701.894      6461.4894      9240.4045      3169.8061      3219.5299      2401.3685      248.31228     -326.72849      4918.1632     -4390.047      -523.47521      75236.347      42.215885      42.215885      42.215885      1.1725139     -1903.7338     -1352.6383      858.44694    
    131000   131000         338.18195      1941.4819      18079.403      15946.075      6551.3569      9394.7185      3236.3503      3239.6772      2384.0888      259.04562     -235.59043      4900.7181     -4389.5712     -522.72777      75343.926      42.235997      42.235997      42.235997      1.1708397      656.27725      2906.3452      2261.8232    
    132000   132000         334.77961      1148.1121      17130.111      15877.709      6485.4459      9392.2632      3249.5955      3278.6774      2388.6137      263.19332     -300.05632      4901.5828     -4389.3433     -526.55063      74796.915      42.133535      42.133535      42.133535      1.1794024     -588.89912      2290.0924      1743.1429    
    133000   133000         334.16278     -359.58051      15377.93       15772.823      6473.4964      9299.3261      3154.8341      3269.954       2418.522       257.61424     -324.51874      4912.1317     -4389.2112     -523.01886      75301.994      42.22816       42.22816       42.22816       1.1714917     -2285.5915      925.1066       281.74333    
    134000   134000         338.35045     -608.16934      15185.852      15852.023      6554.6213      9297.4021      3198.6467      3174.1538      2440.5081      254.28644     -293.6769       4910.5335     -4387.0495     -524.37032      75107.917      42.19185       42.19185       42.19185       1.1745188     -151.95935     -421.38372     -1251.165     
    135000   135000         338.67171     -275.45776      15698.748      15998.679      6560.8447      9437.8344      3195.5346      3271.1793      2523.3321      256.10086     -307.86788      4892.0314     -4392.476      -527.51285      74660.48       42.107901      42.107901      42.107901      1.1815577     -876.93776     -360.3787       410.94319    
    136000   136000         340.43372      778.33998      16693.035      15842.244      6594.9789      9247.2653      3189.5248      3178.8794      2382.5908      247.91305     -266.75966      4903.4755     -4388.3586     -525.46775      74951.055      42.162458      42.162458      42.162458      1.1769769     -209.1475       3019.9525     -475.78501    
    137000   137000         333.14124      359.54762      16165.252      15773.262      6453.7069      9319.5554      3157.5019      3247.7537      2449.2911      255.73203     -293.42583      4895.0514     -4392.349      -526.84323      74755.373      42.125733      42.125733      42.125733      1.1800578      1195.1639      436.44754     -552.96862    
    138000   138000         334.13675      1477.1969      17401.542      15787.597      6472.9922      9314.6047      3206.5125      3206.3692      2380.6766      248.90533     -237.71198      4901.0819     -4391.2289     -525.71382      74915.973      42.155878      42.155878      42.155878      1.1775281      2980.4575      1822.5406     -371.40724    
    139000   139000         335.54598     -742.45602      15105.671      15918.134      6500.2922      9417.8414      3182.8107      3315.3728      2487.0483      267.93293     -341.18121      4896.7278     -4390.8699     -524.88868      75033.744      42.177957      42.177957      42.177957      1.1756799     -343.20841     -501.28847     -1382.8712    
    140000   140000         342.28847      219.72512      16071.402      15831.57       6630.9096      9200.6607      3126.1798      3191.7713      2409.5456      247.73617     -273.70681      4889.0391     -4389.9044     -526.22573      74843.096      42.142204      42.142204      42.142204      1.1786747      738.97706      108.31064     -188.11235    
    141000   141000         336.28621     -532.88056      15286.178      15867.436      6514.6321      9352.8034      3239.3396      3225.4628      2429.268       250.06341     -292.78414      4893.1484     -4391.6947     -526.57628      74793.271      42.132851      42.132851      42.132851      1.1794599     -522.23077     -141.98627     -934.42466    
    142000   142000         338.67355      415.11049      16290.406      15837.384      6560.8804      9276.5038      3165.9609      3191.4394      2453.1255      258.49541     -292.94409      4891.9785     -4391.5518     -526.31339      74830.63       42.139864      42.139864      42.139864      1.178871      -622.70089      1316.8968      551.13561    
    143000   143000         333.0426       1162.1787      16854.161      15597.414      6451.7959      9145.6184      3106.5911      3228.5402      2388.2628      246.08018     -315.52831      4883.7044     -4392.032      -531.1596       74147.888      42.011314      42.011314      42.011314      1.1897259      2569.8176      467.05606      449.66249    
    144000   144000         337.35761      821.0498       16724.484      15830.836      6535.3876      9295.4485      3223.6724      3204.1547      2426.7535      248.39588     -301.11041      4886.1681     -4392.5857     -527.71903      74631.31       42.102416      42.102416      42.102416      1.1820195     -463.34565      600.18631      2326.3087    
    145000   145000         339.04945      634.2806       16577.935      15885.207      6568.1625      9317.0442      3267.5472      3226.3976      2341.0069      259.61357     -278.19086      4893.3746     -4392.7049     -525.91837      74886.836      42.150412      42.150412      42.150412      1.1779862      391.27902      292.50752      1219.0553    
    146000   146000         331.71839      626.66524      16493.513      15807.942      6426.1431      9381.7987      3235.8171      3203.6272      2462.9458      275.66026     -303.90599      4897.292      -4389.6377     -525.02863      75013.742      42.174209      42.174209      42.174209      1.1759934      2030.2973     -178.88329      28.58175     
    147000   147000         333.86843      529.50863      16376.725      15800.185      6467.7943      9332.3912      3230.4016      3196.4012      2433.2354      263.82821     -293.52091      4892.7201     -4390.6744     -527.52557      74658.679      42.107562      42.107562      42.107562      1.1815862      673.3562       648.47225      266.69744    
    148000   148000         332.38288     -1048.4363      14555.288      15706.255      6439.0157      9267.239       3168.3668      3285.0227      2364.8975      245.97111     -308.73628      4899.6136     -4387.8964     -523.21364      75273.96       42.222919      42.222919      42.222919      1.171928      -925.35498     -168.55038     -2051.4037    
    149000   149000         338.08746      372.67708      16284.91       15878.381      6549.5265      9328.8544      3223.4061      3189.701       2425.5751      265.32368     -277.21225      4892.8229     -4390.7622     -526.55136      74796.811      42.133515      42.133515      42.133515      1.1794041     -455.01606      499.68909      1073.3582    
    150000   150000         331.72094      1501.3493      17350.284      15717.18       6426.1924      9290.9872      3218.9239      3174.0866      2445.7681      257.5609      -313.70601      4898.7271     -4390.3735     -528.04089      74585.82       42.09386       42.09386       42.09386       1.1827404      1833.4812      1119.9663      1550.6005    
    151000   151000         333.48096     -263.23793      15619.002      15908.203      6460.2881      9447.9145      3364.5863      3195.6931      2406.1841      251.78917     -272.33407      4891.4849     -4389.489      -522.81696      75331.073      42.233595      42.233595      42.233595      1.1710395     -191.24969      90.931525     -689.39562    
    152000   152000         329.91912     -760.89979      14884.128      15716.666      6391.2871      9325.379       3186.2099      3136.4029      2512.902       260.48464     -273.03401      4890.6232     -4388.2095     -524.9562       75024.093      42.176148      42.176148      42.176148      1.1758311      491.80732     -1908.0862     -866.42048    
    153000   153000         334.4862       709.03162      16564.612      15789.747      6479.7618      9309.9849      3206.3877      3201.0897      2374.6693      254.23533     -254.04082      4912.1879     -4384.5443     -525.58002      74935.045      42.159455      42.159455      42.159455      1.1772284      95.199295      2171.7213     -139.82576    
    154000   154000         338.46091      90.684703      16044.123      15945.046      6556.7611      9388.2846      3206.1766      3207.9022      2483.1536      270.58482     -284.48711      4893.7422     -4388.7877     -525.72637      74914.185      42.155543      42.155543      42.155543      1.1775562      302.31127     -589.72029      559.46313    
    155000   155000         332.98059      1225.6085      17090.116      15752.341      6450.5946      9301.7468      3179.8758      3204.7202      2440.5137      259.42176     -284.02355      4896.061      -4394.8222     -526.22147      74843.702      42.142318      42.142318      42.142318      1.1786651      4050.4454     -180.72936     -192.89055    
    156000   156000         339.14451     -844.77052      14982.051      15904.539      6570.0039      9334.5349      3167.7767      3218.2101      2488.2797      248.80141     -291.78766      4896.0188     -4392.7641     -525.99049      74876.567      42.148486      42.148486      42.148486      1.1781478     -1471.9514     -1146.7874      84.427225    
    157000   157000         336.26129      813.43917      16737.622      15848.659      6514.1495      9334.5099      3252.172       3172.8712      2409.7668      256.6962      -278.21211      4907.5118     -4386.2961     -525.58307      74934.61       42.159374      42.159374      42.159374      1.1772352      1769.9785      924.54025     -254.20119    
    158000   158000         330.50024     -1075.1088      14398.275      15569.23       6402.5446      9166.6851      3149.1423      3210.4945      2411.6582      248.15521     -360.594        4900.0171     -4392.1882     -527.36592      74681.281      42.111811      42.111811      42.111811      1.1812286      1130.0794     -28.832617     -4326.5733    
    159000   159000         335.65288      645.73131      16518.748      15810.875      6502.3631      9308.5122      3238.2145      3183.3278      2365.3582      250.99721     -231.48472      4894.0556     -4391.9564     -523.95805      75167.015      42.202914      42.202914      42.202914      1.1735954      356.82298     -787.81824      2368.1892    
    160000   160000         334.84846      990.30168      16780.23       15703.538      6486.7797      9216.7583      3264.8463      3158.5382      2364.996       257.56597     -334.66392      4896.6552     -4391.1794     -528.2943       74550.043      42.087129      42.087129      42.087129      1.183308       368.16158      855.53615      1747.2073    
    161000   161000         329.40296     -149.3181       15482.763      15645.628      6381.2879      9264.3405      3176.9058      3136.3107      2432.8385      269.43244     -255.43381      4895.7604     -4391.4736     -526.60362      74789.389      42.132122      42.132122      42.132122      1.1795211      719.91512      386.83983     -1554.7093    
    162000   162000         333.91825     -68.11029       15696.77       15770.976      6468.7593      9302.2165      3198.1212      3232.1316      2396.5223      252.95834     -280.79448      4893.3566     -4390.0789     -527.19918      74704.901      42.11625       42.11625       42.11625       1.1808551      152.52874     -322.56995     -34.289661    
    163000   163000         330.78393      1750.6983      17567.634      15663.8        6408.0404      9255.7592      3262.6941      3177.6462      2357.7561      253.24578     -300.84416      4894.6545     -4389.3933     -528.1798       74566.204      42.09017       42.09017       42.09017       1.1830515      2059.0616      1600.264       1592.7692    
    164000   164000         338.9279      -66.675827      15757.744      15830.242      6565.8076      9264.4348      3236.05        3205.7158      2415.1484      256.97945     -359.79054      4901.8312     -4391.4995     -528.24892      74556.447      42.088334      42.088334      42.088334      1.1832064     -1158.1044      2013.7033     -1055.6263    
    165000   165000         331.57479     -434.26513      15302.139      15775.916      6423.3611      9352.5547      3228.1397      3269.5254      2431.6544      257.72225     -338.73828      4896.5917     -4392.3406     -526.47853      74807.158      42.135458      42.135458      42.135458      1.1792409      680.56538     -1707.2784     -276.08233    
    166000   166000         329.92475     -670.63573      14903.227      15636.299      6391.3961      9244.9034      3181.4554      3199.7639      2405.8072      257.71809     -306.344        4896.5556     -4390.0529     -525.45966      74952.209      42.162674      42.162674      42.162674      1.1769588     -34.98614      -446.73499     -1530.186     
    167000   167000         328.24934      460.49988      16217.323      15715.524      6358.9396      9356.5849      3190.1036      3200.5627      2476.0463      257.05267     -270.25503      4893.8924     -4390.8178     -527.10801      74717.822      42.118678      42.118678      42.118678      1.1806509      1706.9664     -958.45396      632.98724    
    168000   168000         332.66198      286.06535      16026.826      15716.885      6444.4225      9272.4625      3201.9694      3155.8266      2413.0682      256.07669     -255.74485      4892.5171     -4391.2506     -530.13488      74291.211      42.038365      42.038365      42.038365      1.1874307      2486.7749     -1137.7931     -490.78578    
    169000   169000         337.09096      815.28938      16677.473      15791.26       6530.222       9261.0382      3168.9379      3258.3812      2357.5062      253.32476     -276.68874      4891.3741     -4391.7971     -528.41301      74533.295      42.083977      42.083977      42.083977      1.1835739      1049.7821      2006.5422     -610.45614    
    170000   170000         336.82667      133.37232      16019.994      15874.386      6525.1022      9349.2836      3221.7937      3205.8792      2447.7858      264.39307     -296.80999      4897.4977     -4391.2559     -526.11421      74858.96       42.145182      42.145182      42.145182      1.1784249      986.64527     -211.73145     -374.79686    
    171000   171000         331.57336     -1063.9357      14549.391      15700.957      6423.3334      9277.6241      3180.2316      3278.085       2417.8704      258.82926     -366.6874       4900.0775     -4390.7821     -530.67201      74216.016      42.024177      42.024177      42.024177      1.1886338     -1266.0546     -4.7013018     -1921.0511    
    172000   172000         333.15286     -205.06074      15528.15       15750.536      6453.9319      9296.6043      3154.8785      3323.1885      2400.145       260.33334     -344.04938      4891.5373     -4389.429      -529.63197      74361.754      42.051666      42.051666      42.051666      1.1863042      673.54467     -1282.9769     -5.7500358    
    173000   173000         331.91083     -1017.1743      14581.538      15697.008      6429.871       9267.1371      3193.1261      3213.7221      2433.8197      254.48481     -333.85839      4895.9793     -4390.1365     -523.76584      75194.599      42.208075      42.208075      42.208075      1.1731649      342.88928     -2161.1392     -1233.2728    
    174000   174000         334.85458      742.07748      16636.34       15827.896      6486.8983      9340.9976      3165.9934      3264.1535      2442.7889      260.18789     -292.99191      4891.7821     -4390.9163     -527.22872      74700.716      42.115464      42.115464      42.115464      1.1809212      295.99455      1235.5332      694.7047     
    175000   175000         329.86011     -453.30469      15173.286      15665.689      6390.144       9275.5446      3232.7677      3152.373       2433.4082      255.31009     -304.50457      4895.9799     -4389.7898     -528.77395      74482.419      42.074399      42.074399      42.074399      1.1843824      162.14205     -362.91143     -1159.1447    
    176000   176000         332.38444     -778.6108       14948.808      15795.146      6439.0459      9356.1         3255.4526      3240.6508      2439.6803      257.0765      -345.68844      4898.4257     -4389.4975     -528.41666      74532.78       42.08388       42.08388       42.08388       1.1835821      100.19187     -1134.9572     -1301.0671    
    177000   177000         334.77284      1404.9547      17193.579      15666.615      6485.3148      9181.2999      3144.2709      3228.2786      2340.293       262.26445     -293.54229      4892.3328     -4392.5975     -528.48563      74523.053      42.082049      42.082049      42.082049      1.1837366      2014.3087      539.32106      1661.2343    
    178000   178000         331.11838     -417.31992      15229.864      15684.305      6414.5195      9269.7854      3265.8678      3220.1529      2383.7993      246.44178     -337.99361      4883.999      -4392.4818     -527.46251      74667.605      42.10924       42.10924       42.10924       1.1814449     -414.5887      -951.21309      113.84203    
    179000   179000         334.2277       255.04039      16116.389      15837.948      6474.7542      9363.194       3206.7469      3293.4125      2372.9187      261.55127     -279.27435      4898.4881     -4390.649      -526.10975      74859.595      42.145301      42.145301      42.145301      1.1784149      1419.0723     -1016.3696      362.41846    
    180000   180000         331.95109      676.27593      16411.16       15673.547      6430.651       9242.8958      3160.4179      3281.8601      2317.6803      251.98727     -273.27909      4896.9617     -4392.7324     -526.61684      74787.511      42.131769      42.131769      42.131769      1.1795507     -920.49509      1631.1297      1318.1932    
    181000   181000         335.43122     -3253.5981      12203.92       15751.786      6498.069       9253.7167      3181.6097      3192.6138      2507.7301      244.94866     -379.66408      4896.2755     -4389.7969     -526.74018      74769.999      42.12848       42.12848       42.12848       1.179827      -4008.1337     -1939.2004     -3813.4601    
    182000   182000         329.33544     -806.43637      14655.193      15534.027      6379.9799      9154.0471      3169.1159      3198.1914      2336.2303      258.33122     -308.47152      4892.4547     -4391.8048     -527.06338      74724.149      42.119867      42.119867      42.119867      1.1805509     -1260.0418     -141.22308     -1018.0443    
    183000   183000         332.83915      840.12925      16706.759      15785.907      6447.8548      9338.0523      3252.7159      3230.6743      2388.0912      259.12781     -299.74807      4897.3799     -4390.1887     -524.02965      75156.745      42.200991      42.200991      42.200991      1.1737558      2187.0498      784.10447     -450.76652    
    184000   184000         333.70389      878.63775      16609.384      15652.692      6464.6068      9188.0854      3194.1865      3226.4858      2330.6957      245.33774     -323.52385      4906.6519     -4391.7484     -527.5182       74659.722      42.107758      42.107758      42.107758      1.1815697      985.40164      862.36237      788.14923    
    185000   185000         328.11715      336.40634      16031.247      15665.553      6356.3787      9309.174       3219.5212      3216.6582      2467.05        250.89784     -347.57609      4894.4613     -4391.8384     -528.37962      74538.004      42.084863      42.084863      42.084863      1.1834991      106.3246       817.96314      84.931288    
    186000   186000         333.99029      884.96549      16690.075      15719.831      6470.1549      9249.6757      3200.9955      3215.4666      2360.7978      250.05372     -276.7409       4890.345      -4391.242      -523.89555      75175.982      42.204592      42.204592      42.204592      1.1734554      311.34761      438.14179      1905.4071    
    187000   187000         335.92593     -818.54461      14787.791      15682.061      6507.6528      9174.4085      3208.413       3212.7456      2387.2796      246.49639     -392.29134      4902.4398     -4390.6745     -525.74274      74911.853      42.155105      42.155105      42.155105      1.1775929     -446.34459      191.14106     -2200.4303    
    188000   188000         333.39771     -1823.4238      13700.85       15701.236      6458.6752      9242.5613      3151.4151      3210.0402      2459.3375      257.09796     -352.31399      4905.9554     -4388.9709     -523.56829      75222.971      42.213383      42.213383      42.213383      1.1727224     -1972.8743     -2030.5244     -1466.8728    
    189000   189000         330.23966      467.42213      16033.981      15525.111      6397.4967      9127.6142      3135.7889      3166.0084      2345.7147      248.37612     -270.90576      4895.5046     -4392.8728     -527.5972       74648.544      42.105657      42.105657      42.105657      1.1817466      824.51188      1337.2613     -759.50679    
    190000   190000         334.59354      1561.9925      17504.331      15804.931      6481.8413      9323.09        3257.5117      3317.7122      2303.9285      245.52676     -309.69991      4894.5749     -4386.4642     -527.93812      74600.339      42.096592      42.096592      42.096592      1.1825102      2221.8852      1628.7934      835.29899    
    191000   191000         333.12069      460.00623      16070.934      15570.444      6453.3087      9117.1353      3191.2539      3117.9045      2355.0541      254.3111      -314.38731      4901.0213     -4388.0224     -527.91952      74602.967      42.097086      42.097086      42.097086      1.1824686     -629.63821      210.92992      1798.727     
    192000   192000         329.63089     -902.79541      14503.102      15485.62       6385.7034      9099.9166      3166.8954      3092.0423      2417.728       244.47815     -322.77355      4890.284      -4388.7377     -527.77456      74623.458      42.10094       42.10094       42.10094       1.1821439     -834.74491     -1572.42       -301.22132    
    193000   193000         328.44101     -1571.3618      13689.506      15402.01       6362.6526      9039.3573      3131.7698      3190.9743      2382.4448      244.37496     -414.07754      4892.9295     -4389.0586     -527.04084      74727.345      42.120468      42.120468      42.120468      1.1805004     -1202.4239     -1974.0439     -1537.6176    
    194000   194000         333.91801     -868.39218      14816.896      15760.921      6468.7548      9292.1663      3156.6881      3322.7387      2412.063       245.44512     -357.83114      4901.4614     -4388.3989     -528.36247      74540.425      42.085319      42.085319      42.085319      1.1834607      578.73894     -1949.8206     -1234.0949    
    195000   195000         326.33526     -52.798168      15497.44       15554.97       6321.8595      9233.1105      3172.3386      3229.1895      2425.0862      246.86271     -326.98888      4879.1405     -4392.5181     -527.13891      74713.443      42.117855      42.117855      42.117855      1.1807201      641.78666      662.20268     -1462.3838    
    196000   196000         330.91359      334.30766      16061.6        15698.447      6410.5523      9287.895       3183.6477      3248.5617      2403.866       259.33047     -300.77046      4884.4602     -4391.2007     -528.75757      74484.726      42.074834      42.074834      42.074834      1.1843457     -79.51914       313.81889      768.62322    
    197000   197000         333.68764     -1606.7153      14018.407      15769.458      6464.292       9305.1657      3243.8403      3160.265       2460.783       254.19383     -310.07343      4888.1719     -4392.0148     -527.03568      74728.076      42.120605      42.120605      42.120605      1.1804889      842.17472     -3622.124      -2040.1965    
    198000   198000         331.45813      121.67568      15775.826      15643.139      6421.1012      9222.0382      3154.2749      3191.0141      2418.2044      251.08004     -298.17748      4895.3976     -4389.7554     -526.71643      74773.371      42.129113      42.129113      42.129113      1.1797738      1289.885      -380.50612     -544.3518     
    199000   199000         329.35977      21.173383      15692.718      15669.753      6380.4512      9289.3013      3286.7503      3191.0709      2391.7256      251.55778     -324.2229       4881.619      -4389.1993     -529.56334      74371.392      42.053483      42.053483      42.053483      1.1861505     -55.022893      513.45369     -394.91064    
    200000   200000         326.88995      2060.2454      17701.637      15458.035      6332.6052      9125.4299      3219.3098      3165.7649      2263.2588      255.00604     -290.06452      4899.2106     -4387.0556     -527.43971      74670.833      42.109847      42.109847      42.109847      1.1813938      1222.4761      2937.9915      2020.2686    
    201000   201000         333.64256     -166.09497      15465.15       15647.177      6463.4186      9183.7588      3156.7578      3221.7308      2381.2248      253.06609     -322.79047      4883.6241     -4389.8544     -524.10573      75145.835      42.198949      42.198949      42.198949      1.1739262     -1026.557       1566.1708     -1037.8987    
    202000   202000         327.71407      253.4936       15951.495      15674.386      6348.5703      9325.8155      3169.0403      3295.7027      2411.0942      255.90056     -308.86894      4891.7089     -4388.7622     -525.43174      74956.192      42.163421      42.163421      42.163421      1.1768963     -275.14547     -901.73201      1937.3583    
    203000   203000         327.58151     -173.46244      15262.794      15453.081      6346.0021      9107.0789      3164.2275      3095.7541      2430.6095      252.26197     -343.50376      4895.2446     -4387.515      -523.59656      75218.91       42.212624      42.212624      42.212624      1.1727857      1004.5131     -72.452466     -1452.4479    
    204000   204000         331.00526     -279.01455      15281.741      15585.44       6412.328       9173.1116      3168.6737      3196.8075      2405.6507      251.67049     -359.96464      4898.0428     -4387.7689     -527.69631      74634.523      42.10302       42.10302       42.10302       1.1819686      1156.6411     -485.65425     -1508.0305    
    205000   205000         334.73775     -1134.0019      14506.417      15732.399      6484.6349      9247.7644      3192.3906      3155.0514      2492.3476      248.29027     -349.55988      4899.211      -4389.9665     -531.28704      74130.102      42.007954      42.007954      42.007954      1.1900113     -1455.1928     -1356.4445     -590.36846    
    206000   206000         332.32704      1221.3266      16918.804      15585.239      6437.934       9147.3054      3126.0585      3156.8123      2369.0514      248.54484     -267.61703      4905.3458     -4390.8904     -526.03851      74869.733      42.147203      42.147203      42.147203      1.1782553      1903.4509      1114.963       645.56593    
    207000   207000         330.57937      286.46566      15859.119      15548.31       6404.0775      9144.2324      3147.6538      3255.0383      2320.4484      260.23325     -343.01526      4895.9685     -4392.0945     -529.39313      74395.303      42.057989      42.057989      42.057989      1.1857692      413.89058     -112.7431       558.2495     
    208000   208000         331.80172     -1125.489       14410.814      15639.096      6427.7573      9211.3384      3199.5873      3182.1246      2420.8865      265.96936     -366.13237      4900.4075     -4391.5045     -526.31162      74830.882      42.139912      42.139912      42.139912      1.1788671     -2137.4326     -1251.1323      12.097925    
    209000   209000         330.21657      383.57366      16067.388      15650.147      6397.0494      9253.0979      3207.275       3143.6922      2398.2584      262.2567      -264.25867      4896.7691     -4390.8949     -528.03346      74586.868      42.094058      42.094058      42.094058      1.1827238      1880.3472     -486.36888     -243.25733    
    210000   210000         330.31987     -1726.3793      13644.55       15521.057      6399.0504      9122.0061      3055.8827      3184.844       2456.2471      253.98693     -330.35754      4891.5875     -4390.1846     -528.42808      74531.17       42.083577      42.083577      42.083577      1.1836076     -1890.4903     -1287.3152     -2001.3323    
    211000   211000         329.35197      22.999884      15737.839      15712.735      6380.3         9332.4348      3144.9428      3276.8003      2431.2186      262.82559     -289.01595      4895.4714     -4389.8079     -526.23906      74841.2        42.141848      42.141848      42.141848      1.1787045      339.77818     -436.77363      165.9951     
    212000   212000         326.33051     -617.64051      14785.029      15456.754      6321.7675      9134.9867      3198.4038      3172.4054      2358.7503      245.81134     -359.2004       4907.5163     -4388.7001     -528.13333      74572.765      42.091404      42.091404      42.091404      1.1829475     -116.34406     -1840.9783      104.40085    
    213000   213000         333.72952      421.58626      16016.541      15559.829      6465.1033      9094.7255      3179.6934      3126.8152      2352.3224      255.00274     -315.03722      4888.3906     -4392.4616     -530.20459      74281.444      42.036522      42.036522      42.036522      1.1875868      909.43244      522.65824     -167.33189    
    214000   214000         325.76377     -1088.6853      14174.849      15353.381      6310.7884      9042.5926      3058.9763      3201.367       2399.199       246.1399      -369.95659      4898.0689     -4391.2019     -530.59198      74227.21       42.026289      42.026289      42.026289      1.1884545     -1652.777      -284.42937     -1328.8494    
    215000   215000         333.76715     -2545.6379      12874.085      15657.635      6465.8322      9191.8032      3119.3978      3196.7391      2460.6257      257.90084     -355.59373      4903.406      -4390.6725     -525.28766      74976.752      42.167275      42.167275      42.167275      1.1765735     -2528.4975     -2488.4319     -2619.9844    
    216000   216000         328.42923     -10.544424      15578.359      15589.896      6362.4244      9227.4721      3232.9459      3164.617       2356.7296      249.287       -288.06378      4902.433      -4390.4767     -524.92815      75028.102      42.1769        42.1769        42.1769        1.1757683     -761.07483      1198.7358     -469.29429    
    217000   217000         326.97662      597.54304      16064.468      15415.396      6334.284       9081.1117      3129.5817      3152.4099      2332.3299      254.8111      -296.16415      4900.7044     -4392.5611     -528.78071      74481.466      42.07422       42.07422       42.07422       1.1843975      1544.3674      515.59167     -267.32997    
    218000   218000         331.65106      1434.507       17187.82       15636.437      6424.8387      9211.5981      3188.1819      3212.7434      2360.1804      249.17471     -306.87605      4901.0327     -4392.8389     -531.10853      74155.018      42.01266       42.01266       42.01266       1.1896115      2062.8379      551.61085      1689.0723    
    219000   219000         331.6604       364.84573      16129.706      15731.529      6425.0195      9306.5099      3208.7194      3240.9879      2421.2909      253.74494     -337.08968      4909.9251     -4391.0688     -526.29929      74832.635      42.140241      42.140241      42.140241      1.1788395      930.22987      88.142772      76.164545    
    220000   220000         325.31308      281.04143      15817.913      15509.939      6302.0576      9207.8814      3112.9884      3261.6685      2329.4686      256.85724     -269.33493      4904.4227     -4388.1891     -524.15085      75139.366      42.197738      42.197738      42.197738      1.1740272      418.46983     -1769.109       2193.7634    
    221000   221000         325.51217     -500.32105      14950.588      15494.687      6305.9144      9188.7727      3137.5754      3231.8533      2410.2402      245.63636     -347.04122      4899.5212     -4389.0125     -528.16646      74568.087      42.090524      42.090524      42.090524      1.1830217     -846.3335       1.9888903     -656.61853    
    222000   222000         333.43687     -26.89165       15606.271      15635.642      6459.4339      9176.2085      3111.1478      3187.2747      2418.3676      240.00289     -290.2619       4900.7805     -4391.1031     -525.88245      74891.951      42.151372      42.151372      42.151372      1.1779058      1250.9832     -1309.1933     -22.464834    
    223000   223000         327.0607       122.9103       15597.744      15464.456      6335.9129      9128.5435      3207.4432      3185.0902      2356.6532      247.87985     -369.11535      4892.9821     -4392.3898     -529.65992      74357.831      42.050927      42.050927      42.050927      1.1863668      414.07817      1010.1358     -1055.4831    
    224000   224000         333.60815      665.02695      16243.319      15521.913      6462.752       9059.1607      3185.8797      3153.0433      2360.874       245.98394     -407.199        4909.0198     -4388.4411     -529.4915       74381.482      42.055385      42.055385      42.055385      1.1859896      2205.1361     -362.46347      152.40824    
    225000   225000         327.31578     -382.37047      15021.549      15435.963      6340.8544      9095.1091      3164.4148      3194.097       2319.4769      249.26504     -338.31531      4897.7458     -4391.5752     -529.96724      74314.712      42.042797      42.042797      42.042797      1.1870552     -1147.5084     -414.63411      415.03113    
    226000   226000         324.22292     -453.25717      15056.969      15549.085      6280.9387      9268.1464      3246.4139      3242.597       2403.1402      250.7719      -381.46386      4897.6095     -4390.9222     -529.02581      74446.958      42.067721      42.067721      42.067721      1.1849465     -1749.6003      922.8982      -533.06938    
    227000   227000         327.53986      1005.9758      16582.151      15483.918      6345.1954      9138.7231      3231.4024      3074.9211      2358.7323      254.80004     -279.5537       4889.057      -4390.6361     -526.12999      74856.715      42.14476       42.14476       42.14476       1.1784602      753.75252      449.01928      1815.1557    
    228000   228000         330.46632     -85.004014      15464.659      15556.762      6401.8877      9154.874       3187.4088      3175.0903      2371.8915      260.72349     -336.07446      4888.5515     -4392.7171     -530.11353      74294.204      42.038929      42.038929      42.038929      1.1873828     -335.21713     -747.83301      828.03809    
    229000   229000         328.72022      222.17038      15673.858      15431.298      6368.0617      9063.2359      3129.2587      3140.6016      2361.8672      254.99888     -338.34777      4902.5961     -4387.7388     -526.09785      74861.287      42.145618      42.145618      42.145618      1.1783883      885.76018      300.47855     -519.7276     
    230000   230000         325.2          496.51386      16031.591      15490.288      6299.867       9190.4213      3212.1704      3186.654       2356.3591      254.82302     -335.80614      4906.4154     -4390.1946     -526.85499      74753.705      42.12542       42.12542       42.12542       1.1800841      1033.4205     -558.85999      1014.9811    
    231000   231000         327.08307      819.31597      16469.604      15576.347      6336.3464      9240.0009      3166.523       3164.7441      2408.1114      251.84332     -271.83772      4911.2204     -4390.6036     -526.83518      74756.516      42.125948      42.125948      42.125948      1.1800398      1414.464       1474.389      -430.90508    
    232000   232000         324.87812      30.079935      15418.359      15385.612      6293.6314      9091.9807      3194.4976      3108.9123      2367.5531      248.38942     -346.65753      4905.7954     -4386.5096     -527.59885      74648.31       42.105613      42.105613      42.105613      1.1817503      424.57089      911.71276     -1246.0438    
    233000   233000         324.80446      1579.022       17147.604      15432.813      6292.2044      9140.6086      3191.084       3129.72        2300.3922      252.33486     -242.43682      4899.4325     -4389.9182     -528.90393      74464.115      42.070952      42.070952      42.070952      1.1846735      866.64781      670.44952      3199.9688    
    234000   234000         324.17426      1351.7573      16795.403      15331.598      6279.9959      9051.6023      3108.1395      3168.5345      2311.4631      232.8409      -270.44103      4895.5619     -4394.4965     -530.41441      74252.06       42.030979      42.030979      42.030979      1.1880568      1881.3087      2811.1826     -637.21946    
    235000   235000         325.30116     -540.50334      14851.551      15441.331      6301.8265      9139.5044      3095.7274      3131.7442      2470.3458      246.93554     -310.95385      4898.2026     -4392.4973     -526.39038      74819.685      42.13781       42.13781       42.13781       1.1790435     -558.94582     -1596.8084      534.24417    
    236000   236000         323.51216      956.08785      16376.005      15341.928      6267.1696      9074.7584      3127.4814      3108.4631      2419.5114      248.57881     -332.01129      4896.2651     -4393.5302     -531.06131      74161.612      42.013905      42.013905      42.013905      1.1895057      853.09107      1168.5981      846.57442    
    237000   237000         322.18107     -40.263122      15384.789      15428.663      6241.3833      9187.2794      3140.4302      3161.234       2409.5535      249.8729      -278.5285       4893.3763     -4388.6589     -527.11327      74717.077      42.118538      42.118538      42.118538      1.1806626     -561.14137      563.61059     -123.25859    
    238000   238000         320.42782      455.57295      15789.872      15293.764      6207.4188      9086.3456      3142.4058      3180.0982      2257.2352      243.82198     -247.13153      4898.0734     -4388.1574     -527.45084      74669.257      42.109551      42.109551      42.109551      1.1814188      1025.7457     -552.90295      893.8761     
    239000   239000         328.72206      1302.4913      16946.717      15529.914      6368.0972      9161.8167      3130.2132      3238.5399      2330.4812      249.4562      -296.80419      4900.6824     -4390.7521     -528.03768      74586.273      42.093946      42.093946      42.093946      1.1827332      2756.1883     -295.57002      1446.8556    
    240000   240000         317.03642     -1955.3923      13044.798      15182.263      6141.7197      9040.5428      3103.9745      3122.5488      2386.9284      255.43565     -346.64891      4907.2388     -4388.9343     -525.45394      74953.025      42.162827      42.162827      42.162827      1.176946      -1270.2412     -1787.2431     -2808.6927    
    241000   241000         322.64357      316.12506      15799.489      15456.137      6250.343       9205.794       3067.0426      3189.4147      2441.6844      253.63063     -254.25373      4900.1828     -4391.9074     -528.83369      74474.004      42.072815      42.072815      42.072815      1.1845162     -545.94429     -454.88041      1949.1999    
    242000   242000         321.41685      3.1244328      15306.762      15303.378      6226.5786      9076.7991      3121.4489      3170.3301      2353.5792      247.39134     -325.05086      4899.5708     -4390.4704     -530.21533      74279.94       42.036239      42.036239      42.036239      1.1876108      756.20913     -354.21831     -392.61752    
    243000   243000         326.62672      1042.998       16527.088      15392.06       6327.5057      9064.5543      3162.4369      3181.8875      2281.5036      242.92007     -308.304        4897.4074     -4393.2971     -527.80889      74618.604      42.100027      42.100027      42.100027      1.1822208      215.48099      1072.0561      1841.4568    
    244000   244000         330.10973     -652.4888       14939.908      15651.757      6394.9797      9256.7775      3149.892       3176.6312      2480.2241      265.18097     -328.98941      4902.4279     -4388.5892     -526.48382      74806.406      42.135317      42.135317      42.135317      1.1792528      14.604045     -254.10286     -1717.9676    
    245000   245000         321.72953     -170.34082      15160.783      15346.744      6232.636       9114.1083      3050.0079      3188.3171      2423.3281      235.83009     -289.85324      4895.8869     -4389.4086     -526.13377      74856.177      42.144659      42.144659      42.144659      1.1784687      40.792387     -1784.7422      1232.9274    
    246000   246000         327.48319     -1140.3351      14195.252      15440.629      6344.0975      9096.5317      3118.1011      3202.6256      2361.1339      244.36107     -342.23186      4901.953      -4389.4111     -525.93399      74884.612      42.149995      42.149995      42.149995      1.1780212     -62.53447      -1741.977      -1616.4939    
    247000   247000         323.168       -242.68326      15026.252      15290.2        6260.5024      9029.6978      3071.3078      3164.9991      2378.3787      239.55935     -334.76658      4900.6326     -4390.4131     -528.10603      74576.62       42.09213       42.09213       42.09213       1.1828863      1701.9338     -593.86386     -1836.1197    
    248000   248000         322.13784      1549.3164      16984.246      15297.428      6240.5459      9056.8818      3061.3669      3190.3724      2338.6136      245.08842     -283.45134      4897.9303     -4393.0385     -527.55971      74653.848      42.106654      42.106654      42.106654      1.1816626      1292.8516      526.52683      2828.5707    
    249000   249000         327.11579      59.173455      15541.12       15477.006      6336.9801      9140.0264      3219.0461      3211.5688      2323.0643      234.59187     -361.29987      4903.6514     -4390.5962     -530.12287      74292.895      42.038682      42.038682      42.038682      1.1874038     -666.60804     -248.98104      1093.1094    
    250000   250000         327.21188      895.76733      16272.613      15299.015      6338.8417      8960.1737      3142.4462      3097.2715      2308.9533      241.891       -348.94366      4907.5809     -4389.0256     -528.46397      74526.107      42.082624      42.082624      42.082624      1.183688       564.81842      1187.6464      934.83721    
Loop time of 496.924 on 1 procs for 250000 steps with 6500 atoms

Performance: 43.467 ns/day, 0.552 hours/ns, 503.095 timesteps/s, 3.270 Matom-step/s
100.0% CPU use with 1 MPI tasks x 1 OpenMP threads

MPI task timing breakdown:
Section |  min time  |  avg time  |  max time  |%varavg| %total
---------------------------------------------------------------
Pair    | 53.667     | 53.667     | 53.667     |   0.0 | 10.80
Bond    | 67.29      | 67.29      | 67.29      |   0.0 | 13.54
Kspace  | 232.22     | 232.22     | 232.22     |   0.0 | 46.73
Neigh   | 48.152     | 48.152     | 48.152     |   0.0 |  9.69
Comm    | 7.0978     | 7.0978     | 7.0978     |   0.0 |  1.43
Output  | 2.2793     | 2.2793     | 2.2793     |   0.0 |  0.46
Modify  | 76.019     | 76.019     | 76.019     |   0.0 | 15.30
Other   |            | 10.2       |            |       |  2.05

Nlocal:           6500 ave        6500 max        6500 min
Histogram: 1 0 0 0 0 0 0 0 0 0
Nghost:          17443 ave       17443 max       17443 min
Histogram: 1 0 0 0 0 0 0 0 0 0
Neighs:              0 ave           0 max           0 min
Histogram: 1 0 0 0 0 0 0 0 0 0
FullNghs:  3.60592e+06 ave 3.60592e+06 max 3.60592e+06 min
Histogram: 1 0 0 0 0 0 0 0 0 0

Total # of neighbors = 3605922
Ave neighs/atom = 554.75723
Ave special neighs/atom = 5.7630769
Neighbor list builds = 8734
Dangerous builds = 0
System init for write_data ...
PPPM Kokkos initialization ...
  using 12-bit tables for long-range coulomb
  G vector (1/distance) = 0.30098713
  grid = 30 30 30
  stencil order = 5
  estimated absolute RMS force accuracy = 0.00031217465
  estimated relative force accuracy = 9.4010467e-07
  using double precision cuFFT
  3d grid and FFT values/proc = 50653 27000
Generated 28 of 28 mixed pair_coeff terms from sixthpower/sixthpower mixing rule
System init for write_restart ...
PPPM Kokkos initialization ...
  using 12-bit tables for long-range coulomb
  G vector (1/distance) = 0.30098713
  grid = 30 30 30
  stencil order = 5
  estimated absolute RMS force accuracy = 0.00031217465
  estimated relative force accuracy = 9.4010467e-07
  using double precision cuFFT
  3d grid and FFT values/proc = 50653 27000
Generated 28 of 28 mixed pair_coeff terms from sixthpower/sixthpower mixing rule
STAGE COMPLETE: NPT T=350.0->325.0K P=1.0->1.0atm steps=250000
