LAMMPS (22 Jul 2025 - Update 3)
KOKKOS mode with Kokkos version 4.6.2 is enabled
  will use up to 1 GPU(s) per node
  using 1 OpenMP thread(s) per MPI task
Reading data file ...
  orthogonal box = (0 0 0) to (51.522057 51.522057 51.522057)
  1 by 1 by 1 MPI processor grid
  reading atoms ...
  8000 atoms
  scanning bonds ...
  4 = max bonds/atom
  scanning angles ...
  10 = max angles/atom
  scanning dihedrals ...
  16 = max dihedrals/atom
  scanning impropers ...
  7 = max impropers/atom
  orthogonal box = (0 0 0) to (51.522057 51.522057 51.522057)
  1 by 1 by 1 MPI processor grid
  reading bonds ...
  7990 bonds
  reading angles ...
  14820 angles
  reading dihedrals ...
  17070 dihedrals
  reading impropers ...
  9120 impropers
Finding 1-2 1-3 1-4 neighbors ...
  special bond factors lj:    0        0        1       
  special bond factors coul:  0        0        1       
     4 = max # of 1-2 neighbors
     6 = max # of 1-3 neighbors
     8 = max # of special neighbors
  special bonds CPU = 0.003 seconds
  read_data CPU = 0.126 seconds
PPPM Kokkos initialization ...
  using 12-bit tables for long-range coulomb
  G vector (1/distance) = 0.29929834
  grid = 36 36 36
  stencil order = 5
  estimated absolute RMS force accuracy = 0.00028253263
  estimated relative force accuracy = 8.5083861e-07
  using double precision cuFFT
  3d grid and FFT values/proc = 79507 46656
Generated 10 of 10 mixed pair_coeff terms from sixthpower/sixthpower mixing rule
Neighbor list info ...
  update: every = 1 steps, delay = 0 steps, check = yes
  max neighbors/atom: 4000, page size: 100000
  master list distance cutoff = 11.5
  ghost atom cutoff = 11.5
  binsize = 11.5, bins = 5 5 5
  1 neighbor lists, perpetual/occasional/extra = 1 0 0
  (1) pair lj/class2/coul/long/kk, perpetual
      attributes: full, newton off, kokkos_device
      pair build: full/bin/kk/device
      stencil: full/bin/3d
      bin: kk/device
Setting up cg/kk style minimization ...
  Unit style    : real
  Current step  : 0
WARNING: Fix MINIMIZE/kk not compatible with sending data in Kokkos communication (src/KOKKOS/comm_kokkos.cpp:767)
WARNING: Fix with atom-based arrays not compatible with sending data in Kokkos communication, switching to classic exchange/border communication (src/KOKKOS/comm_kokkos.cpp:780)
WARNING: Fix MINIMIZE/kk not compatible with Kokkos sorting on device (src/KOKKOS/atom_kokkos.cpp:212)
WARNING: Fix with atom-based arrays not compatible with Kokkos sorting on device, switching to classic host sorting (src/KOKKOS/atom_kokkos.cpp:218)
Per MPI rank memory allocation (min/avg/max) = 35.4 | 35.4 | 35.4 Mbytes
   Step          Time           Temp          Press          TotEng         PotEng         E_bond        E_angle        E_dihed        E_impro         E_vdwl         E_coul         E_long         Volume           Lx             Ly             Lz          Density    
         0   0              0              12832.129      9601.0551      9601.0551      2951.5762      8755.5534     -7283.9963     -78.60717       2215.5639      8330.1692     -5289.204       136766.45      51.522057      51.522057      51.522057      0.60999999   
       500   500            0             -867.4446      -5859.6557     -5859.6557      118.17225      2985.6143     -9538.2141     -18.923733     -2260.0099      8184.7029     -5330.9973      136766.45      51.522057      51.522057      51.522057      0.60999999   
      1000   1000           0             -822.1393      -6270.9822     -6270.9822      111.67876      2928.4059     -9601.6099     -18.540887     -2522.4188      8173.866      -5342.3633      136766.45      51.522057      51.522057      51.522057      0.60999999   
      1500   1500           0             -740.24256     -6470.5101     -6470.5101      106.92291      2884.9011     -9651.0812     -18.244935     -2604.8165      8158.1177     -5346.3092      136766.45      51.522057      51.522057      51.522057      0.60999999   
      2000   2000           0             -732.54001     -6603.2405     -6603.2405      105.26244      2890.9062     -9683.567      -18.255286     -2687.9107      8139.376      -5349.0521      136766.45      51.522057      51.522057      51.522057      0.60999999   
      2500   2500           0             -671.41412     -6704.0725     -6704.0725      103.37644      2851.7506     -9681.6931     -18.19902      -2743.7223      8136.107      -5351.6921      136766.45      51.522057      51.522057      51.522057      0.60999999   
      3000   3000           0             -739.36081     -6765.5662     -6765.5662      103.81665      2853.9747     -9690.6037     -18.271254     -2788.7958      8130.3462     -5356.0329      136766.45      51.522057      51.522057      51.522057      0.60999999   
      3500   3500           0             -701.83234     -6838.7611     -6838.7611      103.11072      2843.3432     -9683.8574     -18.186086     -2838.3144      8115.5775     -5360.4346      136766.45      51.522057      51.522057      51.522057      0.60999999   
      4000   4000           0             -658.07704     -6885.8882     -6885.8882      101.59109      2840.1298     -9699.6227     -18.161734     -2867.3899      8117.4026     -5359.8373      136766.45      51.522057      51.522057      51.522057      0.60999999   
      4500   4500           0             -750.70951     -6935.8951     -6935.8951      100.95054      2841.9091     -9719.093      -18.191802     -2897.3773      8116.2363     -5360.329       136766.45      51.522057      51.522057      51.522057      0.60999999   
      4792   4792           0             -727.06452     -6947.1177     -6947.1177      100.50866      2844.323      -9720.4945     -18.295409     -2907.2214      8114.4808     -5360.4188      136766.45      51.522057      51.522057      51.522057      0.60999999   
Loop time of 16.1685 on 1 procs for 4792 steps with 8000 atoms

99.9% CPU use with 1 MPI tasks x 1 OpenMP threads

Minimization stats:
  Stopping criterion = energy tolerance
  Energy initial, next-to-last, final = 
       9601.0551177892  -6947.11608890951  -6947.11773983977
  Force two-norm initial, final = 3242.0868 4.5134238
  Force max component initial, final = 537.10672 1.3412191
  Final line search alpha, max atom move = 0.012335921 0.016545172
  Iterations, force evaluations = 4792 9532

MPI task timing breakdown:
Section |  min time  |  avg time  |  max time  |%varavg| %total
---------------------------------------------------------------
Pair    | 2.6509     | 2.6509     | 2.6509     |   0.0 | 16.40
Bond    | 2.085      | 2.085      | 2.085      |   0.0 | 12.90
Kspace  | 9.4297     | 9.4297     | 9.4297     |   0.0 | 58.32
Neigh   | 0.5287     | 0.5287     | 0.5287     |   0.0 |  3.27
Comm    | 0.15483    | 0.15483    | 0.15483    |   0.0 |  0.96
Output  | 0.026318   | 0.026318   | 0.026318   |   0.0 |  0.16
Modify  | 0          | 0          | 0          |   0.0 |  0.00
Other   |            | 1.293      |            |       |  8.00

Nlocal:           8000 ave        8000 max        8000 min
Histogram: 1 0 0 0 0 0 0 0 0 0
Nghost:          17422 ave       17422 max       17422 min
Histogram: 1 0 0 0 0 0 0 0 0 0
Neighs:              0 ave           0 max           0 min
Histogram: 1 0 0 0 0 0 0 0 0 0
FullNghs:  3.84899e+06 ave 3.84899e+06 max 3.84899e+06 min
Histogram: 1 0 0 0 0 0 0 0 0 0

Total # of neighbors = 3848986
Ave neighs/atom = 481.12325
Ave special neighs/atom = 5.7025
Neighbor list builds = 106
Dangerous builds = 0
System init for write_data ...
PPPM Kokkos initialization ...
  using 12-bit tables for long-range coulomb
  G vector (1/distance) = 0.29929834
  grid = 36 36 36
  stencil order = 5
  estimated absolute RMS force accuracy = 0.00028253263
  estimated relative force accuracy = 8.5083861e-07
  using double precision cuFFT
  3d grid and FFT values/proc = 79507 46656
Generated 10 of 10 mixed pair_coeff terms from sixthpower/sixthpower mixing rule
System init for write_restart ...
PPPM Kokkos initialization ...
  using 12-bit tables for long-range coulomb
  G vector (1/distance) = 0.29929834
  grid = 36 36 36
  stencil order = 5
  estimated absolute RMS force accuracy = 0.00028253263
  estimated relative force accuracy = 8.5083861e-07
  using double precision cuFFT
  3d grid and FFT values/proc = 79507 46656
Generated 10 of 10 mixed pair_coeff terms from sixthpower/sixthpower mixing rule
STAGE COMPLETE: minimization
