LAMMPS (22 Jul 2025 - Update 3)
OMP_NUM_THREADS environment is not set. Defaulting to 1 thread.
  using 1 OpenMP thread(s) per MPI task
Reading data file ...
  orthogonal box = (2.4140443 2.4140443 2.4140443) to (48.120697 48.120697 48.120697)
  1 by 1 by 1 MPI processor grid
  reading atoms ...
  3600 atoms
  reading velocities ...
  3600 velocities
  scanning bonds ...
  2 = max bonds/atom
  scanning angles ...
  1 = max angles/atom
  scanning dihedrals ...
  2 = max dihedrals/atom
  orthogonal box = (2.4140443 2.4140443 2.4140443) to (48.120697 48.120697 48.120697)
  1 by 1 by 1 MPI processor grid
  reading bonds ...
  3590 bonds
  reading angles ...
  3580 angles
  reading dihedrals ...
  3570 dihedrals
Finding 1-2 1-3 1-4 neighbors ...
  special bond factors lj:    0        0        0       
  special bond factors coul:  0        0        0       
     2 = max # of 1-2 neighbors
     2 = max # of 1-3 neighbors
     4 = max # of 1-4 neighbors
     6 = max # of special neighbors
  special bonds CPU = 0.001 seconds
  read_data CPU = 0.034 seconds

CITE-CITE-CITE-CITE-CITE-CITE-CITE-CITE-CITE-CITE-CITE-CITE-CITE

Your simulation uses code contributions which should be cited:
- GPU package (short-range, long-range and three-body potentials): doi:10.1016/j.cpc.2010.12.021, doi:10.1016/j.cpc.2011.10.012, doi:10.1016/j.cpc.2013.08.002, doi:10.1016/j.commatsci.2014.10.068, doi:10.1016/j.cpc.2016.10.020, doi:10.3233/APC200086
The log file lists these citations in BibTeX format.

CITE-CITE-CITE-CITE-CITE-CITE-CITE-CITE-CITE-CITE-CITE-CITE-CITE


--------------------------------------------------------------------------
- Using acceleration for lj/cut:
-  with 1 proc(s) per device.
-  with 1 thread(s) per proc.
-  Horizontal vector operations: ENABLED
-  Shared memory system: No
--------------------------------------------------------------------------
Device 0: NVIDIA A800 40GB Active, 108 CUs, 39/39 GB, 1.4 GHZ (Mixed Precision)
--------------------------------------------------------------------------

Initializing Device and compiling on process 0...Done.
Initializing Device 0 on core 0...Done.

Generated 1 of 1 mixed pair_coeff terms from arithmetic mixing rule
Setting up Verlet run ...
  Unit style    : real
  Current step  : 0
  Time step     : 2
Per MPI rank memory allocation (min/avg/max) = 14.77 | 14.77 | 14.77 Mbytes
   Step          Time           Temp          Press         Enthalpy        TotEng         KinEng         PotEng         E_bond        E_angle        E_dihed        E_impro         E_vdwl         E_coul         E_long         E_tail         Volume           Lx             Ly             Lz          Density          Pxx            Pyy            Pzz      
         0   0              258.09831      304.73547      2428.1926      2003.83        2768.862      -765.032        945.71039      941.34096      1738.0523      0             -4390.1357      0              0             -144.25046      95485.684      45.706653      45.706653      45.706653      0.87850702     193.531        474.67496      246.00046    
       500   1000           254.61014     -253.98565      1411.1276      1764.2795      2731.4412     -967.16163      917.97263      872.01292      1640.5079      0             -4397.6551      0              0             -144.47041      95340.311      45.683446      45.683446      45.683446      0.87984655    -99.529559     -381.72288     -280.70453    
      1000   2000           249.99125      535.85226      2618.2756      1876.7826      2681.89       -805.1074       941.33288      930.03624      1730.274       0             -4406.7505      0              0             -145.1675       94882.491      45.610205      45.610205      45.610205      0.88409192     484.8142       109.62116      1013.1214    
      1500   3000           250.86051      388.58012      2315.9325      1778.7924      2691.2153     -912.42288      901.00979      933.85482      1680.6635      0             -4427.951       0              0             -145.31966      94783.143      45.594281      45.594281      45.594281      0.88501859     861.11944      147.81182      156.8091     
      2000   4000           243.95556      65.400476      1834.2547      1743.7732      2617.1395     -873.36634      916.78084      942.66872      1682.6175      0             -4415.4334      0              0             -145.19527      94864.344      45.607297      45.607297      45.607297      0.88426104     386.1765       460.37379     -650.34886    
      2500   5000           247.39104     -460.03391      1152.6852      1788.2093      2653.9951     -865.78576      936.33346      906.44392      1715.7564      0             -4424.3195      0              0             -145.40829      94725.371      45.585015      45.585015      45.585015      0.88555835    -230.85394     -727.81975     -421.42803    
      3000   6000           246.41111     -437.64884      1209.7124      1817.3542      2643.4824     -826.12826      938.01729      913.50569      1713.9282      0             -4391.5794      0              0             -144.68034      95201.972      45.66134       45.66134       45.66134       0.88112506    -527.50497     -389.35241     -396.08912    
      3500   7000           251.71436     -108.64556      1674.98        1826.0051      2700.3754     -874.37029      920.84527      908.30628      1702.0811      0             -4405.603       0              0             -144.50879      95314.991      45.679401      45.679401      45.679401      0.88008027    -739.49496      35.252694      378.3056     
      4000   8000           256.08434     -164.11102      1608.8625      1837.247       2747.2563     -910.00929      921.52784      877.86484      1702.2741      0             -4411.6761      0              0             -144.34529      95422.952      45.696642      45.696642      45.696642      0.87908456    -322.10336     -210.97566      40.745955    
      4500   9000           245.42607     -184.01809      1487.0059      1742.4756      2632.915      -890.43941      957.17104      896.49258      1673.2986      0             -4417.4016      0              0             -144.69463      95192.573      45.659837      45.659837      45.659837      0.88121206    -320.34689     -123.05147     -108.65591    
      5000   10000          247.65671     -88.19512       1564.6547      1686.7473      2656.8452     -970.09787      904.27696      857.27232      1660.8434      0             -4392.4905      0              0             -145.10638      94922.459      45.616609      45.616609      45.616609      0.88371966     95.992029     -20.94356      -339.63383    
      5500   11000          246.92316     -21.216772      1738.2357      1767.6964      2648.9757     -881.27935      933.39195      897.45528      1681.0285      0             -4393.1551      0              0             -144.66631      95211.209      45.662816      45.662816      45.662816      0.88103958     243.00867     -233.45801     -73.20098     
      6000   12000          250.05031      104.2378       1831.5429      1686.2796      2682.5236     -996.24397      886.60052      853.32881      1667.629       0             -4403.8023      0              0             -144.1454       95555.281      45.717755      45.717755      45.717755      0.87786716     392.44347     -196.35468      116.6246     
      6500   13000          248.36286     -274.1034       1414.887       1794.3874      2664.4208     -870.03332      934.45633      894.93591      1724.2576      0             -4423.6832      0              0             -145.08869      94934.031      45.618462      45.618462      45.618462      0.88361195     212.70057     -171.04177     -863.96901    
      7000   14000          246.99333      432.23888      2315.6387      1719.1497      2649.7285     -930.57872      909.47652      903.43913      1680.201       0             -4423.6953      0              0             -145.5636       94624.304      45.568797      45.568797      45.568797      0.88650421     389.91965      263.36186      643.43512    
      7500   15000          250.65879      648.42327      2697.6873      1800.6267      2689.0513     -888.4246       921.85995      927.19438      1692.9663      0             -4430.4452      0              0             -145.20052      94860.917      45.606748      45.606748      45.606748      0.88429299     1189.6254      450.66083      304.98352    
      8000   16000          247.23437      2.1241755      1720.33        1717.3883      2652.3143     -934.92599      906.31822      871.25265      1704.7602      0             -4417.257       0              0             -145.05219      94957.92       45.622288      45.622288      45.622288      0.88338964    -465.42015      520.87616     -49.083478    
      8500   17000          249.53607     -275.25275      1441.8308      1823.4221      2677.0069     -853.58474      933.59247      907.07109      1724.5941      0             -4418.8424      0              0             -144.89871      95058.501      45.638391      45.638391      45.638391      0.88245494    -581.89409     -22.889104     -220.97506    
      9000   18000          250.95647      146.12779      2021.7436      1818.5372      2692.2448     -873.70755      946.0928       880.87097      1705.2081      0             -4405.8794      0              0             -144.45306      95351.761      45.685275      45.685275      45.685275      0.87974089     245.89422     -351.26856      543.75772    
      9500   19000          255.45906     -114.88348      1611.6063      1770.9296      2740.5483     -969.61877      899.59613      884.35877      1682.6568      0             -4436.2305      0              0             -144.8471       95092.37       45.64381       45.64381       45.64381       0.88214064     244.30173     -209.73814     -379.21403    
     10000   20000          246.95646     -645.25818      827.43063      1715.7855      2649.333      -933.54744      926.95039      878.60144      1702.212       0             -4441.3113      0              0             -145.90776      94401.109      45.532941      45.532941      45.532941      0.88860019    -658.74501     -72.216068     -1204.8134    
     10500   21000          252.49212     -1.9731141      1807.196       1809.926       2708.7192     -898.7932       941.91677      914.61363      1693.8811      0             -4449.2047      0              0             -145.18845      94868.798      45.608011      45.608011      45.608011      0.88421953     45.20741       348.95618     -400.08293    
     11000   22000          248.14387      661.47018      2654.0685      1737.8278      2662.0714     -924.24366      946.07765      877.2765       1654.0635      0             -4401.6613      0              0             -145.02138      94978.09       45.625518      45.625518      45.625518      0.88320205     1367.6425     -156.78457      773.55267    
     11500   23000          254.73813      605.09356      2666.2407      1829.549       2732.8142     -903.26519      892.69163      944.59777      1709.4276      0             -4449.9822      0              0             -145.27419      94812.808      45.599037      45.599037      45.599037      0.88474169     586.4452       814.10529      414.7302     
     12000   24000          250.43529     -92.134607      1679.4463      1806.7087      2686.6536     -879.9449       902.4551       936.81169      1706.0721      0             -4425.2838      0              0             -145.43004      94711.203      45.582742      45.582742      45.582742      0.88569083    -51.263515      12.900557     -238.04086    
     12500   25000          250.79764      26.734318      1818.9855      1782.0528      2690.5409     -908.48809      895.8787       923.39293      1704.5704      0             -4432.3301      0              0             -145.4084       94725.3        45.585004      45.585004      45.585004      0.88555901    -148.06295      247.05077     -18.784867    
     13000   26000          248.28765      88.000269      1873.2853      1751.3409      2663.6139     -912.27296      917.43422      916.10574      1681.9581      0             -4427.771       0              0             -144.96184      95017.105      45.631765      45.631765      45.631765      0.88283939     658.56507     -346.62524     -47.939017    
     13500   27000          258.32404      719.28626      2816.3763      1822.5105      2771.2836     -948.77317      903.06499      904.18991      1679.9372      0             -4435.9652      0              0             -145.38024      94743.646      45.587947      45.587947      45.587947      0.88538754     294.7544       1095.1126      767.99181    
     14000   28000          249.37488      507.69963      2433.839       1732.4409      2675.2776     -942.83667      887.08808      915.19441      1684.2985      0             -4429.4176      0              0             -145.40308      94728.761      45.585559      45.585559      45.585559      0.88552666     1038.3822      22.406173      462.31048    
     14500   29000          246.76478     -67.05446       1556.6677      1649.0821      2647.2766     -998.1945       905.88545      883.71895      1670.0995      0             -4457.8984      0              0             -145.75359      94500.96       45.548989      45.548989      45.548989      0.88766129     367.99086      60.0204       -629.17464    
     15000   30000          248.22693     -178.91439      1436.3947      1683.9841      2662.9625     -978.97836      873.78286      884.59978      1700.8048      0             -4438.1658      0              0             -145.15919      94887.923      45.611076      45.611076      45.611076      0.8840413      167.55432     -563.03474     -141.26277    
     15500   31000          253.03354      322.62841      2293.3325      1848.9419      2714.5275     -865.58552      952.73076      925.14362      1681.4507      0             -4424.9106      0              0             -145.83749      94446.594      45.540253      45.540253      45.540253      0.88817224    -89.943292      783.90323      273.92529    
     16000   32000          249.12752      236.57333      2072.7809      1743.5021      2672.6239     -929.12185      905.77388      904.59791      1651.7483      0             -4391.242       0              0             -144.32225      95438.185      45.699073      45.699073      45.699073      0.87894424     22.731227      387.46291      299.52585    
     16500   33000          247.92747      559.57546      2495.8007      1724.2939      2659.7498     -935.45589      876.2404       883.10997      1756.8628      0             -4451.669       0              0             -145.69689      94537.738      45.554897      45.554897      45.554897      0.88731596     345.61855      519.24277      813.86506    
     17000   34000          256.25302      420.9294       2397.3288      1815.5824      2749.0658     -933.48347      899.15364      928.37396      1674.0695      0             -4435.0806      0              0             -145.34727      94765.138      45.591394      45.591394      45.591394      0.88518674     272.71881      248.94935      741.12004    
     17500   35000          249.57326      700.21101      2720.5537      1754.4584      2677.4058     -922.94732      941.90378      888.9791       1694.3076      0             -4448.1378      0              0             -145.59295      94605.229      45.565735      45.565735      45.565735      0.88668295     1264.3564      564.86582      271.4108     
     18000   36000          251.14423     -242.85928      1435.3718      1772.0441      2694.2591     -922.21491      901.47101      892.26952      1712.4754      0             -4428.4308      0              0             -144.9034       95055.42       45.637897      45.637897      45.637897      0.88248354    -588.12952      105.4215      -245.86984    
     18500   37000          247.11844     -199.48439      1465.6713      1741.3838      2651.0707     -909.68687      913.52723      921.12341      1687.4233      0             -4431.7608      0              0             -145.33954      94770.178      45.592202      45.592202      45.592202      0.88513966    -356.95421     -12.943406     -228.55555    
     19000   38000          251.59063     -542.7804       1010.3675      1765.6016      2699.048      -933.44645      915.27443      880.35101      1690.7052      0             -4419.7771      0              0             -144.36899      95407.287      45.694141      45.694141      45.694141      0.8792289     -18.865609     -934.18159     -675.29399    
     19500   39000          247.8957      -109.03375      1545.3555      1695.2649      2659.409      -964.14416      907.17041      899.2438       1714.2549      0             -4484.8133      0              0             -146.10449      94273.993      45.512494      45.512494      45.512494      0.88979835    -374.17867     -396.8658       443.94322    
     20000   40000          251.68303     -592.0978       887.02569      1701.9482      2700.0393     -998.09115      891.86946      892.409        1667.7526      0             -4450.1222      0              0             -145.95148      94372.827      45.528393      45.528393      45.528393      0.88886649    -344.55264      25.799707     -1457.5405    
     20500   41000          254.00267     -32.536671      1779.0926      1823.9551      2724.9243     -900.96918      913.14155      900.66851      1718.0213      0             -4432.8005      0              0             -145.6872       94544.021      45.555906      45.555906      45.555906      0.88725699     517.45655     -505.39473     -109.67183    
     21000   42000          245.22269     -953.54425      370.82075      1693.2501      2630.7331     -937.48302      897.13001      929.22691      1659.262       0             -4423.102       0              0             -144.84374      95094.574      45.644163      45.644163      45.644163      0.88212019    -736.63382     -1223.4952     -900.50376    
     21500   43000          247.89981     -896.33896      450.47626      1695.8545      2659.4531     -963.59857      899.36225      895.25289      1678.3221      0             -4436.5358      0              0             -144.57805      95269.333      45.672106      45.672106      45.672106      0.88050206    -1019.8046     -796.62446     -872.5878     
     22000   44000          250.67706     -157.6492       1618.3254      1836.4437      2689.2473     -852.80357      936.69889      943.19506      1700.1477      0             -4432.8453      0              0             -145.18806      94869.055      45.608052      45.608052      45.608052      0.88421713     601.98315     -370.12817     -704.80259    
     22500   45000          247.413        444.3709       2319.7086      1711.2354      2654.2307     -942.99529      917.90213      879.13462      1720.2093      0             -4460.2413      0              0             -146.70182      93890.135      45.450638      45.450638      45.450638      0.89343618     274.4062       300.39285      758.31365    
     23000   46000          252.85345     -126.58306      1635.1049      1810.4168      2712.5955     -902.17869      921.40414      891.5766       1725.1886      0             -4440.3481      0              0             -145.04256      94964.224      45.623298      45.623298      45.623298      0.88333101     125.67179     -280.45139     -224.96957    
     23500   47000          246.58033     -313.045        1235.6036      1666.287       2645.2979     -979.01087      890.80102      892.29711      1696.8603      0             -4458.9693      0              0             -146.0091       94335.586      45.522403      45.522403      45.522403      0.88921739    -71.213732     -590.46883     -277.45243    
     24000   48000          248.24237     -368.75374      1197.6386      1708.5508      2663.1281     -954.57731      922.85917      891.16504      1688.5578      0             -4457.1593      0              0             -144.98449      95002.259      45.629388      45.629388      45.629388      0.88297736    -135.73502     -317.14241     -653.3838     
     24500   49000          253.97661      252.22895      2159.5834      1811.708       2724.6447     -912.93663      926.72688      916.33161      1698.2547      0             -4454.2498      0              0             -145.64734      94569.896      45.560062      45.560062      45.560062      0.88701423     1064.197      -533.69395      226.18378    
     25000   50000          251.70235      384.78483      2289.7258      1757.1472      2700.2465     -943.09927      906.12179      875.45213      1725.3983      0             -4450.0715      0              0             -145.13281      94905.171      45.613839      45.613839      45.613839      0.88388065     961.35997      36.590812      156.40372    
     25500   51000          250.14299     -533.10987      1071.4743      1812.0273      2683.5179     -871.49053      920.8441       909.58559      1709.6184      0             -4411.5386      0              0             -144.60787      95249.682      45.668966      45.668966      45.668966      0.88068371    -950.39193     -595.75798     -53.179681    
     26000   52000          251.01226     -751.30301      762.36971      1804.0892      2692.8433     -888.75418      934.11316      907.19107      1683.9523      0             -4414.0108      0              0             -144.87576      95073.559      45.6408        45.6408        45.6408        0.88231517    -1031.8804     -537.65769     -684.37093    
     26500   53000          249.16365      417.73394      2301.6447      1727.2169      2673.0115     -945.79461      903.76885      894.03308      1689.5786      0             -4433.1752      0              0             -146.08165      94288.735      45.514866      45.514866      45.514866      0.88965923     650.33173      345.55935      257.31072    
     27000   54000          250.6377       202.48342      2002.2893      1721.8186      2688.825      -967.00644      913.80193      877.41937      1655.742       0             -4413.9698      0              0             -145.02183      94977.794      45.625471      45.625471      45.625471      0.8832048      381.71918      62.617049      163.11403    
     27500   55000          252.05668      412.03864      2375.0098      1805.4523      2704.0477     -898.5954       907.77719      920.75158      1709.6945      0             -4436.8187      0              0             -145.32213      94781.534      45.594023      45.594023      45.594023      0.88503362    -241.01808      934.7935       542.34049    
     28000   56000          247.10399     -426.94672      1162.9121      1756.2271      2650.9156     -894.6885       917.23933      885.32542      1708.0341      0             -4405.2873      0              0             -144.55054      95287.462      45.675003      45.675003      45.675003      0.88033454    -895.52557     -689.50636      304.19176    
     28500   57000          252.252       -726.15471      893.69753      1906.669       2706.1432     -799.47414      922.28886      934.25577      1740.0159      0             -4396.0346      0              0             -144.00027      95651.587      45.733109      45.733109      45.733109      0.87698329    -831.8795      -760.87128     -585.71334    
     29000   58000          244.66308      547.23632      2518.9315      1760.8984      2624.7297     -863.83127      919.49275      906.85721      1739.7745      0             -4429.9557      0              0             -145.01673      94981.136      45.626006      45.626006      45.626006      0.88317372     331.56355      662.31475      647.83065    
     29500   59000          250.15108      2.1289648      1840.3594      1837.4186      2683.6046     -846.18603      935.28855      923.57503      1709.7573      0             -4414.8069      0              0             -145.42374      94715.305      45.5834        45.5834        45.5834        0.88565247    -153.80879     -334.32343      494.51911    
     30000   60000          256.94228     -39.188638      1778.8112      1832.8764      2756.4601     -923.58369      907.33307      898.59715      1693.9577      0             -4423.4716      0              0             -145.60407      94598.003      45.564575      45.564575      45.564575      0.88675068    -407.86843      598.57537     -308.27286    
     30500   61000          251.63798      152.92656      1981.4103      1768.7215      2699.556      -930.83451      910.02872      906.9678       1664.4099      0             -4412.2409      0              0             -144.43406      95364.31       45.687279      45.687279      45.687279      0.87962513    -204.56343      1080.8577     -417.51464    
     31000   62000          246.88583      4.577485       1759.4241      1753.1048      2648.5752     -895.47041      905.81603      899.26526      1728.8036      0             -4429.3553      0              0             -145.5099       94659.224      45.574402      45.574402      45.574402      0.88617717     354.42627     -363.3493       22.655486    
     31500   63000          245.40779     -215.18128      1415.2735      1712.3082      2632.719      -920.4108       892.66095      899.07022      1727.1867      0             -4439.3287      0              0             -145.52202      94651.342      45.573137      45.573137      45.573137      0.88625097    -697.18344     -268.05765      319.69724    
     32000   64000          248.63232     -98.595189      1620.8383      1756.7213      2667.3114     -910.59009      891.56563      944.45959      1699.4635      0             -4446.0788      0              0             -145.75451      94500.365      45.548893      45.548893      45.548893      0.88766687     227.69894     -363.13372     -160.35079    
     32500   65000          256.90548      679.17244      2766.4717      1832.6352      2756.0654     -923.43014      886.86446      920.86285      1715.6449      0             -4446.8023      0              0             -146.09676      94278.986      45.513297      45.513297      45.513297      0.88975123     754.42895      943.96917      339.11919    
     33000   66000          246.1928       382.44392      2297.2393      1769.386       2641.1404     -871.75444      893.40213      957.08116      1728.4579      0             -4450.6956      0              0             -145.54118      94638.881      45.571137      45.571137      45.571137      0.88636766    -118.97082      676.49364      589.80896    
     33500   67000          250.89185     -239.64255      1510.615       1842.9846      2691.5516     -848.56696      905.14311      925.78167      1741.5468      0             -4421.0386      0              0             -144.83514      95100.22       45.645066      45.645066      45.645066      0.88206782    -375.48828      839.0157      -1182.4551    
     34000   68000          252.26423      72.325067      1858.8224      1758.1261      2706.2743     -948.14827      871.97611      899.83777      1697.341       0             -4417.3031      0              0             -144.28016      95466.028      45.703517      45.703517      45.703517      0.8786879     -314.85645     -6.5093609      538.34101    
     34500   69000          247.939        120.64834      1943.8918      1777.218       2659.8736     -882.65558      893.33897      898.51912      1754.8128      0             -4429.3265      0              0             -145.40707      94726.163      45.585142      45.585142      45.585142      0.88555095     1144.226      -493.17254     -289.10841    
     35000   70000          255.17965      259.90222      2181.3615      1824.3613      2737.5508     -913.18953      893.49005      907.86729      1747.7188      0             -4462.2656      0              0             -146.24225      94185.191      45.498199      45.498199      45.498199      0.8906373      233.09011      298.41868      248.19788    
     35500   71000          242.5508       147.65805      1890.1295      1685.785       2602.0693     -916.2843       903.35211      902.79549      1692.8388      0             -4415.2707      0              0             -145.15289      94892.042      45.611736      45.611736      45.611736      0.88400293    -106.1014      -30.447817      579.52337    
     36000   72000          247.40282     -686.49216      820.76565      1771.5113      2654.1215     -882.61018      872.13227      925.64966      1749.8955      0             -4430.2876      0              0             -145.04494      94962.663      45.623048      45.623048      45.623048      0.88334552    -1073.5609     -865.84288     -120.07272    
     36500   73000          250.02125     -104.82081      1633.2197      1778.4769      2682.2118     -903.73491      908.0821       899.77133      1691.2822      0             -4402.8706      0              0             -144.95766      95019.843      45.632203      45.632203      45.632203      0.88281396    -101.78805      15.987512     -228.6619     
     37000   74000          247.68795     -452.28341      1130.4026      1755.0565      2657.1803     -902.12382      901.57257      902.92789      1744.4536      0             -4451.0779      0              0             -145.44625      94700.649      45.581049      45.581049      45.581049      0.88578953    -239.16195     -831.69044     -285.99783    
     37500   75000          257.45887     -11.923825      1891.4582      1907.8957      2762.0021     -854.10637      888.33584      944.49106      1741.1995      0             -4428.1328      0              0             -145.71688      94524.769      45.552814      45.552814      45.552814      0.8874377     -51.116351     -167.78007      183.12495    
     38000   76000          250.75871     -551.19511      978.10608      1737.1873      2690.1232     -952.93591      911.53097      909.20918      1663.1448      0             -4436.8209      0              0             -145.86411      94429.353      45.537481      45.537481      45.537481      0.88833441    -968.09582     -611.1088      -74.380701    
     38500   77000          251.7332       714.5551       2808.2496      1824.5143      2700.5775     -876.06321      901.44293      970.0378       1697.356       0             -4444.9         0              0             -145.91126      94398.84       45.532576      45.532576      45.532576      0.88862155     932.01023      630.81498      580.84009    
     39000   78000          244.60365      371.60739      2283.1395      1769.7048      2624.0922     -854.3874       940.37487      924.33923      1701.4072      0             -4420.5087      0              0             -145.38864      94738.174      45.587069      45.587069      45.587069      0.88543867     724.70957      237.46741      152.64519    
     39500   79000          248.48711     -679.64643      737.56434      1677.2221      2665.7537     -988.53162      897.80455      871.3276       1674.7503      0             -4432.4141      0              0             -145.29301      94800.53       45.597068      45.597068      45.597068      0.88485627    -1028.6831     -240.25486     -770.00132    
     40000   80000          250.29951     -201.79744      1491.0701      1770.0933      2685.1969     -915.10363      899.2802       914.46084      1695.3022      0             -4424.1469      0              0             -145.28031      94808.817      45.598397      45.598397      45.598397      0.88477893    -455.46927      248.62114     -398.5442     
     40500   81000          253.18466      605.68721      2538.6423      1704.2165      2716.1487     -1011.9322      857.52907      917.88215      1660.4019      0             -4447.7453      0              0             -145.81157      94463.379      45.54295       45.54295       45.54295       0.88801443     607.73324      102.74914      1106.5792    
     41000   82000          253.46488      445.95367      2410.8536      1794.3064      2719.1549     -924.8484       901.72223      922.00844      1697.7594      0             -4446.3384      0              0             -145.29638      94798.332      45.596716      45.596716      45.596716      0.88487679     856.52429      753.23966     -271.90296    
     41500   83000          249.83996     -99.837109      1699.5954      1839.3341      2680.2669     -840.93278      911.91036      903.29195      1737.3447      0             -4393.4797      0              0             -143.5181       95972.94       45.784267      45.784267      45.784267      0.87404683     230.59335     -651.02632      120.92164    
     42000   84000          245.98124     -357.99098      1255.7949      1749.9021      2638.8708     -888.9687       912.86384      905.65283      1714.9183      0             -4422.4037      0              0             -145.53995      94639.676      45.571265      45.571265      45.571265      0.88636021     95.38097      -830.58825     -338.76566    
     42500   85000          249.44005     -10.839367      1712.3027      1727.2074      2675.9767     -948.76937      911.30728      881.48706      1709.5287      0             -4451.0924      0              0             -146.08726      94285.112      45.514283      45.514283      45.514283      0.88969342     20.153256      41.305595     -93.976951    
     43000   86000          249.53429     -76.476836      1652.9647      1758.3937      2676.9878     -918.59409      886.84415      911.53748      1732.3058      0             -4449.2816      0              0             -145.71402      94526.624      45.553112      45.553112      45.553112      0.88742028     434.99146     -692.34058      27.918614    
     43500   87000          243.40407     -291.57541      1289.3049      1692.5663      2611.2232     -918.65684      889.68275      891.50211      1727.9611      0             -4427.8028      0              0             -145.24312      94833.091      45.602288      45.602288      45.602288      0.88455246    -241.67815     -544.95805     -88.090017    
     44000   88000          253.12736      13.105049      1801.2622      1783.2518      2715.534      -932.28222      873.31776      920.12522      1739.3157      0             -4465.0409      0              0             -146.16612      94234.247      45.506097      45.506097      45.506097      0.89017365    -568.19178      84.700238      522.80669    
     44500   89000          252.86686     -602.16389      996.85901      1831.3165      2712.7393     -881.42285      899.01824      919.1855       1709.351       0             -4408.9776      0              0             -144.95789      95019.69       45.632178      45.632178      45.632178      0.88281538    -570.13056     -665.27679     -571.08432    
     45000   90000          245.81018      656.00038      2635.6259      1726.7173      2637.0357     -910.31836      873.89101      917.99574      1723.3728      0             -4425.5779      0              0             -144.98239      95003.634      45.629608      45.629608      45.629608      0.88296457     509.20286      769.2927       689.50558    
     45500   91000          249.01296     -79.46725       1693.5399      1804.1242      2671.395      -867.27079      926.94781      903.38155      1707.2043      0             -4404.8045      0              0             -144.35317      95417.747      45.695811      45.695811      45.695811      0.87913251     128.94058     -239.42257     -127.91977    
     46000   92000          248.97443     -356.80608      1313.147       1806.3487      2670.9816     -864.6329       911.84786      898.11444      1754.9584      0             -4429.5536      0              0             -145.32458      94779.935      45.593766      45.593766      45.593766      0.88504854    -82.137021     -542.39146     -445.88975    
     46500   93000          248.36893      33.465959      1776.4332      1730.3447      2664.4858     -934.14105      879.25622      900.47068      1734.866       0             -4448.734       0              0             -145.86221      94430.583      45.537679      45.537679      45.537679      0.88832284     714.24208     -90.868781     -522.97542    
     47000   94000          249.36576      68.771456      1850.3289      1755.3513      2675.1798     -919.82842      905.64774      907.35136      1708.773       0             -4441.6005      0              0             -145.45166      94697.122      45.580483      45.580483      45.580483      0.88582253     82.502725      59.386915      64.424729    
     47500   95000          248.93737     -331.5147       1295.6246      1755.9106      2670.584      -914.67346      890.12563      928.95772      1673.3301      0             -4407.087       0              0             -144.6793       95202.662      45.66145       45.66145       45.66145       0.88111868    -78.353419     -612.95865     -303.23204    
     48000   96000          251.75424     -175.47199      1571.9219      1815.0283      2700.8032     -885.77494      893.27733      915.72338      1707.1545      0             -4401.9302      0              0             -144.99163      94997.583      45.628639      45.628639      45.628639      0.88302082    -159.03479      32.690131     -400.07132    
     48500   97000          255.86134      167.70434      1963.3365      1732.1215      2744.864      -1012.7425      872.30831      870.1443       1679.7097      0             -4434.9047      0              0             -145.70006      94535.676      45.554566      45.554566      45.554566      0.88733531     96.575842      5.5426462      400.99454    
     49000   98000          247.90662      172.96008      1945.3518      1706.7591      2659.5263     -952.76717      875.45466      923.67631      1679.5962      0             -4431.4943      0              0             -145.6197       94587.849      45.562944      45.562944      45.562944      0.88684588    -308.13922      92.900092      734.11938    
     49500   99000          247.32436      28.099188      1789.0002      1750.3578      2653.2797     -902.92189      887.5124       915.14228      1736.4435      0             -4442.0201      0              0             -146.07033      94296.039      45.516041      45.516041      45.516041      0.88959032     205.41482      3.7642675     -124.88152    
     50000   100000         244.91004     -519.25934      946.82772      1665.1633      2627.3791     -962.21577      881.81101      898.24464      1706.0025      0             -4448.2739      0              0             -145.20725      94856.517      45.606043      45.606043      45.606043      0.884334      -461.36502     -770.27354     -326.13947    
     50500   101000         247.24044     -732.02974      718.16131      1730.9012      2652.3795     -921.47829      876.25758      912.12489      1713.2442      0             -4423.105       0              0             -145.19852      94862.221      45.606957      45.606957      45.606957      0.88428083    -1487.6549     -620.2725      -88.161765    
     51000   102000         249.16437     -787.08209      666.82649      1761.8698      2673.0192     -911.14945      882.80959      908.57719      1709.8508      0             -4412.387       0              0             -144.38434      95397.144      45.692522      45.692522      45.692522      0.87932238    -428.71654     -1081.8294     -850.70037    
     51500   103000         253.49696      154.1239       1990.3952      1777.133       2719.499      -942.36596      869.20277      922.59702      1700.3977      0             -4434.5635      0              0             -145.17356      94878.527      45.60957       45.60957       45.60957       0.88412885     378.75152     -24.164086      107.78427    
     52000   104000         249.62444     -0.55734375     1801.1747      1801.9453      2677.9549     -876.00955      902.1042       925.30661      1726.8246      0             -4430.245       0              0             -145.28717      94804.339      45.597679      45.597679      45.597679      0.88482072     12.388444     -25.630524      11.570048    
     52500   105000         254.21157     -768.78494      681.91383      1743.3855      2727.1653     -983.77975      865.10892      897.6246       1692.8583      0             -4439.3716      0              0             -145.48822      94673.331      45.576666      45.576666      45.576666      0.88604512    -779.79903     -860.88493     -665.67085    
     53000   106000         254.3688      -95.887729      1695.4174      1828.2582      2728.8521     -900.59386      890.47491      898.46619      1726.2338      0             -4415.7687      0              0             -144.99834      94993.186      45.627935      45.627935      45.627935      0.88306169    -59.32124      -208.32579     -20.016159    
     53500   107000         246.33614      764.73402      2805.494       1744.5253      2642.6782     -898.15293      912.19824      928.45265      1665.0837      0             -4403.8876      0              0             -144.79021      95129.731      45.649787      45.649787      45.649787      0.88179419     99.135583      867.3665       1327.7       
     54000   108000         253.35502      116.68364      2018.4647      1856.6055      2717.9762     -861.37076      886.91015      944.62213      1718.8607      0             -4411.7638      0              0             -144.81177      95115.572      45.647522      45.647522      45.647522      0.88192545     249.856        233.86267     -133.66775    
     54500   109000         248.37441     -46.591854      1711.7097      1776.283       2664.5446     -888.26156      894.42833      943.77055      1716.8814      0             -4443.3419      0              0             -144.93995      95031.451      45.634061      45.634061      45.634061      0.88270612    -194.00074      335.04105     -280.81588    
     55000   110000         251.26927     -192.31815      1524.803       1792.2235      2695.6005     -903.37705      886.43311      919.90023      1686.3905      0             -4396.1009      0              0             -144.46313      95345.114      45.684213      45.684213      45.684213      0.87980223     498.69262     -888.24432     -187.40275    
     55500   111000         250.46553      195.52046      2027.6461      1757.8566      2686.9781     -929.12143      869.11965      907.28141      1723.9301      0             -4429.4525      0              0             -145.57896      94614.321      45.567195      45.567195      45.567195      0.88659775     727.81435      285.68423     -426.9372     
     56000   112000         250.36531     -312.87053      1317.7784      1751.1564      2685.9029     -934.74641      901.4365       917.2573       1661.187       0             -4414.6272      0              0             -145.02041      94978.729      45.625621      45.625621      45.625621      0.8831961     -806.3309      -272.57447      140.2938     
     56500   113000         252.11073      62.025752      1880.8822      1795.1492      2704.6276     -909.47845      888.65079      928.37936      1692.7534      0             -4419.262       0              0             -145.33001      94776.389      45.593198      45.593198      45.593198      0.88508165    -334.24727      412.73053      107.594      
     57000   114000         251.80585     -361.64206      1193.7014      1694.5107      2701.3569     -1006.8462      873.57049      880.68102      1680.6773      0             -4441.7751      0              0             -145.05673      94954.943      45.621812      45.621812      45.621812      0.88341734     324.91411     -985.32418     -424.51611    
     57500   115000         249.96408     -267.44381      1367.3283      1736.1372      2681.5985     -945.46129      918.01947      867.66167      1723.3574      0             -4454.4998      0              0             -145.66745      94556.841      45.557965      45.557965      45.557965      0.8871367      7.7538731     -496.03499     -314.05031    
     58000   116000         252.37882      243.24006      2101.2732      1767.0706      2707.5036     -940.43306      898.07394      924.02772      1705.697       0             -4468.2317      0              0             -146.2031       94210.41       45.50226       45.50226       45.50226       0.89039888     640.56551      570.28182     -481.12714    
     58500   117000         250.32697      64.855258      1805.2257      1715.752       2685.4915     -969.73956      890.90964      895.82704      1688.561       0             -4445.0372      0              0             -145.60661      94596.353      45.56431       45.56431       45.56431       0.88676615    -196.09492      110.01238      280.64832    
     59000   118000         253.03061     -443.70524      1166.9831      1781.2667      2714.496      -933.22936      889.44237      909.27014      1705.0442      0             -4436.9861      0              0             -145.09653      94928.901      45.61764       45.61764       45.61764       0.8836597     -248.01338     -1087.3272      4.2248867    
     59500   119000         250.79719      607.3957       2596.4371      1761.5456      2690.5361     -928.99053      909.59972      934.01755      1684.4868      0             -4457.0946      0              0             -146.14131      94250.242      45.508672      45.508672      45.508672      0.89002258     632.67132      757.38356      432.13223    
     60000   120000         246.40066     -88.010018      1521.2061      1642.9195      2643.3704     -1000.4509      873.88915      907.7766       1659.9173      0             -4442.0339      0              0             -145.25298      94826.656      45.601257      45.601257      45.601257      0.88461248     535.12781     -277.41624     -521.74162    
     60500   121000         251.47741     -234.28208      1390.115       1711.6585      2697.8334     -986.17486      896.89389      893.16748      1711.7895      0             -4488.0257      0              0             -146.3628       94107.612      45.485704      45.485704      45.485704      0.8913715     -133.92186      234.59601     -803.5204     
     61000   122000         249.78576     -164.23212      1507.7284      1733.7384      2679.6855     -945.9471       887.90664      904.31747      1718.5859      0             -4456.7571      0              0             -145.96937      94361.261      45.526533      45.526533      45.526533      0.88897544    -156.6436      -727.51646      391.46369    
     61500   123000         249.98947     -699.51122      804.44836      1763.8755      2681.8708     -917.9953       909.21358      922.14519      1735.1001      0             -4484.4541      0              0             -146.45832      94046.24       45.475814      45.475814      45.475814      0.89195318    -444.90027     -805.87036     -847.76302    
     62000   124000         247.17703      295.58143      2041.2945      1634.6612      2651.6992     -1017.038       884.15779      867.96148      1698.2086      0             -4467.3659      0              0             -146.01772      94330.015      45.521507      45.521507      45.521507      0.8892699      546.49853      439.67292     -99.427172    
     62500   125000         253.74115     -49.330259      1672.806       1740.7317      2722.1187     -981.387        885.5311       899.70208      1682.4845      0             -4449.1047      0              0             -145.88495      94415.866      45.535313      45.535313      45.535313      0.8884613     -156.80797     -740.85824      749.67543    
     63000   126000         244.78006     -354.99562      1198.3593      1686.4276      2625.9846     -939.55701      904.93205      934.38299      1682.8249      0             -4461.6969      0              0             -146.10791      94271.789      45.512139      45.512139      45.512139      0.88981916    -334.22987     -158.18457     -572.57242    
     63500   127000         251.26472     -34.720077      1613.1248      1661.0671      2695.5517     -1034.4846      884.97364      870.73216      1660.2426      0             -4450.433       0              0             -145.47665      94680.861      45.577874      45.577874      45.577874      0.88597466     223.55046      12.24884      -339.95953    
     64000   128000         250.85226      353.02461      2251.0098      1765.8048      2691.1268     -925.32198      928.84426      922.3102       1670.0195      0             -4446.496       0              0             -146.15413      94241.977      45.507341      45.507341      45.507341      0.89010063     524.45706      132.15065      402.46611    
     64500   129000         253.66269     -525.63795      999.0653       1724.294       2721.2769     -996.98287      907.50899      898.2937       1661.6811      0             -4464.4666      0              0             -145.59386      94604.632      45.565639      45.565639      45.565639      0.88668854     4.172729      -939.81295     -641.27364    
     65000   130000         242.72099      265.22614      2019.371       1652.1546      2603.895      -951.74045      879.87745      898.80367      1711.0519      0             -4441.4734      0              0             -145.08603      94935.771      45.618741      45.618741      45.618741      0.88359575    -101.28985      510.98266      385.98562    
     65500   131000         249.43621      127.39861      1896.5413      1720.8118      2675.9355     -955.12373      917.44122      904.77898      1671.7887      0             -4449.1327      0              0             -145.63015      94581.063      45.561855      45.561855      45.561855      0.8869095      405.04526      453.86391     -476.71335    
     66000   132000         255.38904      413.29974      2358.5326      1790.1706      2739.7971     -949.62656      890.42441      906.89412      1694.3238      0             -4441.2688      0              0             -146.07349      94294.001      45.515714      45.515714      45.515714      0.88960954     56.055199      1162.4595      21.384544    
     66500   133000         249.8773       17.866387      1802.4903      1777.671       2680.6675     -902.99645      933.15981      897.579        1685.7072      0             -4419.4424      0              0             -144.60352      95252.547      45.669424      45.669424      45.669424      0.88065722    -149.37685     -363.22882      566.20484    
     67000   134000         246.51722     -10.631873      1595.7229      1610.4188      2644.6208     -1034.202       870.68357      873.99371      1671.8488      0             -4450.7281      0              0             -145.32632      94778.795      45.593584      45.593584      45.593584      0.88505919    -18.343299      338.1332      -351.68551    
     67500   135000         251.85572      115.97832      1944.6572      1784.6838      2701.8919     -917.20814      926.65147      881.77002      1730.2139      0             -4455.8435      0              0             -145.63321      94579.074      45.561536      45.561536      45.561536      0.88692815     226.19777      169.61937     -47.882187    
     68000   136000         251.48043      677.92646      2672.4605      1739.371       2697.8658     -958.49477      909.58671      897.14897      1689.6406      0             -4454.8711      0              0             -145.94548      94376.711      45.529018      45.529018      45.529018      0.88882991    -67.138116      1124.9581      975.95934    
     68500   137000         249.75289     -3.8208221      1739.4514      1744.7193      2679.3328     -934.61353      936.20057      894.51698      1695.4153      0             -4460.7464      0              0             -145.69869      94536.57       45.554709      45.554709      45.554709      0.88732693    -379.81689      117.71263      250.64179    
     69000   138000         249.47731     -312.57139      1262.8374      1693.5722      2676.3765     -982.80432      884.23286      886.03393      1699.0443      0             -4452.1154      0              0             -145.77084      94489.779      45.547192      45.547192      45.547192      0.88776632     142.61538     -552.17432     -528.15522    
     69500   139000         247.75369      24.839805      1665.2414      1631.0983      2657.8856     -1026.7873      912.27455      859.34565      1671.1466      0             -4469.5541      0              0             -146.14265      94249.376      45.508532      45.508532      45.508532      0.89003076    -515.0204      -185.01703      774.55685    
     70000   140000         253.51491     -250.03184      1455.4111      1800.5299      2719.6915     -919.16158      907.05095      926.48596      1708.2702      0             -4460.9687      0              0             -145.53185      94644.943      45.57211       45.57211       45.57211       0.88631089     119.89903     -352.73608     -517.25848    
     70500   141000         251.29889     -543.94235      964.31204      1720.2255      2695.9183     -975.69275      896.69062      893.69159      1669.7003      0             -4435.7753      0              0             -144.54802      95289.122      45.675269      45.675269      45.675269      0.88031919     15.535267     -829.76975     -817.59255    
     71000   142000         253.46798      836.30268      2918.4463      1772.1739      2719.1881     -947.01421      929.34331      879.65346      1707.1162      0             -4463.1272      0              0             -146.55715      93982.819      45.465589      45.465589      45.465589      0.89255509     707.21474      874.1777       927.51561    
     71500   143000         246.65973     -38.277426      1603.057       1655.8636      2646.1496     -990.28599      920.03476      860.15699      1681.6349      0             -4452.1126      0              0             -145.608        94595.449      45.564165      45.564165      45.564165      0.88677463    -192.55919      3.1237608      74.603148    
     72000   144000         247.74883     -207.93219      1396.129       1682.6918      2657.8334     -975.14166      930.75304      925.09805      1632.3599      0             -4463.3527      0              0             -145.75832      94497.894      45.548496      45.548496      45.548496      0.88769008    -95.187555     -440.30305     -88.305982    
     72500   145000         251.25902     -345.26603      1296.7961      1771.3003      2695.4906     -924.19024      928.43516      952.57909      1667.3722      0             -4472.5767      0              0             -146.16558      94234.595      45.506153      45.506153      45.506153      0.89017036    -91.973049     -312.51927     -631.30578    
     73000   146000         250.75761     -381.29878      1196.0541      1723.1632      2690.1114     -966.94818      917.883        899.38294      1655.6031      0             -4439.8172      0              0             -145.31025      94789.283      45.595265      45.595265      45.595265      0.88496126    -52.319779     -761.13926     -330.43731    
     73500   147000         248.66801      60.091137      1780.8702      1698.6459      2667.6944     -969.04852      916.52379      921.02216      1678.3116      0             -4484.9061      0              0             -146.80519      93824.028      45.439969      45.439969      45.439969      0.89406568    -344.68044      353.54577      171.40808    
     74000   148000         247.58353      121.47134      1852.2305      1684.1895      2656.0602     -971.8706       909.45148      901.08526      1664.3975      0             -4446.8049      0              0             -145.20783      94856.135      45.605982      45.605982      45.605982      0.88433756     193.12965      355.63734     -184.35297    
     74500   149000         251.30816     -563.36258      976.16597      1751.5875      2696.0177     -944.43022      933.26802      893.46641      1678.483       0             -4449.6477      0              0             -145.94241      94378.697      45.529337      45.529337      45.529337      0.88881121    -465.54913     -292.25205     -932.28656    
     75000   150000         251.73517      64.516932      1783.8679      1695.0596      2700.5986     -1005.539       927.61602      883.82526      1630.8958      0             -4447.876       0              0             -145.93235      94385.2        45.530383      45.530383      45.530383      0.88874997     415.08761     -706.91341      485.3766     
     75500   151000         248.76605      83.117743      1828.1041      1714.1146      2668.7462     -954.63158      912.86072      912.07158      1687.7945      0             -4467.3583      0              0             -146.47393      94036.213      45.474198      45.474198      45.474198      0.89204829     86.008072      366.2938      -202.94864    
     76000   152000         246.56916     -181.29225      1409.5847      1662.1086      2645.178      -983.06935      915.50827      898.82187      1645.4022      0             -4442.8017      0              0             -144.21419      95509.697      45.710484      45.710484      45.710484      0.87828614    -297.95649     -809.01417      563.09391    
     76500   153000         254.62752     -538.05692      1051.524       1795.639       2731.6275     -935.9886       934.64242      891.99298      1702.9175      0             -4465.5415      0              0             -145.25113      94827.859      45.60145       45.60145       45.60145       0.88460126    -501.31736     -825.77978     -287.07361    
     77000   154000         251.93986     -514.82857      1028.2166      1740.8133      2702.7946     -961.98127      916.52617      901.02118      1678.9718      0             -4458.5004      0              0             -145.12766      94908.538      45.614378      45.614378      45.614378      0.88384929     36.152481     -422.25399     -1158.3842    
     77500   155000         246.38994     -11.192247      1672.6442      1687.9956      2643.2553     -955.25971      931.73616      929.35502      1654.0489      0             -4470.3998      0              0             -146.45386      94049.104      45.476275      45.476275      45.476275      0.89192603    -194.87914      346.70004     -185.39764    
     78000   156000         250.14846      106.5795       1820.3612      1674.2288      2683.5765     -1009.3477      925.06363      879.30268      1660.4228      0             -4474.1368      0              0             -146.50707      94014.942      45.470768      45.470768      45.470768      0.89225012     195.95382      496.59868     -372.81399    
     78500   157000         250.02348     -160.76787      1460.0254      1680.8111      2682.2357     -1001.4246      903.45088      897.61106      1690.2609      0             -4492.7474      0              0             -146.27148      94166.371      45.495168      45.495168      45.495168      0.8908153     -33.895399     -740.09287      291.68468    
     79000   158000         248.42523      453.38919      2358.6335      1734.3043      2665.0898     -930.78548      934.37326      892.82065      1693.9696      0             -4451.949       0              0             -145.8777       94420.561      45.536068      45.536068      45.536068      0.88841713     325.14002      194.8095       840.21803    
     79500   159000         253.54141     -376.16857      1264.0073      1785.8948      2719.9759     -934.08103      965.9666       856.58183      1686.5808      0             -4443.2103      0              0             -144.78947      95130.222      45.649866      45.649866      45.649866      0.88178963    -346.7103      -256.0403      -525.7551     
     80000   160000         248.36014      21.868198      1781.5731      1751.4518      2664.3916     -912.93979      928.60159      911.90789      1713.7266      0             -4467.1759      0              0             -145.83765      94446.486      45.540235      45.540235      45.540235      0.88817326     195.22963     -436.09926      306.47422    
     80500   161000         248.06701     -826.63505      550.86461      1694.322       2661.2468     -966.92483      916.25843      896.57837      1680.1498      0             -4459.9114      0              0             -145.21959      94848.46       45.604752      45.604752      45.604752      0.88440913    -1159.0971     -505.69703     -815.11103    
     81000   162000         253.95749      294.8359       2207.3242      1799.4534      2724.4396     -924.9862       936.61312      914.57903      1663.8189      0             -4439.9973      0              0             -145.20751      94856.348      45.606016      45.606016      45.606016      0.88433558     101.21701     -41.723207      825.01389    
     81500   163000         247.81598     -578.60838      857.72531      1658.9361      2658.5538     -999.61768      903.5946       897.51631      1635.7111      0             -4436.4397      0              0             -145.06722      94948.078      45.620712      45.620712      45.620712      0.88348122    -728.28479     -397.80082     -609.73951    
     82000   164000         253.35593      285.88362      2102.4087      1707.7059      2717.986      -1010.2801      890.88521      931.56859      1637.6826      0             -4470.4166      0              0             -145.49578      94668.408      45.575876      45.575876      45.575876      0.8860912      58.115509      587.94046      211.59489    
     82500   165000         253.92107      25.625031      1840.2187      1804.7856      2724.0488     -919.26319      920.01392      911.48656      1683.0212      0             -4433.7848      0              0             -145.27371      94813.125      45.599088      45.599088      45.599088      0.88473873     243.85326      430.28172     -597.25989    
     83000   166000         251.21047      28.684936      1821.6339      1782.0692      2694.9697     -912.9005       939.0764       906.95681      1691.3162      0             -4450.2499      0              0             -145.63868      94575.524      45.560965      45.560965      45.560965      0.88696145    -147.25075     -551.08417      784.38973    
     83500   167000         250.9271      -27.644056      1721.269       1759.565       2691.9297     -932.3647       946.24632      907.3797       1673.6631      0             -4459.6538      0              0             -145.00387      94989.563      45.627355      45.627355      45.627355      0.88309537    -493.75963     -177.66106      588.48852    
     84000   168000         248.21752      33.50334       1797.6388      1751.3668      2662.8615     -911.49472      916.31468      942.55673      1689.2857      0             -4459.6518      0              0             -145.44588      94700.889      45.581088      45.581088      45.581088      0.88578729     140.66253     -229.07764      188.92514    
     84500   169000         253.99783      266.49543      2188.8375      1820.1655      2724.8723     -904.70677      923.33088      931.37258      1671.1829      0             -4430.5931      0              0             -145.20481      94858.11       45.606298      45.606298      45.606298      0.88431915    -146.78119      269.22111      677.04637    
     85000   170000         248.71362     -631.13262      751.23548      1621.2434      2668.1837     -1046.9403      898.70423      892.11527      1642.9652      0             -4480.7251      0              0             -145.72324      94520.644      45.552151      45.552151      45.552151      0.88747643    -833.75001     -188.92445     -870.72342    
     85500   171000         253.60115     -475.63695      1088.6393      1744.5744      2720.6167     -976.04237      874.07073      927.81342      1662.224       0             -4440.1505      0              0             -145.66193      94560.422      45.55854       45.55854       45.55854       0.8871031     -868.70115     -514.97853     -43.231175    
     86000   172000         253.4948      -227.70359      1502.6724      1816.8923      2719.4758     -902.58353      933.7614       898.7383       1711.0624      0             -4446.1457      0              0             -145.56859      94621.06       45.568277      45.568277      45.568277      0.8865346     -129.41698     -321.75373     -231.94006    
     86500   173000         251.5299      -307.41017      1391.0569      1813.2385      2698.3965     -885.15799      930.67598      926.4095       1725.0925      0             -4467.336       0              0             -146.26833      94168.395      45.495494      45.495494      45.495494      0.89079615    -365.8851      -80.434273     -475.91114    
     87000   174000         248.25871      274.99599      2134.1941      1754.9644      2663.3034     -908.33901      921.57989      902.88986      1712.5843      0             -4445.3931      0              0             -145.66503      94558.41       45.558217      45.558217      45.558217      0.88712197    -67.887133      545.38366      347.49144    
     87500   175000         244.33384     -293.44462      1240.2216      1645.2845      2621.1976     -975.91307      901.88015      877.24296      1692.3148      0             -4447.351       0              0             -145.52414      94649.961      45.572916      45.572916      45.572916      0.8862639     -823.15388     -142.43717      85.257197    
     88000   176000         244.94361     -180.07647      1461.179       1708.1897      2627.7392     -919.54953      942.22818      896.93064      1708.5744      0             -4467.2827      0              0             -146.44431      94055.235      45.477264      45.477264      45.477264      0.89186788    -403.75496      253.72489     -390.19935    
     88500   177000         248.37092      628.21643      2598.8423      1739.5129      2664.5072     -924.99427      937.62228      877.75915      1735.0588      0             -4475.4345      0              0             -146.85238      93793.879      45.435101      45.435101      45.435101      0.89435307     55.11502       612.34949      1217.1848    
     89000   178000         244.41403     -239.14472      1354.4115      1686.4593      2622.058      -935.59862      918.72328      917.13907      1677.1934      0             -4448.6544      0              0             -144.67433      95205.931      45.661972      45.661972      45.661972      0.88108843    -312.48093     -390.05809     -14.89515     
     89500   179000         254.52755     -9.053913       1754.1992      1766.6617      2730.5551     -963.8934       935.22939      874.21276      1690.6841      0             -4464.0197      0              0             -145.93607      94382.791      45.529995      45.529995      45.529995      0.88877266    -685.86258      202.84116      455.85969    
     90000   180000         256.22598      243.82587      2198.7558      1863.7829      2748.7758     -884.9929       924.75717      926.7607       1722.4506      0             -4458.9613      0              0             -146.21822      94200.671      45.500692      45.500692      45.500692      0.89049093     849.39634     -171.37781      53.459087    
     90500   181000         253.90191     -74.20892       1655.2321      1757.2159      2723.8433     -966.62743      893.76764      895.65981      1709.9031      0             -4465.958       0              0             -146.16939      94232.137      45.505757      45.505757      45.505757      0.89019358    -439.98785     -147.29083      364.65192    
     91000   182000         248.07927      49.214029      1734.6413      1666.8008      2661.3783     -994.5775       895.93074      901.62377      1680.3054      0             -4472.4374      0              0             -145.72425      94519.985      45.552045      45.552045      45.552045      0.88748262     163.83415     -131.0212       114.82914    
     91500   183000         254.62383      753.71073      2810.1605      1769.6503      2731.588      -961.93767      904.73977      905.75021      1669.0073      0             -4441.435       0              0             -145.50896      94659.832      45.5745        45.5745        45.5745        0.88617148     185.24826      1146.383       929.50096    
     92000   184000         253.81738      371.41383      2280.9742      1767.3032      2722.9364     -955.63319      907.62668      933.87037      1660.0911      0             -4457.2213      0              0             -145.24608      94831.159      45.601979      45.601979      45.601979      0.88457048     607.48119     -26.017849      532.77813    
     92500   185000         255.89746     -304.41152      1327.0473      1745.5033      2745.2514     -999.74815      915.93208      885.69388      1659.194       0             -4460.5681      0              0             -146.1311       94256.825      45.509731      45.509731      45.509731      0.88996042    -677.34732     -484.15157      248.26434    
     93000   186000         246.51217      276.64844      2078.1945      1698.5154      2644.5666     -946.05128      925.40015      893.79012      1708.8644      0             -4474.106       0              0             -146.36688      94104.993      45.485282      45.485282      45.485282      0.89139631     336.94463      749.88291     -256.88222    
     93500   187000         250.76944     -659.55645      839.08945      1742.4922      2690.2384     -947.74616      911.92004      903.41042      1715.2136      0             -4478.2903      0              0             -146.6567       93919.021      45.455299      45.455299      45.455299      0.89316139    -336.15041     -1289.9533     -352.56569    
     94000   188000         254.01276     -137.27437      1500.0504      1688.59        2725.0325     -1036.4425      902.88947      856.03549      1685.1665      0             -4480.5339      0              0             -146.25756      94175.329      45.496611      45.496611      45.496611      0.89073056    -208.55681      89.250991     -292.51728    
     94500   189000         248.25814     -584.8834       992.84063      1800.2612      2663.2973     -863.03606      924.22727      933.38905      1721.7751      0             -4442.4275      0              0             -145.51268      94657.413      45.574112      45.574112      45.574112      0.88619413    -337.11496     -378.39931     -1039.1359    
     95000   190000         259.30805      197.80951      2144.1694      1872.3037      2781.84       -909.53635      927.83991      905.9402       1727.8299      0             -4471.1464      0              0             -146.15852      94239.142      45.506885      45.506885      45.506885      0.89012741    -19.928072      774.00032     -160.64372    
     95500   191000         249.42961      3.0655069      1709.8875      1705.6708      2675.8648     -970.19393      913.97719      875.70391      1702.6949      0             -4462.57        0              0             -146.03862      94316.516      45.519336      45.519336      45.519336      0.88939718    -337.8896      -119.25753      466.34365    
     96000   192000         251.72037     -696.8984       746.3967       1706.2493      2700.4398     -994.19058      894.36175      870.71435      1696.2876      0             -4455.5543      0              0             -145.8466       94440.694      45.539304      45.539304      45.539304      0.88822773    -439.93437     -706.91008     -943.85075    
     96500   193000         254.20132      346.86841      2252.1169      1778.2456      2727.0554     -948.8098       925.78777      879.02285      1732.99        0             -4486.6104      0              0             -147.04007      93674.156      45.415761      45.415761      45.415761      0.89549613     194.1294       462.51669      383.95914    
     97000   194000         248.37733      378.30252      2225.1805      1707.0071      2664.576      -957.56887      912.79722      907.52341      1690.7665      0             -4468.656       0              0             -146.65451      93920.423      45.455525      45.455525      45.455525      0.89314806    -123.72677      280.98405      977.65027    
     97500   195000         250.67665     -144.29609      1463.6167      1662.0701      2689.2429     -1027.1727      906.41343      884.21021      1659.5115      0             -4477.3079      0              0             -146.05864      94303.586      45.517256      45.517256      45.517256      0.88951912    -224.63185      3.3387024     -211.59512    
     98000   196000         241.5749      -629.34069      774.30031      1647.7416      2591.5999     -943.8583       895.97033      931.67719      1669.5967      0             -4441.1025      0              0             -144.7383       95163.85       45.655244      45.655244      45.655244      0.88147803    -213.25213     -758.41957     -916.35037    
     98500   197000         247.28342     -13.005114      1732.7292      1750.6054      2652.8405     -902.23512      956.9253       901.36188      1705.8272      0             -4466.3495      0              0             -146.14014      94250.996      45.508793      45.508793      45.508793      0.89001546     349.66361     -588.02299      199.34404    
     99000   198000         246.80362     -401.05842      1094.8997      1646.8982      2647.6933     -1000.7951      875.4185       917.39853      1686.7327      0             -4480.3448      0              0             -145.94902      94374.422      45.52865       45.52865       45.52865       0.88885147    -316.30973     -1182.1112      295.24571    
     99500   199000         250.21317     -39.505773      1602.1095      1656.6013      2684.2707     -1027.6694      887.82969      860.49277      1682.6898      0             -4458.6816      0              0             -145.63317      94579.099      45.56154       45.56154       45.56154       0.88692792    -6.5633132     -336.22306      224.26905    
    100000   200000         254.16603      197.72315      2035.2488      1763.087       2726.6768     -963.58972      908.85105      911.56987      1704.816       0             -4488.8267      0              0             -145.9358       94382.97       45.530024      45.530024      45.530024      0.88877097     351.29963      9.9834274      231.88639    
    100500   201000         250.88206      62.336951      1824.1758      1738.3909      2691.4465     -953.05557      889.60801      950.66151      1676.3103      0             -4469.6354      0              0             -145.97091      94360.269      45.526373      45.526373      45.526373      0.88898479    -330.37078      794.2973      -276.91566    
    101000   202000         245.48019      19.892422      1699.2491      1671.8591      2633.4956     -961.63647      936.86701      881.11864      1684.9421      0             -4464.5642      0              0             -145.89071      94412.138      45.534714      45.534714      45.534714      0.88849638     138.7346       443.60027     -522.6576     
    101500   203000         249.23133      694.96608      2705.4788      1751.7867      2673.7376     -921.95091      939.08181      906.90228      1704.1102      0             -4472.0452      0              0             -146.3817       94095.466      45.483747      45.483747      45.483747      0.89148656     721.80838      1119.7732      243.31669    
    102000   204000         256.32519      259.76513      2088.465       1729.9014      2749.84       -1019.9387      882.09641      888.96544      1675.0951      0             -4466.0956      0              0             -145.52779      94647.584      45.572534      45.572534      45.572534      0.88628616     545.95334      414.69855     -181.35651    
    102500   205000         244.10212     -300.6717       1208.9957      1623.5297      2618.7118     -995.18209      912.15225      876.95182      1682.4107      0             -4466.6968      0              0             -145.70143      94534.787      45.554423      45.554423      45.554423      0.88734366    -156.4202      -366.02394     -379.57097    
    103000   206000         251.80881     -48.415965      1687.9706      1754.8405      2701.3886     -946.54814      915.74229      896.55898      1693.7719      0             -4452.6213      0              0             -145.44192      94703.464      45.581501      45.581501      45.581501      0.8857632      366.69696     -412.40081     -99.544043    
    103500   207000         251.96958      377.04909      2239.7414      1720.4165      2703.1134     -982.69689      910.94715      874.25791      1683.564       0             -4451.4659      0              0             -145.84452      94442.041      45.539521      45.539521      45.539521      0.88821506    -335.05566      371.58371      1094.6192    
    104000   208000         254.27124      239.49411      2083.1493      1755.8971      2727.8054     -971.90831      918.90931      871.67517      1711.73        0             -4474.2228      0              0             -147.0089       93694.013      45.41897       45.41897       45.41897       0.89530634     266.08019      155.28994      297.1122     
    104500   209000         251.58466     -120.35921      1621.0127      1786.5236      2698.984      -912.46039      926.66973      915.52176      1711.5249      0             -4466.1767      0              0             -146.07774      94291.259      45.515272      45.515272      45.515272      0.88963542    -604.77694     -519.8205       763.51983    
    105000   210000         251.17882      24.393912      1739.1848      1705.4557      2694.6302     -989.17444      889.62973      871.7089       1699.1405      0             -4449.6536      0              0             -145.28089      94808.435      45.598336      45.598336      45.598336      0.8847825     -36.385001     -84.065101      193.63184    
    105500   211000         245.2254       385.77519      2300.3951      1766.8272      2630.7622     -863.93504      941.81756      914.0784       1700.021       0             -4419.852       0              0             -145.23656      94837.377      45.602975      45.602975      45.602975      0.88451248     419.35041      277.73395      460.24122    
    106000   212000         244.13276      125.01835      1852.2027      1679.4985      2619.0405     -939.54196      924.68949      906.86302      1674.8849      0             -4445.9794      0              0             -145.41268      94722.507      45.584556      45.584556      45.584556      0.88558513     228.49828     -372.39781      518.95459    
    106500   213000         252.09908      493.26706      2460.3379      1779.2813      2704.5027     -925.22139      921.80084      903.97524      1678.6053      0             -4429.6028      0              0             -145.48902      94672.805      45.576582      45.576582      45.576582      0.88605005     263.1866       887.13516      329.47944    
    107000   214000         252.7761       734.04886      2696.5556      1686.4542      2711.7656     -1025.3114      910.88763      869.87677      1643.8953      0             -4449.9711      0              0             -145.97933      94354.827      45.525498      45.525498      45.525498      0.88903606     754.03342      971.91581      476.19735    
    107500   215000         253.06018      164.90449      2006.1827      1778.0187      2714.8132     -936.79455      937.29794      900.73931      1666.6748      0             -4441.5066      0              0             -145.1833       94872.165      45.60855       45.60855       45.60855       0.88418815     363.33929      239.26131     -107.88713    
    108000   216000         250.30575      51.187959      1738.5773      1667.7116      2685.264      -1017.5523      894.14147      863.86769      1661.8397      0             -4437.4012      0              0             -145.09871      94927.475      45.617412      45.617412      45.617412      0.88367297     134.88644      147.66152     -128.98408    
    108500   217000         247.90584     -274.74914      1359.6981      1739.5598      2659.5178     -919.95806      933.93314      915.85146      1672.38        0             -4442.1227      0              0             -145.29218      94801.072      45.597155      45.597155      45.597155      0.88485121     4.2350613     -969.32928      140.8468     
    109000   218000         250.53894     -306.81213      1353.1306      1776.976       2687.7656     -910.78953      922.17606      890.29111      1715.7864      0             -4439.0431      0              0             -145.4107       94723.798      45.584763      45.584763      45.584763      0.88557306     491.26462     -139.73204     -1271.969     
    109500   219000         243.90935     -429.94469      1018.0775      1610.9467      2616.6438     -1005.697       909.63373      881.9229       1662.5969      0             -4459.8506      0              0             -145.675        94551.942      45.557178      45.557178      45.557178      0.88718267    -618.17011     -115.53756     -556.12638    
    110000   220000         250.38        -422.13684      1195.676       1775.396       2686.0604     -910.66442      929.09209      904.36515      1728.0555      0             -4472.1772      0              0             -146.27372      94164.927      45.494936      45.494936      45.494936      0.89082896    -1158.9842     -59.145762     -48.280583    
    110500   221000         250.70079     -162.83014      1452.9379      1676.3779      2689.5018     -1013.1239      905.41408      882.54617      1673.1442      0             -4474.2284      0              0             -146.38791      94091.471      45.483103      45.483103      45.483103      0.89152441     628.41364     -478.72896     -638.17509    
    111000   222000         249.76522      182.21527      1971.9904      1721.538       2679.4651     -957.92715      890.74748      938.70435      1662.9285      0             -4450.3075      0              0             -146.14731      94246.374      45.508049      45.508049      45.508049      0.89005911     230.88657     -359.12421      674.88345    
    111500   223000         248.07869      67.046387      1850.2382      1757.781       2661.3721     -903.59114      920.55822      891.20668      1697.0746      0             -4412.4307      0              0             -145.66858      94556.106      45.557847      45.557847      45.557847      0.88714359    -6.8103474      433.17965     -225.23014    
    112000   224000         248.63728      82.455857      1808.7619      1695.0577      2667.3647     -972.30698      913.7935       879.22185      1675.3624      0             -4440.6847      0              0             -145.672        94553.886      45.557491      45.557491      45.557491      0.88716442     410.9738       392.18253     -555.78876    
    112500   225000         252.48943     -443.66373      1165.7268      1779.6377      2708.6903     -929.05255      936.02102      897.12772      1665.4077      0             -4427.6089      0              0             -145.17101      94880.195      45.609837      45.609837      45.609837      0.88411331    -801.74044      59.392415     -588.64317    
    113000   226000         246.26923     -602.77187      765.70378      1599.2181      2641.9604     -1042.7423      900.40974      872.29016      1638.3245      0             -4453.7666      0              0             -145.26844      94816.562      45.599639      45.599639      45.599639      0.88470666    -1243.2542      15.289212     -580.35061    
    113500   227000         252.44347     -245.33998      1414.594       1752.8357      2708.1973     -955.36159      911.47982      902.69262      1702.7226      0             -4472.2566      0              0             -145.70436      94532.888      45.554118      45.554118      45.554118      0.88736148    -215.6399      -133.10654     -387.2735     
    114000   228000         243.19495      98.829347      1788.2475      1651.6931      2608.9797     -957.28666      945.73199      886.04842      1656.0878      0             -4445.1548      0              0             -145.38232      94742.291      45.587729      45.587729      45.587729      0.8854002     -526.80116      254.16558      569.12362    
    114500   229000         247.15179      106.57677      1821.2711      1674.2221      2651.4284     -977.20624      932.46844      890.45313      1665.5219      0             -4465.6497      0              0             -145.59016      94607.039      45.566026      45.566026      45.566026      0.88666599     1041.5129      323.95815     -1045.7407    
    115000   230000         254.11584      24.635393      1834.9155      1800.9715      2726.1384     -925.16687      947.76572      894.57875      1680.4398      0             -4447.9512      0              0             -145.78979      94477.495      45.545218      45.545218      45.545218      0.88788175    -568.77713      644.38147     -1.698164     
    115500   231000         250.71354     -209.31125      1405.5374      1694.8219      2689.6387     -994.81682      908.2415       866.26853      1676.485       0             -4445.8118      0              0             -145.34458      94766.891      45.591675      45.591675      45.591675      0.88517037    -119.72409     -764.01693      255.80725    
    116000   232000         253.86506      55.608028      1844.3983      1767.7519      2723.4479     -955.696        924.66885      876.21242      1698.5966      0             -4455.1738      0              0             -145.73956      94510.054      45.55045       45.55045       45.55045       0.88757587     455.37245     -58.770088     -229.77828    
    116500   233000         249.98787      32.842852      1809.8168      1764.5601      2681.8537     -917.29356      921.15561      899.71608      1698.2807      0             -4436.4459      0              0             -145.77704      94485.754      45.546546      45.546546      45.546546      0.88780414     142.44197     -85.794327      41.880916    
    117000   234000         245.9784      -633.24286      813.58011      1686.9076      2638.8403     -951.93278      899.94602      859.45938      1725.8942      0             -4437.2323      0              0             -145.65472      94565.106      45.559293      45.559293      45.559293      0.88705916    -1157.4437      210.48761     -952.77252    
    117500   235000         247.48907     -94.276588      1580.8939      1710.5206      2655.0468     -944.52615      956.37867      875.05406      1671.7655      0             -4447.7244      0              0             -146.09681      94278.951      45.513292      45.513292      45.513292      0.88975156     141.54863      51.694897     -476.07329    
    118000   236000         247.36197      172.234        1965.0445      1727.7979      2653.6832     -925.88535      928.17946      898.20618      1696.1241      0             -4448.3951      0              0             -145.83114      94450.703      45.540913      45.540913      45.540913      0.88813361     235.61027     -397.38672      678.47844    
    118500   237000         247.2779       326.99612      2073.9391      1624.9893      2652.7813     -1027.792       883.00419      902.63644      1667.9662      0             -4481.3988      0              0             -146.31072      94141.112      45.4911        45.4911        45.4911        0.89105431     500.89783     -136.67996      616.7705     
    119000   238000         249.31285      128.39082      1928.5408      1752.1233      2674.6121     -922.48884      949.99573      912.44155      1682.2413      0             -4467.1674      0              0             -146.192        94217.562      45.503411      45.503411      45.503411      0.89033129     165.2563       74.234121      145.68204    
    119500   239000         251.22472     -121.5803       1583.3425      1750.2943      2695.1225     -944.82819      966.54105      904.92495      1658.8496      0             -4475.1438      0              0             -146.28616      94156.92       45.493646      45.493646      45.493646      0.89090471    -598.32794     -13.44931       247.03636    
    120000   240000         253.8607       187.72795      2028.0872      1769.7155      2723.4012     -953.68567      956.15521      905.74399      1657.7234      0             -4473.3082      0              0             -145.95382      94371.314      45.52815       45.52815       45.52815       0.88888074     675.71422     -157.8481       45.317731    
    120500   241000         246.74254      466.78573      2375.9318      1728.7499      2647.038      -918.28809      944.10374      892.91784      1696.081       0             -4451.3907      0              0             -144.88472      95067.678      45.639859      45.639859      45.639859      0.88236976     571.28353      267.19591      561.87775    
    121000   242000         252.53116      1005.2328      3092.1276      1706.8246      2709.138      -1002.3134      909.83237      912.77502      1605.5544      0             -4430.4751      0              0             -145.765        94493.562      45.5478        45.5478        45.5478        0.88773078     302.00163      913.27143      1800.4255    
    121500   243000         251.35777      145.42707      1949.8339      1749.2747      2696.5499     -947.27525      918.66105      905.67712      1686.8382      0             -4458.4516      0              0             -145.65788      94563.053      45.558963      45.558963      45.558963      0.88707842     194.09703      204.17129      38.012883    
    122000   244000         247.26409      143.55849      1834.7074      1637.1382      2652.6332     -1015.495       904.5785       894.55677      1650.8905      0             -4465.5208      0              0             -145.9624       94365.771      45.527258      45.527258      45.527258      0.88893296     1219.1372     -446.53007     -341.93163    
    122500   245000         248.77218     -212.68302      1395.4373      1688.5719      2668.8119     -980.23996      924.79234      882.71603      1681.7456      0             -4469.4939      0              0             -145.74614      94505.792      45.549765      45.549765      45.549765      0.8876159     -56.06431      -280.93111     -301.05363    
    123000   246000         250.1661      -231.20381      1402.4967      1721.6386      2683.7657     -962.1271       920.74904      894.08785      1688.5432      0             -4465.5072      0              0             -145.52665      94648.329      45.572654      45.572654      45.572654      0.88627918     40.93252      -1022.1454      287.60143    
    123500   247000         249.20743     -621.24541      885.07394      1735.636       2673.4812     -937.84516      923.77933      904.8184       1710.9592      0             -4477.4021      0              0             -146.71974      93878.671      45.448788      45.448788      45.448788      0.89354528    -611.02111     -76.282599     -1176.4325    
    124000   248000         249.81488      416.14105      2243.6081      1671.2658      2679.9979     -1008.7321      888.99542      917.21329      1668.7121      0             -4483.6529      0              0             -146.05489      94306.013      45.517646      45.517646      45.517646      0.88949624     556.99031      31.436475      659.99636    
    124500   249000         247.97555      190.56114      1955.0515      1691.1232      2660.2657     -969.14246      894.75364      872.18353      1716.5259      0             -4452.6055      0              0             -145.03731      94967.661      45.623848      45.623848      45.623848      0.88329904     266.61987      78.013704      227.04986    
    125000   250000         249.88196      926.41931      2941.3038      1673.5672      2680.7175     -1007.1503      893.77703      899.19589      1682.921       0             -4483.0442      0              0             -146.79455      93830.825      45.441066      45.441066      45.441066      0.89400092     1660.7622      613.29659      505.19917    
    125500   251000         249.29694      14.227597      1710.9293      1691.3612      2674.4415     -983.08027      909.63981      890.5557       1680.393       0             -4463.6688      0              0             -146.05429      94306.398      45.517708      45.517708      45.517708      0.8894926      44.899744     -94.484547      92.267594    
    126000   252000         248.92405      44.472765      1841.7237      1780.2523      2670.4411     -890.18881      910.90139      908.68518      1734.3443      0             -4444.1197      0              0             -145.32888      94777.126      45.593316      45.593316      45.593316      0.88507477    -227.06129     -343.58985      704.06943    
    126500   253000         241.80009     -800.57196      571.77758      1672.3523      2594.0157     -921.6634       935.86439      897.56563      1707.1208      0             -4462.2142      0              0             -146.12086      94263.436      45.510795      45.510795      45.510795      0.889898      -1293.4053     -73.619991     -1034.6906    
    127000   254000         244.28093     -290.64064      1343.6766      1745.5145      2620.6301     -875.11561      960.3352       887.3538       1720.1733      0             -4442.978       0              0             -145.29036      94802.258      45.597346      45.597346      45.597346      0.88484014     24.457421     -496.81441     -399.56494    
    127500   255000         245.65251      367.68421      2260.366       1753.814       2635.3442     -881.53022      973.07426      925.59277      1702.3258      0             -4482.5231      0              0             -145.80834      94465.477      45.543287      45.543287      45.543287      0.88799471    -552.96797      349.50445      1306.5162    
    128000   256000         248.69763     -639.93227      834.55456      1721.1462      2668.0121     -946.86593      933.66002      881.63821      1688.2308      0             -4450.3949      0              0             -144.99124      94997.835      45.62868       45.62868       45.62868       0.88301847    -357.97396     -1055.0959     -506.72695    
    128500   257000         248.18317     -96.232235      1599.221       1732.4668      2662.493      -930.02625      900.87822      905.77335      1696.3211      0             -4432.9989      0              0             -145.07697      94941.702      45.619691      45.619691      45.619691      0.88354055     73.290541     -328.6042      -33.383047    
    129000   258000         253.51738      415.18803      2325.0949      1752.2675      2719.718      -967.45052      909.5004       864.33013      1712.5565      0             -4453.8376      0              0             -145.59698      94602.606      45.565314      45.565314      45.565314      0.88670754     747.73973     -71.165045      568.98941    
    129500   259000         250.90209     -136.44305      1612.2564      1800.636       2691.6614     -891.02532      932.95958      919.26748      1686.9064      0             -4430.1588      0              0             -145.49525      94668.754      45.575931      45.575931      45.575931      0.88608797    -726.90203      501.1974      -183.62451    
    130000   260000         248.23301     -322.22927      1258.9997      1703.1662      2663.0277     -959.86152      918.78502      896.90738      1677.7645      0             -4453.3185      0              0             -145.73054      94515.905      45.55139       45.55139       45.55139       0.88752092    -273.94392      303.03285     -995.77673    
    130500   261000         250.25492      588.14734      2528.9204      1718.4622      2684.7186     -966.25647      892.65123      913.86622      1687.8934      0             -4460.6674      0              0             -145.77629      94486.245      45.546624      45.546624      45.546624      0.88779953     259.55578      100.73582      1404.1504    
    131000   262000         255.38845     -507.06756      1147.6662      1848.4596      2739.7908     -891.33126      951.62414      930.45639      1644.3436      0             -4417.7554      0              0             -145.34737      94765.071      45.591383      45.591383      45.591383      0.88518736    -51.481708     -773.69116     -696.02979    
    131500   263000         249.87092     -214.88718      1403.81        1700.7287      2680.5991     -979.87042      887.07275      878.61242      1691.8257      0             -4437.3813      0              0             -145.37992      94743.854      45.58798       45.58798       45.58798       0.88538559    -205.84831     -274.30792     -164.50531    
    132000   264000         247.58849      169.26501      1949.639       1715.6031      2656.1133     -940.51019      917.96876      878.39253      1707.1616      0             -4444.0331      0              0             -145.28344      94806.773      45.598069      45.598069      45.598069      0.884798       810.99646     -387.21967      84.018241    
    132500   265000         250.67691     -583.60992      915.07934      1715.9879      2689.2457     -973.2578       873.47802      912.13175      1698.2431      0             -4457.1107      0              0             -146.37642      94098.858      45.484293      45.484293      45.484293      0.89145443    -499.21417     -608.28074     -643.33486    
    133000   266000         239.52215     -411.22482      1056.9538      1627.0089      2569.5782     -942.56934      916.03983      905.19701      1674.8431      0             -4438.6493      0              0             -144.90851      95052.072      45.637362      45.637362      45.637362      0.88251462    -48.688392     -589.28335     -595.7027     
    133500   267000         248.36026     -103.60743      1559.1413      1702.7009      2664.3928     -961.69194      895.91243      876.20859      1683.2696      0             -4417.0825      0              0             -144.97399      95009.137      45.630489      45.630489      45.630489      0.88291344     226.13541     -664.00851      127.05081    
    134000   268000         251.48601      93.782298      1869.2002      1739.7754      2697.9257     -958.15034      886.01315      907.97861      1688.1531      0             -4440.2952      0              0             -145.55749      94628.273      45.569434      45.569434      45.569434      0.88646702     638.46523      514.38378     -871.50212    
    134500   269000         252.1643      -742.48457      797.64474      1825.8309      2705.2023     -879.37134      925.39336      926.78898      1714.1367      0             -4445.6904      0              0             -145.05979      94952.945      45.621492      45.621492      45.621492      0.88343593    -230.60635     -676.69997     -1320.1474    
    135000   270000         250.02048     -102.55037      1576.069       1717.129       2682.2035     -965.07445      907.92321      886.61703      1678.1519      0             -4437.7666      0              0             -146.03759      94317.183      45.519443      45.519443      45.519443      0.88939089    -280.33907     -185.41518      158.10313    
    135500   271000         251.72154      98.946637      1882.8929      1746.7165      2700.4524     -953.73585      902.24979      919.1111       1692.862       0             -4467.9587      0              0             -145.95893      94368.009      45.527618      45.527618      45.527618      0.88891188     191.69145     -249.59615      354.74462    
    136000   272000         246.71598      690.6208       2651.8426      1699.7435      2646.7531     -947.00954      897.47997      932.7478       1675.7701      0             -4453.0075      0              0             -145.70984      94529.334      45.553547      45.553547      45.553547      0.88739485     416.66643      539.57144      1115.6245    
    136500   273000         248.64239     -469.32163      1144.7127      1795.9899      2667.4195     -871.42958      930.69809      927.98954      1702.2295      0             -4432.3467      0              0             -144.75584      95152.321      45.6534        45.6534        45.6534        0.88158484    -343.49012     -569.8511      -494.62369    
    137000   274000         253.0704       43.535019      1782.3161      1722.1929      2714.9229     -992.72993      869.64541      903.16909      1684.8039      0             -4450.3483      0              0             -145.45493      94694.996      45.580142      45.580142      45.580142      0.88584241     115.28672      604.42113     -589.1028     
    137500   275000         251.84969     -146.93725      1529.4854      1733.5034      2701.8272     -968.32376      869.55814      888.04407      1700.9488      0             -4426.8748      0              0             -144.6754       95205.223      45.661859      45.661859      45.661859      0.88109497    -16.368017     -411.5379      -12.905836    
    138000   276000         246.6081       387.82995      2305.7303      1770.3807      2645.5957     -875.21506      900.9143       956.2854       1696.9316      0             -4429.3463      0              0             -145.5242       94649.921      45.572909      45.572909      45.572909      0.88626428    -371.09187     -62.261202      1596.8429    
    138500   277000         248.28705     -330.51972      1275.8124      1730.0676      2663.6075     -933.5399       887.4183       936.55743      1712.2953      0             -4469.8109      0              0             -146.16011      94238.122      45.506721      45.506721      45.506721      0.89013704     44.77618      -752.70948     -283.62585    
    139000   278000         243.63564      133.87698      1880.9695      1696.7877      2613.7074     -916.91964      878.42918      924.70009      1732.1079      0             -4452.1568      0              0             -146.01267      94333.276      45.522032      45.522032      45.522032      0.88923916     789.2142       370.67061     -758.25386    
    139500   279000         245.07106     -233.25933      1361.7936      1684.382       2629.1065     -944.72446      887.91277      911.85885      1695.6102      0             -4440.1062      0              0             -145.25183      94827.402      45.601376      45.601376      45.601376      0.88460553    -534.35294     -137.01623     -28.40881     
    140000   280000         255.2245      -592.98105      954.03983      1769.7704      2738.032      -968.26162      895.19435      902.1224       1687.7223      0             -4453.3006      0              0             -146.02441      94325.696      45.520813      45.520813      45.520813      0.88931063    -915.89952     -411.09501     -451.94861    
    140500   281000         251.66559     -412.11702      1139.7236      1705.6908      2699.8522     -994.16141      890.4374       887.22065      1686.3303      0             -4458.1497      0              0             -146.27181      94166.159      45.495134      45.495134      45.495134      0.8908173      571.24465     -800.40081     -1007.1949    
    141000   282000         246.64446      119.81611      1875.8818      1709.9013      2645.9858     -936.08445      884.99419      924.8848       1705.7488      0             -4451.7122      0              0             -145.00725      94987.349      45.627001      45.627001      45.627001      0.88311595     280.40473      105.95799     -26.914385    
    141500   283000         246.24186     -120.89096      1554.7861      1721.5853      2641.6667     -920.08143      929.3861       905.02248      1698.5017      0             -4452.9918      0              0             -145.58993      94607.186      45.566049      45.566049      45.566049      0.88666461     28.745187     -31.155723     -360.26235    
    142000   284000         249.32102     -192.41422      1506.2926      1771.8341      2674.6998     -902.86571      932.97849      896.12923      1717.1658      0             -4449.1392      0              0             -145.55801      94627.935      45.56938       45.56938       45.56938       0.88647019    -88.96666      -144.42206     -343.85393    
    142500   285000         246.71015     -501.11979      970.02199      1658.9195      2646.6906     -987.7711       908.84891      876.83699      1692.1178      0             -4465.5748      0              0             -146.12291      94262.112      45.510582      45.510582      45.510582      0.8899105      0.27895463    -941.5758      -562.06254    
    143000   286000         249.46113     -353.38136      1295.652       1784.0154      2676.2028     -892.18747      904.01639      935.03399      1730.275       0             -4461.5129      0              0             -145.35564      94759.678      45.590518      45.590518      45.590518      0.88523775    -165.91384     -493.79095     -400.43929    
    143500   287000         257.4829       231.69673      2136.0913      1817.9886      2762.2599     -944.27123      917.36205      927.35581      1677.8908      0             -4466.8799      0              0             -146.31335      94139.418      45.490827      45.490827      45.490827      0.89107034    -506.28398      622.60796      578.7662     
    144000   288000         251.1095      -334.97481      1259.7         1719.1429      2693.8865     -974.74359      868.00114      885.85826      1737.9025      0             -4466.5055      0              0             -146.45761      94046.694      45.475887      45.475887      45.475887      0.89194889    -55.368847      252.65087     -1202.2065    
    144500   289000         255.3685      -249.00186      1514.3641      1856.4307      2739.5768     -883.14612      916.17054      951.21776      1708.4853      0             -4459.0198      0              0             -146.22558      94195.924      45.499927      45.499927      45.499927      0.89053581    -1012.9368      402.75336     -136.8221     
    145000   290000         247.7402      -88.975006      1612.0615      1735.1654      2657.7409     -922.57548      886.91429      911.99271      1716.1068      0             -4437.5893      0              0             -145.18687      94869.831      45.608177      45.608177      45.608177      0.8842099     -133.90422     -287.24129      154.22049    
    145500   291000         252.79226      873.92067      2951.6094      1750.5463      2711.939      -961.3927       843.6618       909.40931      1734.0383      0             -4448.5021      0              0             -146.16303      94236.236      45.506417      45.506417      45.506417      0.89015486     824.12984      887.04848      910.58371    
    146000   292000         242.7278      -729.03883      731.8988       1741.9179      2603.9682     -862.05029      919.20118      909.59045      1732.8258      0             -4423.6677      0              0             -144.99481      94995.496      45.628305      45.628305      45.628305      0.88304021    -589.03939     -515.2437      -1082.8334    
    146500   293000         247.599       -181.05523      1505.4525      1754.4383      2656.2261     -901.78779      900.5964       929.70711      1730.396       0             -4462.4873      0              0             -146.07233      94294.753      45.515834      45.515834      45.515834      0.88960245    -465.55973     -543.55772      465.95176    
    147000   294000         249.96933     -627.30548      844.946        1709.6468      2681.6548     -972.00806      890.34586      890.11388      1683.9401      0             -4436.4079      0              0             -145.72854      94517.204      45.551599      45.551599      45.551599      0.88750872    -796.95403      102.14127     -1187.1037    
    147500   295000         251.02992      86.666059      1850.4893      1730.6797      2693.0327     -962.35305      908.43951      880.68148      1689.3616      0             -4440.8357      0              0             -145.30768      94790.955      45.595533      45.595533      45.595533      0.88494565     230.93055      71.431275     -42.363646    
    148000   296000         253.36942     -316.91324      1331.4619      1771.2821      2718.1308     -946.84868      920.94643      860.03293      1699.3481      0             -4427.1761      0              0             -144.74266      95160.984      45.654786      45.654786      45.654786      0.88150459    -485.29848     -291.34181     -174.09942    
    148500   297000         252.96272     -143.70151      1558.2288      1756.2005      2713.7677     -957.5672       886.70405      894.74318      1711.3201      0             -4450.3345      0              0             -145.81077      94463.898      45.543034      45.543034      45.543034      0.88800955     124.3433      -212.22075     -343.22709    
    149000   298000         251.56393      4.430017       1824.2164      1818.0726      2698.7615     -880.68894      923.2349       899.44743      1725.8046      0             -4429.1759      0              0             -144.84327      95094.883      45.644212      45.644212      45.644212      0.88211732     97.393011      88.495063     -172.59802    
    149500   299000         250.36164     -295.35553      1353.8646      1764.4916      2685.8635     -921.37193      886.79517      924.53187      1683.1437      0             -4415.8426      0              0             -144.48708      95329.314      45.681689      45.681689      45.681689      0.87994805    -732.16514     -162.37858      8.4771288    
    150000   300000         251.22198      401.9824       2298.3769      1744.6008      2695.0931     -950.49231      932.37054      885.96552      1677.8763      0             -4446.7047      0              0             -145.81568      94460.721      45.542523      45.542523      45.542523      0.88803942     1165.89        303.78814     -263.73092    
    150500   301000         253.07107      771.19765      2807.2863      1743.4805      2714.9301     -971.44954      872.92929      927.22273      1690.5571      0             -4462.1587      0              0             -145.62459      94584.67       45.562434      45.562434      45.562434      0.88687568     988.68489      458.73854      866.16952    
    151000   302000         249.61237      541.32618      2468.9818      1727.3689      2677.8253     -950.45641      935.54447      892.98913      1697.3136      0             -4476.3036      0              0             -146.62673      93938.221      45.458396      45.458396      45.458396      0.89297884     710.47441      178.7527       734.75143    
    151500   303000         248.27056     -280.93391      1328.3145      1716.5428      2663.4305     -946.88764      880.45106      935.44579      1685.8764      0             -4448.6609      0              0             -145.36112      94756.108      45.589945      45.589945      45.589945      0.88527109    -115.29269     -48.740164     -678.76887    
    152000   304000         248.24261      77.66317       1901.9287      1795.1406      2663.1307     -867.99011      915.27177      927.12914      1717.8786      0             -4428.2696      0              0             -146.09098      94282.71       45.513897      45.513897      45.513897      0.88971608     648.80675     -79.864404     -335.95284    
    152500   305000         246.43866      613.27805      2454.4717      1610.9635      2643.778      -1032.8146      878.32414      887.43159      1656.0386      0             -4454.6088      0              0             -146.0493       94309.623      45.518227      45.518227      45.518227      0.88946219     893.34214     -248.23419      1194.7262    
    153000   306000         248.54545      38.618736      1773.5811      1720.4297      2666.3796     -945.94986      916.40458      920.61509      1662.2822      0             -4445.2517      0              0             -145.95347      94371.542      45.528186      45.528186      45.528186      0.8888786     -170.82126      425.69831     -139.02085    
    153500   307000         245.90723     -175.9803       1434.9379      1678.3615      2638.0769     -959.71536      902.25397      924.58631      1653.2079      0             -4439.7635      0              0             -145.22207      94846.84       45.604492      45.604492      45.604492      0.88442423     443.87974     -681.8388      -289.98185    
    154000   308000         249.06111      439.15911      2384.025       1780.2101      2671.9115     -891.70146      936.0107       914.43616      1727.4848      0             -4469.6332      0              0             -146.09974      94277.063      45.512988      45.512988      45.512988      0.88976937     652.20018      49.547371      615.72977    
    154500   309000         247.75583     -38.121097      1613.0856      1665.8651      2657.9085     -992.04341      882.6894       875.8095       1682.3344      0             -4432.8767      0              0             -145.08811      94934.41       45.618523      45.618523      45.618523      0.88360841    -436.69006      174.34879      147.97798    
    155000   310000         251.05333      341.47291      2177.9082      1705.9034      2693.2839     -987.38046      885.89062      879.32111      1676.8678      0             -4429.46        0              0             -145.3253       94779.463      45.593691      45.593691      45.593691      0.88505296     760.61881      48.92373       214.87618    
    155500   311000         253.58503     -310.01247      1353.7168      1783.5589      2720.4438     -936.88494      880.68617      900.21233      1691.3858      0             -4409.1692      0              0             -144.87774      95072.262      45.640593      45.640593      45.640593      0.88232721     72.126862     -581.95884     -420.20544    
    156000   312000         256.20038     -398.42155      1277.6855      1831.2305      2748.5011     -917.27059      899.84923      898.08451      1704.4216      0             -4419.6259      0              0             -144.58434      95265.189      45.671444      45.671444      45.671444      0.88054036    -577.66995     -8.2001008     -609.3946     
    156500   313000         249.32266      590.08506      2531.6733      1718.2892      2674.7174     -956.42826      883.47731      897.41084      1708.6889      0             -4446.0053      0              0             -145.73044      94515.973      45.551401      45.551401      45.551401      0.88752029     1168.4452      433.85573      167.95431    
    157000   314000         251.05814      68.562437      1855.241       1760.8396      2693.3355     -932.49595      897.49763      893.32549      1704.5498      0             -4427.8689      0              0             -145.89446      94409.715      45.534324      45.534324      45.534324      0.88851919     87.5617        288.31857     -170.19296    
    157500   315000         251.97242      50.465997      1838.8574      1768.9198      2703.1439     -934.22412      905.32147      867.87031      1701.8398      0             -4409.2557      0              0             -144.95034      95024.643      45.632971      45.632971      45.632971      0.88276936     659.17526      10.888199     -518.66547    
    158000   316000         247.00849      828.0359       2886.7958      1745.6743      2649.8911     -904.21684      898.75812      904.26821      1736.96        0             -4444.2031      0              0             -145.76345      94494.564      45.547961      45.547961      45.547961      0.88772137     541.90818      645.31952      1296.88      
    158500   317000         252.37596     -35.181351      1662.2954      1710.8075      2707.4729     -996.66545      858.57926      899.61517      1684.9789      0             -4439.8388      0              0             -145.67794      94550.035      45.556872      45.556872      45.556872      0.88720056    -209.21234      338.19357     -234.52528    
    159000   318000         249.90998     -259.21435      1409.3045      1769.7969      2681.0181     -911.22114      898.52669      934.76143      1672.2236      0             -4416.7328      0              0             -144.44225      95358.902      45.686415      45.686415      45.686415      0.87967501     92.952519     -529.01003     -341.58553    
    159500   319000         248.5336       624.95316      2583.7387      1723.9374      2666.2524     -942.31496      901.15058      884.98344      1741.0236      0             -4469.4726      0              0             -146.00937      94335.41       45.522375      45.522375      45.522375      0.88921905     667.17514      25.804179      1181.8802    
    160000   320000         244.27601     -167.69588      1448.8042      1679.91        2620.5772     -940.6672       900.74102      906.28781      1689.2517      0             -4436.9477      0              0             -145.7615       94495.83       45.548165      45.548165      45.548165      0.88770947    -270.00888     -78.172244     -154.90653    
    160500   321000         253.4418      -9.8081941      1739.814       1753.3277      2718.9072     -965.57955      861.51007      913.4083       1704.3014      0             -4444.7993      0              0             -145.7961       94473.404      45.544561      45.544561      45.544561      0.8879202      682.78009      59.7683       -771.97297    
    161000   322000         248.56822     -276.49179      1360.9121      1743.246       2666.6238     -923.37777      915.89231      909.04603      1693.3338      0             -4441.6499      0              0             -145.26826      94816.676      45.599657      45.599657      45.599657      0.88470559    -345.30975     -425.95513     -58.21049     
    161500   323000         250.67082      298.32977      2183.7544      1773.8319      2689.1803     -915.34839      931.57275      920.55103      1712.211       0             -4479.6832      0              0             -146.19287      94217.004      45.503321      45.503321      45.503321      0.89033656     230.67671      1216.7806     -552.46804    
    162000   324000         243.01716     -150.8822       1437.8906      1646.296       2607.0724     -960.77635      888.04351      913.56872      1672.2236      0             -4434.6122      0              0             -145.43211      94709.854      45.582526      45.582526      45.582526      0.88570344    -162.26627     -492.31285      201.93251    
    162500   325000         248.69933      366.96953      2280.0582      1773.7831      2668.0304     -894.24723      890.07245      926.66497      1712.773       0             -4423.7577      0              0             -145.60451      94597.713      45.564528      45.564528      45.564528      0.8867534      455.41214      327.86707      317.62939    
    163000   326000         249.13481      848.82878      2894.7954      1736.0681      2672.7021     -936.63398      888.19498      926.81665      1701.819       0             -4453.4646      0              0             -147.15337      93602.028      45.404102      45.404102      45.404102      0.89618618     914.66763      797.353        834.4657     
    163500   327000         252.53293     -499.997        1044.1373      1736.7796      2709.1569     -972.37738      906.05882      895.66906      1663.6673      0             -4437.7725      0              0             -145.00727      94987.332      45.626998      45.626998      45.626998      0.88311611    -340.6856      -353.73739     -805.56802    
    164000   328000         249.94864     -324.35951      1318.883       1765.3713      2681.4329     -916.06155      936.25536      912.35778      1675.8271      0             -4440.5018      0              0             -145.93111      94386.002      45.530512      45.530512      45.530512      0.88874242    -550.9151      -46.167402     -375.99601    
    164500   329000         251.43614     -275.39414      1421.3268      1801.5431      2697.3906     -895.84754      916.97672      925.22759      1698.6943      0             -4436.7461      0              0             -145.49745      94667.323      45.575702      45.575702      45.575702      0.88610135     334.90389     -684.59682     -476.48948    
    165000   330000         251.77047      310.66401      2181.9945      1752.1318      2700.9773     -948.84556      904.88377      904.74879      1667.1893      0             -4425.6674      0              0             -145.17522      94877.443      45.609396      45.609396      45.609396      0.88413896     25.87336       379.37894      526.73974    
    165500   331000         249.22811     -400.62496      1197.9594      1749.8103      2673.703      -923.89275      904.78525      931.01586      1671.4453      0             -4431.1391      0              0             -145.83024      94451.285      45.541006      45.541006      45.541006      0.88812813    -461.77813     -11.082853     -729.0139     
    166000   332000         246.68723     -341.24688      1269.9728      1738.82        2646.4446     -907.62465      911.06603      929.2436       1697.1197      0             -4445.054       0              0             -146.20721      94207.764      45.501834      45.501834      45.501834      0.89042389    -941.73401      124.52595     -206.53258    
    166500   333000         246.54859     -454.90433      1139.7646      1765.9241      2644.9574     -879.03327      923.51086      934.34788      1707.6437      0             -4444.5357      0              0             -145.93735      94381.963      45.529862      45.529862      45.529862      0.88878045    -300.35435     -360.98233     -703.37631    
    167000   334000         247.52884     -489.87707      1006.9656      1683.267       2655.4734     -972.20635      902.09564      885.32799      1712.2456      0             -4471.8755      0              0             -145.50509      94662.353      45.574904      45.574904      45.574904      0.88614788    -291.51733     -429.45027     -748.66362    
    167500   335000         251.0135      -33.250565      1706.3167      1752.3885      2692.8566     -940.46811      917.55469      877.75343      1692.3899      0             -4428.1661      0              0             -144.97573      95007.998      45.630307      45.630307      45.630307      0.88292402     87.571994     -18.129698     -169.19399    
    168000   336000         251.9679       178.80467      1924.5192      1678.4547      2703.0954     -1024.6407      876.85852      900.92566      1665.0667      0             -4467.4915      0              0             -145.96921      94361.368      45.52655       45.52655       45.52655       0.88897443    -226.30252      379.63117      383.08535    
    168500   337000         254.09156      57.069233      1891.992       1812.9598      2725.8778     -912.91809      860.31967      922.93981      1709.4027      0             -4405.5803      0              0             -145.05375      94956.896      45.622124      45.622124      45.622124      0.88339917     190.60513     -186.30813      166.91069    
    169000   338000         252.94486      55.868266      1863.4198      1785.9404      2713.5761     -927.63576      883.74074      903.67483      1707.8083      0             -4422.8596      0              0             -144.84719      95092.311      45.643801      45.643801      45.643801      0.88214118    -97.099716      543.41271     -278.7082     
    169500   339000         245.61192      431.66936      2284.0323      1690.9673      2634.9088     -943.94152      874.28798      917.04744      1711.5463      0             -4446.8233      0              0             -146.21109      94205.265      45.501431      45.501431      45.501431      0.89044751     365.21938      75.744297      854.04441    
    170000   340000         252.77386     -112.88037      1639.6668      1795.3068      2711.7416     -916.43482      901.36198      904.12691      1708.901       0             -4430.8247      0              0             -145.68962      94542.454      45.555654      45.555654      45.555654      0.8872717      702.14711     -398.60331     -642.18492    
    170500   341000         250.73526      87.244342      1848.4451      1728.439       2689.8717     -961.43272      911.48916      876.52827      1698.4309      0             -4447.881       0              0             -146.03774      94317.089      45.519428      45.519428      45.519428      0.88939178    -558.22567      625.76462      194.19407    
    171000   342000         248.06682     -544.83417      1021.8682      1773.4976      2661.2448     -887.74721      912.07108      923.86681      1713.5697      0             -4437.2548      0              0             -145.61025      94593.983      45.56393       45.56393       45.56393       0.88678836    -162.16207     -992.61424     -479.72621    
    171500   343000         247.25221     -6.5573515      1671.76        1680.763       2652.5058     -971.7428       893.17065      896.65594      1724.8325      0             -4486.4019      0              0             -146.30966      94141.792      45.49121       45.49121       45.49121       0.89104787    -357.35232     -9.9040533      347.58432    
    172000   344000         257.8725       584.89362      2594.09        1791.842       2766.4395     -974.59751      887.667        912.29315      1691.3803      0             -4465.938       0              0             -146.45345      94049.365      45.476317      45.476317      45.476317      0.89192356    -109.08793      1104.1686      759.60014    
    172500   345000         244.17985     -29.360603      1641.9238      1682.2572      2619.5456     -937.28843      933.23337      914.94406      1681.7709      0             -4467.2368      0              0             -146.22839      94194.115      45.499636      45.499636      45.499636      0.89055292    -116.99748     -10.634663      39.550334    
    173000   346000         252.74538     -173.99678      1531.1271      1770.0659      2711.4361     -941.37013      895.91753      903.92479      1706.9723      0             -4448.1848      0              0             -146.2803       94160.688      45.494253      45.494253      45.494253      0.89086906    -70.794132      288.37878     -739.575      
    173500   347000         245.39757     -320.18305      1256.1143      1694.063       2632.6092     -938.54625      924.03078      895.26773      1712.531       0             -4470.3758      0              0             -146.86101      93788.363      45.43421       45.43421       45.43421       0.89440567    -400.66482     -380.42908     -179.45526    
    174000   348000         252.55816     -560.70199      1014.1002      1791.0521      2709.4277     -918.37552      920.45615      934.94614      1692.1947      0             -4465.9726      0              0             -144.96704      95013.691      45.631218      45.631218      45.631218      0.88287112    -462.0045      -1056.7561     -163.34539    
    174500   349000         256.0089       598.06651      2611.9101      1794.7367      2746.4469     -951.71029      904.98997      921.13864      1685.4863      0             -4463.3252      0              0             -147.01668      93689.058      45.418169      45.418169      45.418169      0.89535369     495.79883      299.5256       998.87509    
    175000   350000         248.03667      94.610662      1854.6021      1724.1364      2660.9213     -936.78495      900.29802      904.96956      1690.0587      0             -4432.1112      0              0             -145.67161      94554.139      45.557531      45.557531      45.557531      0.88716205    -266.02145      774.20404     -224.35061    
    175500   351000         251.76365     -215.84106      1499.1227      1796.6876      2700.9042     -904.21655      913.26253      906.81602      1718.0364      0             -4442.3315      0              0             -145.70809      94530.465      45.553729      45.553729      45.553729      0.88738422    -111.12194     -691.68056      155.27931    
    176000   352000         251.30704     -110.15675      1693.0411      1844.616       2696.0057     -851.38974      933.32275      942.04684      1711.0344      0             -4437.7937      0              0             -145.98738      94349.619      45.524661      45.524661      45.524661      0.88908513     138.13465     -132.72193     -335.88297    
    176500   353000         247.51571     -95.591065      1641.8561      1773.2604      2655.3326     -882.07214      917.47632      929.90734      1732.9584      0             -4462.4142      0              0             -146.12982      94257.651      45.509864      45.509864      45.509864      0.88995262    -646.42475     -312.88417      672.53572    
    177000   354000         245.68123     -129.593        1462.1356      1639.7277      2635.6523     -995.92456      903.08763      875.37699      1711.9824      0             -4486.3715      0              0             -146.58487      93965.047      45.462723      45.462723      45.462723      0.8927239     -319.24475     -363.1392       293.60496    
    177500   355000         249.32551     -511.28764      1014.8687      1722.8179      2674.7479     -951.93004      910.3644       898.4888       1683.0245      0             -4443.8077      0              0             -145.07567      94942.551      45.619827      45.619827      45.619827      0.88353265    -255.97986      72.976299     -1350.8594    
    178000   356000         249.64693      290.52531      2203.6869      1802.0545      2678.1961     -876.14162      927.41182      951.01328      1675.9216      0             -4430.4884      0              0             -145.307        94791.399      45.595604      45.595604      45.595604      0.88494151     230.29491      241.17156      400.10946    
    178500   357000         252.04018      681.14483      2680.3633      1750.5224      2703.8707     -953.3483       896.29265      911.01866      1715.767       0             -4476.4266      0              0             -147.15066      93603.755      45.404381      45.404381      45.404381      0.89616964     628.57791      724.86076      689.99582    
    179000   358000         252.19557      140.56737      2029.2443      1834.9862      2705.5378     -870.55156      902.48942      906.81437      1744.0505      0             -4423.9058      0              0             -145.35729      94758.607      45.590346      45.590346      45.590346      0.88524775     521.38671      15.423064     -115.10767    
    179500   359000         248.44725      462.78619      2377.6574      1738.5549      2665.326      -926.77118      891.30748      937.89963      1676.3305      0             -4432.3088      0              0             -145.4592       94692.217      45.579696      45.579696      45.579696      0.88586841    -74.536491      483.26139      979.63368    
    180000   360000         252.71835      100.0989       1920.7717      1782.8699      2711.1461     -928.27628      892.90076      916.62416      1708.4867      0             -4446.2879      0              0             -145.81115      94463.651      45.542994      45.542994      45.542994      0.88801187    -369.04189      441.39641      227.94217    
    180500   361000         254.90969     -108.36327      1681.4391      1830.6803      2734.6547     -903.97441      907.3995       903.76529      1719.3752      0             -4434.5144      0              0             -145.85612      94434.531      45.538314      45.538314      45.538314      0.8882857     -393.48418      396.49994     -328.10557    
    181000   362000         253.90444     -374.26778      1296.3185      1811.033       2723.8704     -912.83743      930.1781       903.32677      1717.7188      0             -4464.0611      0              0             -146.06544      94299.199      45.51655       45.51655       45.51655       0.88956051    -604.04763     -581.06248      62.306757    
    181500   363000         250.35491      109.80763      1932.1392      1780.6762      2685.7913     -905.11512      887.50836      930.99621      1725.0108      0             -4448.6305      0              0             -145.63214      94579.768      45.561647      45.561647      45.561647      0.88692165    -113.65253      7.0233056      436.05213    
    182000   364000         252.78986      247.08547      2131.79        1791.2744      2711.9133     -920.6389       887.15425      891.27321      1751.4948      0             -4450.5612      0              0             -145.76108      94496.105      45.548209      45.548209      45.548209      0.88770689     501.96806      195.599        43.689332    
    182500   365000         252.80172     -466.55716      1195.0096      1843.2075      2712.0405     -868.83297      908.88911      945.11559      1692.5821      0             -4415.4198      0              0             -144.58679      95263.572      45.671186      45.671186      45.671186      0.8805553     -539.44103     -703.03148     -157.19896    
    183000   366000         247.83201     -262.24693      1382.0349      1745.9325      2658.7258     -912.79329      927.12446      862.4519       1727.5239      0             -4429.8935      0              0             -144.76468      95146.513      45.652471      45.652471      45.652471      0.88163866     134.47884     -787.50851     -133.71113    
    183500   367000         249.91489      192.58956      2075.3767      1808.7663      2681.0708     -872.30455      924.46024      912.66988      1719.2055      0             -4428.6401      0              0             -145.10655      94922.346      45.61659       45.61659       45.61659       0.88372071     821.57673     -540.3417       296.53366    
    184000   368000         254.652       -298.91577      1386.0907      1798.4924      2731.8902     -933.39782      878.61614      911.17915      1717.442       0             -4440.6351      0              0             -145.59945      94601.001      45.565056      45.565056      45.565056      0.88672258    -157.0208      -468.1588      -271.5677     
    184500   369000         251.83087     -98.04527       1622.7188      1758.6098      2701.6253     -943.01546      871.92618      910.79011      1685.5483      0             -4411.28        0              0             -144.93304      95035.984      45.634787      45.634787      45.634787      0.88266402     293.02517     -831.70198      244.541      
    185000   370000         253.9912       383.81416      2365.6508      1836.7718      2724.8011     -888.02935      919.26628      925.0065       1719.2806      0             -4451.5827      0              0             -145.77936      94484.253      45.546304      45.546304      45.546304      0.88781824     171.68142      652.69783      327.06323    
    185500   371000         252.97186     -414.92225      1219.1036      1791.3944      2713.8658     -922.47138      927.01888      922.58266      1670.8229      0             -4442.8958      0              0             -145.64024      94574.508      45.560802      45.560802      45.560802      0.88697097    -708.10835      19.041089     -555.6995     
    186000   372000         249.14091     -99.528112      1526.9488      1664.1016      2672.7676     -1008.6661      893.83799      901.61259      1645.1953      0             -4449.312       0              0             -145.77152      94489.335      45.547121      45.547121      45.547121      0.88777049     225.65276      80.344862     -604.58196    
    186500   373000         255.42448     -387.71084      1245.1539      1779.1171      2740.1773     -961.06019      941.96003      846.14608      1702.2394      0             -4451.4057      0              0             -145.85724      94433.801      45.538196      45.538196      45.538196      0.88829257    -981.39484     -97.045881     -84.691795    
    187000   374000         250.51274      73.731532      1866.1084      1764.4125      2687.4845     -923.07201      903.32532      932.34115      1676.6007      0             -4435.3392      0              0             -145.64024      94574.509      45.560802      45.560802      45.560802      0.88697097     21.270316     -239.28383      439.20811    
    187500   375000         247.27469      878.91186      2853.1815      1638.7256      2652.7469     -1014.0213      901.01843      881.0229       1664.7249      0             -4460.7875      0              0             -145.37674      94745.924      45.588312      45.588312      45.588312      0.88536625     1120.7738      878.06115      637.90061    
    188000   376000         255.27624     -116.21565      1641.9017      1803.1558      2738.587      -935.43114      899.30099      906.34567      1677.9605      0             -4419.0383      0              0             -144.77215      95141.6        45.651686      45.651686      45.651686      0.88168418    -544.25594      52.118457      143.49055    
    188500   377000         252.08089     -128.16599      1646.1197      1824.171       2704.3075     -880.13651      926.15037      898.19412      1738.067       0             -4442.548       0              0             -144.59688      95256.924      45.670123      45.670123      45.670123      0.88061676     52.327734     -426.07992     -10.745774    
    189000   378000         254.80952     -165.92052      1577.6118      1807.3485      2733.58       -926.23152      892.31366      919.30782      1697.3074      0             -4435.1604      0              0             -145.0778       94941.154      45.619603      45.619603      45.619603      0.88354565    -459.91923     -363.34914      325.50681    
    189500   379000         250.74659      569.21815      2489.175       1704.1502      2689.9932     -985.84297      893.29738      891.90402      1698.8815      0             -4469.9258      0              0             -145.65545      94564.633      45.559216      45.559216      45.559216      0.8870636      406.03311      260.94557      1040.6758    
    190000   380000         250.14234     -99.602015      1667.4453      1804.8615      2683.5109     -878.64936      924.49948      919.75997      1723.4079      0             -4446.3167      0              0             -145.60004      94600.622      45.564995      45.564995      45.564995      0.88672613     412.17922     -362.86243     -348.12284    
    190500   381000         256.62943      195.08476      2088.1511      1818.6924      2753.104      -934.41158      903.46371      888.00328      1711.013       0             -4436.8916      0              0             -145.43285      94709.373      45.582449      45.582449      45.582449      0.88570794     484.13046      42.494395      58.629414    
    191000   382000         244.84336      68.532851      1814.1923      1719.5396      2626.6638     -907.12414      941.62027      920.95371      1688.4484      0             -4458.1466      0              0             -145.44444      94701.824      45.581238      45.581238      45.581238      0.88577854     145.62411     -155.63117      215.60562    
    191500   383000         249.29761     -298.92959      1347.3588      1760.6141      2674.4486     -913.83455      907.81552      927.27632      1705.2052      0             -4454.1316      0              0             -145.30545      94792.408      45.595766      45.595766      45.595766      0.88493208    -344.16043     -460.56462     -92.063728    
    192000   384000         250.09605     -321.20851      1331.8356      1776.885       2683.0143     -906.12928      915.22968      890.11522      1703.5344      0             -4415.0086      0              0             -144.98068      95004.753      45.629787      45.629787      45.629787      0.88295418    -226.51355      175.92435     -913.03632    
    192500   385000         248.15146     -160.85417      1581.5251      1804.9971      2662.1528     -857.15575      988.80306      911.79927      1672.5148      0             -4430.2728      0              0             -144.5908       95260.93       45.670764      45.670764      45.670764      0.88057972    -282.43105     -575.6994       375.56795    
    193000   386000         253.25714      406.51588      2372.6626      1809.0657      2716.9263     -907.86055      917.83216      908.79647      1701.9433      0             -4436.4325      0              0             -144.89062      95063.811      45.63924       45.63924       45.63924       0.88240565     245.00925      198.65591      775.88246    
    193500   387000         248.13543      252.03279      2068.5287      1718.6162      2661.9808     -943.36467      944.45557      874.64044      1654.9643      0             -4417.425       0              0             -144.6868       95197.726      45.660661      45.660661      45.660661      0.88116437    -93.948168      437.95647      412.09007    
    194000   388000         252.93591     -620.01389      973.741        1837.0865      2713.4801     -876.39361      921.19813      935.46121      1666.5556      0             -4399.6085      0              0             -144.26074      95478.878      45.705567      45.705567      45.705567      0.87856964    -574.92486     -1133.7147     -151.4021     
    194500   389000         254.30478      41.677622      1926.1756      1868.1174      2728.1653     -860.04787      967.82174      899.41851      1675.9147      0             -4403.2028      0              0             -144.20171      95517.968      45.711804      45.711804      45.711804      0.8782101      577.50611     -353.99601     -98.477236    
    195000   390000         247.63073      624.45522      2534.3714      1672.4312      2656.5664     -984.13523      906.46598      872.06387      1672.111       0             -4434.7761      0              0             -145.53101      94645.492      45.572198      45.572198      45.572198      0.88630575     469.43936      416.16712      987.75918    
    195500   391000         251.38485      797.71437      2888.9247      1783.9381      2696.8404     -912.90232      919.88785      915.6287       1684.6082      0             -4433.0271      0              0             -145.01796      94980.333      45.625877      45.625877      45.625877      0.88318119     476.96911      952.64655      963.52747    
    196000   392000         251.71902     -39.74914       1717.3005      1772.2976      2700.4254     -928.1278       922.21204      899.38902      1671.5742      0             -4421.303       0              0             -145.18422      94871.562      45.608454      45.608454      45.608454      0.88419377     227.61975      273.91768     -620.78485    
    196500   393000         255.17032     -406.49382      1282.9502      1848.378       2737.4507     -889.07275      944.79667      902.44232      1660.7779      0             -4397.0896      0              0             -144.41362      95377.805      45.689434      45.689434      45.689434      0.87950068    -413.10727     -758.05958     -48.314601    
    197000   394000         247.97594     -526.36783      1025.8261      1752.4019      2660.2699     -907.86801      902.562        924.34124      1690.954       0             -4425.7252      0              0             -145.52573      94648.928      45.57275       45.57275       45.57275       0.88627358    -872.43823     -737.82381      31.158558    
    197500   395000         253.85954      143.35518      2026.0689      1827.9286      2723.3887     -895.46013      944.36519      902.89196      1691.3953      0             -4434.1125      0              0             -145.33561      94772.738      45.592612      45.592612      45.592612      0.88511575     111.71399      100.80779      217.54374    
    198000   396000         253.67035      189.63937      2052.0132      1789.5979      2721.3591     -931.76115      929.28704      914.21585      1636.4728      0             -4411.7369      0              0             -145.16794      94882.206      45.61016       45.61016       45.61016       0.88409458     94.479669      240.85073      233.58772    
    198500   397000         252.78751      300.96529      2238.828       1819.8747      2711.8881     -892.0134       889.17957      925.30638      1704.0028      0             -4410.5021      0              0             -144.30526      95449.424      45.700867      45.700867      45.700867      0.87884075     666.07817     -345.84498      582.6627     
    199000   398000         249.21791      377.79087      2284.7342      1762.1291      2673.5936     -911.46453      900.93939      900.38557      1715.1518      0             -4427.9413      0              0             -145.21421      94851.969      45.605314      45.605314      45.605314      0.88437641     376.79855      184.38795      572.18613    
    199500   399000         252.13439      932.68565      3055.0035      1760.813       2704.8814     -944.06838      906.546        899.01252      1652.5407      0             -4402.1676      0              0             -144.76663      95145.23       45.652266      45.652266      45.652266      0.88165054     1185.7275      339.86217      1272.4673    
    200000   400000         252.14838     -319.80073      1272.1491      1717.4849      2705.0315     -987.54663      875.67396      891.29304      1673.3238      0             -4427.8374      0              0             -144.25246      95484.359      45.706442      45.706442      45.706442      0.8785192     -436.47486     -514.02058     -8.9067425    
    200500   401000         251.03628      67.470152      1829.3613      1735.5882      2693.1009     -957.51274      883.89629      908.85537      1676.6752      0             -4426.9396      0              0             -144.5322       95299.555      45.676935      45.676935      45.676935      0.88022283     761.60107     -383.95471     -175.2359     
    201000   402000         253.55808      363.46602      2341.7542      1839.4496      2720.1547     -880.7051       931.95197      906.74616      1697.0809      0             -4416.4841      0              0             -145.35434      94760.53       45.590655      45.590655      45.590655      0.88522978     127.39748      685.07605      277.92452    
    201500   403000         245.62434     -337.81634      1261.8443      1731.7651      2635.042      -903.27695      918.0106       919.22791      1673.9111      0             -4414.4266      0              0             -144.40672      95382.365      45.690162      45.690162      45.690162      0.87945863     358.8317      -619.85256     -752.42817    
    202000   404000         253.93754     -54.016412      1663.6119      1738.4913      2724.2255     -985.73416      894.82926      889.29103      1654.5617      0             -4424.4161      0              0             -144.90868      95051.957      45.637343      45.637343      45.637343      0.88251569    -664.01758      9.8922276      492.07611    
    202500   405000         247.44453     -47.091614      1689.4287      1754.6107      2654.5689     -899.95816      903.99668      923.22225      1674.5194      0             -4401.6965      0              0             -145.12671      94909.159      45.614478      45.614478      45.614478      0.8838435      528.65318     -504.12149     -165.80654    
    203000   406000         250.85802     -127.35262      1572.9704      1749.2385      2691.1886     -941.95014      917.32877      882.04106      1695.1023      0             -4436.4223      0              0             -145.1328       94905.175      45.61384       45.61384       45.61384       0.88388061     309.67736     -346.15115     -345.58406    
    203500   407000         249.03042     -78.6354        1591.6655      1700.887       2671.5823     -970.69532      899.91099      930.97164      1615.1868      0             -4416.7648      0              0             -144.62439      95238.808      45.667228      45.667228      45.667228      0.88078427    -709.48425      323.34803      150.23002    
    204000   408000         250.97507     -163.64895      1568.5928      1795.8942      2692.4443     -896.55012      898.62282      947.00503      1679.5167      0             -4421.6947      0              0             -144.62469      95238.607      45.667196      45.667196      45.667196      0.88078613     3.9120843     -241.63122     -253.22772    
    204500   409000         249.17818     -209.10893      1447.3838      1737.7837      2673.1674     -935.38366      912.87502      911.98261      1642.1233      0             -4402.3646      0              0             -144.64634      95224.353      45.664917      45.664917      45.664917      0.88091797    -285.24062     -359.78063      17.694464    
    205000   410000         248.56615     -286.08603      1325.2996      1720.6174      2666.6015     -945.9842       917.43875      925.31033      1643.5419      0             -4432.2751      0              0             -145.37231      94748.812      45.588775      45.588775      45.588775      0.88533927     478.88568     -798.42464     -538.71912    
    205500   411000         253.86541      66.014022      1892.2689      1800.9719      2723.4517     -922.47975      916.07647      908.17695      1689.3087      0             -4436.0419      0              0             -145.24831      94829.699      45.601745      45.601745      45.601745      0.88458409    -447.97519      778.2973      -132.28005    
    206000   412000         255.32996     -10.803344      1801.0811      1816.0724      2739.1633     -923.09089      883.46724      946.59544      1651.9571      0             -4405.1107      0              0             -144.75981      95149.71       45.652983      45.652983      45.652983      0.88160903     76.932493     -40.731584     -68.610941    
    206500   413000         253.5461       613.97391      2544.9947      1696.9111      2720.0262     -1023.1151      878.19131      910.82624      1635.7665      0             -4447.8991      0              0             -145.42618      94713.715      45.583145      45.583145      45.583145      0.88566734     730.92781      684.17872      426.81519    
    207000   414000         252.34406     -271.90949      1439.8843      1818.5179      2707.1308     -888.61285      930.69845      888.91631      1676.3297      0             -4384.5574      0              0             -144.25689      95481.43       45.705974      45.705974      45.705974      0.87854616    -445.7236       10.72129      -380.72615    
    207500   415000         247.83647     -332.1182       1302.8955      1764.8404      2658.7736     -893.93327      889.28956      917.35906      1706.1066      0             -4406.6885      0              0             -144.42218      95372.15       45.688531      45.688531      45.688531      0.87955282    -53.43434      -440.96589     -501.95438    
    208000   416000         248.15895      125.92612      1880.2801      1706.0057      2662.2332     -956.22743      890.28805      872.77469      1696.78        0             -4416.0702      0              0             -145.14885      94894.682      45.612159      45.612159      45.612159      0.88397834    -1.0784071      230.29371      148.56304    
    208500   417000         250.44345      324.70593      2185.9423      1735.7228      2686.7411     -951.0183       905.32189      873.56853      1702.2093      0             -4432.118       0              0             -144.87629      95073.208      45.640744      45.640744      45.640744      0.88231843     781.81032      529.76286     -337.45539    
    209000   418000         248.98566     -206.0959       1424.1401      1708.931       2671.102      -962.17104      919.468        888.46836      1661.9828      0             -4432.0903      0              0             -145.36992      94750.372      45.589025      45.589025      45.589025      0.88532469    -338.28332     -196.35773     -83.646645    
    209500   419000         255.57003      336.85767      2202.6886      1736.7334      2741.7388     -1005.0054      915.04706      883.15064      1642.3268      0             -4445.5299      0              0             -145.2224       94846.62       45.604457      45.604457      45.604457      0.88442628     544.38241      329.629        136.5616     
    210000   420000         249.87486     -22.653713      1763.1744      1794.511       2680.6413     -886.13037      959.70368      886.31427      1683.252       0             -4415.4003      0              0             -145.2177       94849.691      45.604949      45.604949      45.604949      0.88439765    -179.45583     -322.13372      433.62842    
    210500   421000         250.22287      123.27742      1866.5439      1696.1707      2684.3747     -988.20404      890.46459      887.13767      1657.315       0             -4423.1213      0              0             -145.34954      94763.658      45.591156      45.591156      45.591156      0.88520057     468.24866      858.07067     -956.48707    
    211000   422000         256.28934      12.844069      1844.6262      1826.7482      2749.4555     -922.70729      922.57709      904.5783       1674.6111      0             -4424.4738      0              0             -144.31674      95441.829      45.699655      45.699655      45.699655      0.87891069     228.87532     -254.43117      64.088063    
    211500   423000         246.80733     -455.92465      1051.31        1685.3776      2647.7331     -962.35548      927.86354      901.59002      1623.753       0             -4415.5621      0              0             -144.44047      95360.073      45.686602      45.686602      45.686602      0.87966422    -188.18248     -515.55216     -664.03931    
    212000   424000         250.04365      1035.5073      3198.3954      1757.6039      2682.4521     -924.84817      907.54604      895.27355      1665.4099      0             -4393.0776      0              0             -144.37214      95405.206      45.693809      45.693809      45.693809      0.87924807     1282.1979     -226.96752      2051.2916    
    212500   425000         248.75482      345.74143      2279.9785      1799.8548      2668.6256     -868.77081      929.85849      917.05662      1715.2222      0             -4430.9082      0              0             -144.65375      95219.471      45.664137      45.664137      45.664137      0.88096313     418.16615      329.31471      289.74344    
    213000   426000         247.04072     -412.3946       1094.8986      1667.5339      2650.2369     -982.70306      905.71809      860.56725      1685.5076      0             -4434.496       0              0             -144.66593      95211.456      45.662856      45.662856      45.662856      0.88103729    -481.87447     -605.05753     -150.2518     
    213500   427000         249.69894     -13.182069      1725.0533      1743.3599      2678.754      -935.39414      885.78542      920.09411      1674.9907      0             -4416.2644      0              0             -144.64654      95224.221      45.664896      45.664896      45.664896      0.88091919     4.7323081     -38.993359     -5.2851565    
    214000   428000         249.14754      198.81333      2059.1598      1783.5758      2672.8387     -889.26293      931.92301      882.39592      1699.792       0             -4403.3738      0              0             -144.91814      95045.755      45.636351      45.636351      45.636351      0.88257328    -150.40414      622.43019      124.41395    
    214500   429000         251.84053     -229.45278      1386.5077      1704.544       2701.7289     -997.18492      886.84216      874.16594      1695.6191      0             -4453.8121      0              0             -144.92659      95040.214      45.635464      45.635464      45.635464      0.88262473    -202.24209     -365.09012     -121.02613    
    215000   430000         254.4875      -528.76933      1085.344       1824.4917      2730.1254     -905.63371      928.33889      888.7501       1670.0178      0             -4392.7405      0              0             -143.70319      95849.329      45.764602      45.764602      45.764602      0.87517403    -1036.6282     -77.227167     -472.45262    
    215500   431000         249.17492     -283.63147      1378.2795      1772.1525      2673.1325     -900.97997      927.84225      914.87293      1684.6585      0             -4428.3537      0              0             -144.6537       95219.506      45.664143      45.664143      45.664143      0.88096281     12.892726     -420.03091     -443.75624    
    216000   432000         247.29178      300.42326      2126.348       1708.8841      2652.9303     -944.04613      931.38891      903.00166      1633.7107      0             -4412.1474      0              0             -144.55929      95281.693      45.674081      45.674081      45.674081      0.88038784     276.04427      497.23183      127.99367    
    216500   433000         249.06475     -192.54617      1463.3478      1730.1783      2671.9506     -941.77223      902.91533      855.85433      1687.6978      0             -4388.2397      0              0             -144.95416      95022.138      45.63257       45.63257       45.63257       0.88279263    -138.92749      197.62357     -636.3346     
    217000   434000         251.90291      551.55121      2567.8402      1803.1459      2702.3981     -899.25227      937.1875       916.0385       1674.0343      0             -4426.5125      0              0             -144.88697      95066.201      45.639623      45.639623      45.639623      0.88238346     676.64031     -115.43576      1093.4491    
    217500   435000         253.36343     -220.08282      1516.792       1822.8269      2718.0665     -895.23959      917.82708      909.8976       1697.4525      0             -4420.4167      0              0             -144.45963      95347.43       45.684583      45.684583      45.684583      0.87978086    -251.51421      259.34204     -668.07629    
    218000   436000         251.32645      442.69966      2296.7816      1684.6703      2696.2139     -1011.5436      908.48628      887.68121      1636.1221      0             -4443.8332      0              0             -145.28144      94808.079      45.598279      45.598279      45.598279      0.88478581     972.5129       311.70837      43.877717    
    218500   437000         244.01602      216.35695      2007.9488      1708.7922      2617.7881     -908.99586      944.34782      926.1907       1647.3744      0             -4426.9088      0              0             -145.27925      94809.504      45.598507      45.598507      45.598507      0.88477252     207.87605      171.85743      269.33737    
    219000   438000         249.43725     -417.96287      1212.905       1789.5717      2675.9467     -886.37499      940.8044       937.16886      1684.2563      0             -4448.6045      0              0             -145.59423      94604.393      45.565601      45.565601      45.565601      0.88669079    -816.47991      76.02234      -513.43104    
    219500   439000         248.47516     -26.368841      1698.8892      1735.5322      2665.6254     -930.09324      913.65436      907.45129      1649.1341      0             -4400.333       0              0             -144.55441      95284.912      45.674596      45.674596      45.674596      0.8803581     -133.23419      27.084596      27.043073    
    220000   440000         243.02229     -177.5134       1471.4131      1719.4192      2607.1274     -887.70823      922.3576       898.7156       1686.5427      0             -4395.3241      0              0             -143.78054      95797.759      45.756393      45.756393      45.756393      0.87564515     323.6664      -500.89936     -355.30725    
    220500   441000         256.73753      150.32641      1974.0891      1765.2323      2754.2636     -989.03135      921.63754      904.76125      1604.5626      0             -4419.9927      0              0             -144.58322      95265.921      45.671561      45.671561      45.671561      0.88053359    -453.99222      468.45055      436.52089    
    221000   442000         253.15438      195.54921      2057.3789      1786.5967      2715.8238     -929.2271       915.95743      891.87515      1683.7941      0             -4420.8538      0              0             -145.06655      94948.516      45.620782      45.620782      45.620782      0.88347714     486.9597      -101.85877      201.54669    
    221500   443000         253.52056     -96.254149      1702.5646      1836.1206      2719.7522     -883.63161      950.2418       883.2051       1671.9216      0             -4389.0001      0              0             -144.77297      95141.064      45.6516        45.6516        45.6516        0.88168915     804.20862     -363.96962     -729.00145    
    222000   444000         250.4589      -27.618634      1711.6182      1749.9407      2686.9069     -936.96613      911.84859      924.63992      1646.7645      0             -4420.2191      0              0             -144.77024      95142.855      45.651886      45.651886      45.651886      0.88167255     105.46955     -139.71502     -48.610439    
    222500   445000         252.53603      29.826034      1767.6205      1726.1773      2709.1903     -983.013        882.93764      876.23287      1674.0672      0             -4416.2507      0              0             -144.56824      95275.792      45.673139      45.673139      45.673139      0.88044236     55.668067      37.802828     -3.9927913    
    223000   446000         249.45968      346.92098      2187.1717      1706.4076      2676.1873     -969.77971      928.94521      880.59893      1648.7943      0             -4428.1182      0              0             -144.95391      95022.302      45.632597      45.632597      45.632597      0.88279111     361.00971     -165.80231      845.55554    
    223500   447000         253.49763      320.98557      2190.3492      1744.3085      2719.5062     -975.1977       917.9839       875.49579      1647.5806      0             -4416.258       0              0             -144.5581       95282.479      45.674207      45.674207      45.674207      0.88038058     320.67877     -124.54647      766.82442    
    224000   448000         256.86267     -616.08876      927.50861      1785.349       2755.6061     -970.25719      890.0321       889.14783      1641.7693      0             -4391.2065      0              0             -144.26739      95474.478      45.704865      45.704865      45.704865      0.87861013    -1224.1912     -865.00064      240.92557    
    224500   449000         252.72374     -305.21717      1292.8383      1717.6093      2711.2039     -993.5946       924.07877      885.75249      1589.6124      0             -4393.0383      0              0             -144.33958      95426.729      45.697244      45.697244      45.697244      0.87904977     106.16619     -642.69637     -379.12132    
    225000   450000         255.49907     -604.76326      959.33207      1799.5217      2740.9775     -941.45585      932.17252      914.46401      1631.5211      0             -4419.6135      0              0             -144.5904       95261.19       45.670805      45.670805      45.670805      0.88057732    -655.47286      108.09526     -1266.9122    
    225500   451000         245.24797     -311.08558      1248.4916      1681.4835      2631.0044     -949.52093      903.77906      910.3789       1642.4236      0             -4406.1025      0              0             -144.32166      95438.581      45.699136      45.699136      45.699136      0.8789406      725.29271     -1431.3774     -227.17208    
    226000   452000         250.95351      367.02935      2225.6146      1719.5731      2692.2131     -972.64001      900.82722      921.77111      1633.9441      0             -4429.1824      0              0             -145.69544      94538.674      45.555047      45.555047      45.555047      0.88730717     540.54768      810.18534     -249.64496    
    226500   453000         247.41011      954.21821      3042.3461      1720.6864      2654.1997     -933.51334      937.31653      900.02561      1663.0325      0             -4433.888       0              0             -145.03052      94972.108      45.62456       45.62456       45.62456       0.88325767     1009.6058      1293.3958      559.6531     
    227000   454000         245.46766     -384.02269      1146.1289      1679.3559      2633.3612     -954.00533      896.55851      921.26905      1652.842       0             -4424.6749      0              0             -144.66921      95209.298      45.662511      45.662511      45.662511      0.88105726    -158.19274     -838.64319     -155.23214    
    227500   455000         244.5625      -1.3427098      1621.3715      1623.2246      2623.6507     -1000.4261      877.74658      920.91656      1647.0238      0             -4446.113       0              0             -145.54706      94635.058      45.570523      45.570523      45.570523      0.88640347     175.90092      28.130727     -208.05977    
    228000   456000         251.51053     -45.25112       1639.4867      1701.6544      2698.1887     -996.53431      905.73489      894.46225      1660.3472      0             -4457.0786      0              0             -146.21637      94201.857      45.500883      45.500883      45.500883      0.89047972     225.31649     -537.45981      176.38996    
    228500   457000         252.92549      309.8407       2111.3811      1681.9902      2713.3683     -1031.3781      882.96518      874.63302      1645.7805      0             -4434.7568      0              0             -144.94957      95025.147      45.633052      45.633052      45.633052      0.88276468     754.10904      250.14021     -74.727156    
    229000   458000         253.54734      483.08494      2451.0358      1780.7438      2720.0395     -939.29572      913.05643      921.05941      1651.8837      0             -4425.2953      0              0             -144.77408      95140.335      45.651483      45.651483      45.651483      0.8816959     -13.530996      724.03099      738.75483    
    229500   459000         246.21064      467.48248      2323.2038      1677.4198      2641.3319     -963.91206      906.68932      898.2486       1659.3962      0             -4428.2462      0              0             -145.41508      94720.947      45.584306      45.584306      45.584306      0.88559972     669.4565       411.55148      321.43945    
    230000   460000         251.2663       169.71307      2000.5137      1763.5283      2695.5686     -932.04039      920.96958      904.07903      1634.654       0             -4391.743       0              0             -143.855        95748.176      45.748498      45.748498      45.748498      0.87609861     651.02065     -506.23449      364.35305    
    230500   461000         252.52779      1088.7795      3237.9636      1724.1286      2709.1018     -984.97313      911.40414      874.63819      1634.7604      0             -4405.7759      0              0             -144.47502      95337.269      45.68296       45.68296       45.68296       0.87987462     618.70455      818.44309      1829.1909    
    231000   462000         247.52544     -63.814929      1643.1334      1731.5459      2655.4369     -923.89095      896.3616       935.36083      1677.0475      0             -4432.6609      0              0             -144.99054      94998.297      45.628754      45.628754      45.628754      0.88301418    -89.744789     -93.879899     -7.820098     
    231500   463000         250.27159     -9.9131462      1667.4228      1681.1975      2684.8974     -1003.6999      895.03276      880.65381      1626.3748      0             -4405.7612      0              0             -144.56437      95278.349      45.673547      45.673547      45.673547      0.88041874     115.68826     -128.16087     -17.266832    
    232000   464000         251.42001     -327.61996      1231.3037      1684.3914      2697.2176     -1012.8261      897.05899      885.97913      1651.197       0             -4447.0612      0              0             -145.25109      94827.886      45.601454      45.601454      45.601454      0.88460101    -17.811502     -468.34246     -496.70592    
    232500   465000         257.64978     -592.48376      961.9115       1782.6895      2764.0502     -981.36066      893.40329      893.14863      1650.4993      0             -4418.4119      0              0             -145.00471      94989.013      45.627267      45.627267      45.627267      0.88310048    -1103.035      -651.50249     -22.913761    
    233000   466000         248.31723     -742.08103      642.12117      1677.6873      2663.9312     -986.24397      900.37013      876.05275      1619.0648      0             -4381.7317      0              0             -143.94775      95686.485      45.73867       45.73867       45.73867       0.87666345    -0.4950642     -1327.0058     -898.74227    
    233500   467000         255.92387     -79.522209      1721.0419      1831.9692      2745.5347     -913.56549      898.39506      920.49541      1676.4774      0             -4408.9333      0              0             -144.00621      95647.642      45.73248       45.73248       45.73248       0.87701946    -457.39297      357.13468     -138.30834    
    234000   468000         250.17083      88.232776      1866.9505      1744.4683      2683.8165     -939.34825      918.06191      894.16957      1668.3417      0             -4419.9215      0              0             -144.70657      95184.718      45.658581      45.658581      45.658581      0.88128479    -173.92059      194.7948       243.82412    
    234500   469000         245.47353     -175.63408      1427.2973      1670.8935      2633.4241     -962.53062      906.83116      902.38672      1643.1748      0             -4414.9233      0              0             -144.83369      95101.172      45.645218      45.645218      45.645218      0.88205899     100.38058     -403.10583     -224.17699    
    235000   470000         251.26298      529.32075      2494.6899      1763.1671      2695.533      -932.36591      898.69468      906.227        1677.2274      0             -4414.515       0              0             -145.35247      94761.745      45.590849      45.590849      45.590849      0.88521844     558.17817      319.73291      710.05116    
    235500   471000         247.47826      160.67937      1853.6322      1630.2717      2654.9308     -1024.6591      901.26267      877.95867      1624.6932      0             -4428.5736      0              0             -144.50578      95316.977      45.679719      45.679719      45.679719      0.88006194     542.86487      116.93354     -177.76029    
    236000   472000         249.32277      189.19036      2005.8533      1743.9061      2674.7186     -930.81243      920.91324      911.66422      1653.1721      0             -4416.562       0              0             -145.08306      94937.715      45.619052      45.619052      45.619052      0.88357766     442.21769     -486.89503      612.24841    
    236500   473000         243.12382     -229.55912      1318.1398      1635.3325      2608.2167     -972.88415      904.64882      883.07565      1652.5528      0             -4413.1615      0              0             -145.37936      94744.221      45.588039      45.588039      45.588039      0.88538217    -407.94599      167.38936     -448.12075    
    237000   474000         257.50872      12.962835      1829.7416      1811.8373      2762.5369     -950.69965      933.5595       865.81284      1667.841       0             -4417.913       0              0             -145.43689      94706.743      45.582027      45.582027      45.582027      0.88573253     412.02557     -654.43041      281.29334    
    237500   475000         253.53231      28.304688      1824.6028      1785.5562      2719.8782     -934.32206      914.99389      883.09643      1694.8823      0             -4427.2947      0              0             -145.61503      94590.883      45.563432      45.563432      45.563432      0.88681743    -52.845298     -62.064681      199.82404    
    238000   476000         239.67089      20.548261      1633.0004      1604.5783      2571.1738     -966.5955       915.10264      898.38948      1661.3314      0             -4441.4191      0              0             -145.22773      94843.144      45.6039        45.6039        45.6039        0.8844587     -58.494338     -275.32271      395.46183    
    238500   477000         247.72538     -37.193418      1692.4854      1743.7706      2657.5819     -913.81126      903.99743      928.65772      1697.0079      0             -4443.4743      0              0             -145.68167      94547.612      45.556483      45.556483      45.556483      0.8872233     -679.62461     -31.48206       599.52641    
    239000   478000         245.90568     -181.72453      1381.7392      1633.8992      2638.0603     -1004.1611      868.26249      906.2258       1661.1414      0             -4439.7908      0              0             -144.76673      95145.16       45.652255      45.652255      45.652255      0.88165119     362.97609     -345.50495     -562.64474    
    239500   479000         245.40223      233.22425      2021.6679      1699.1487      2632.6592     -933.51054      926.08185      900.35014      1682.2164      0             -4442.1589      0              0             -145.26114      94821.323      45.600402      45.600402      45.600402      0.88466223     370.51197      393.03984     -63.879074    
    240000   480000         254.27374      388.48567      2331.2242      1793.6252      2727.8322     -934.20705      909.00349      896.70041      1698.0547      0             -4437.9656      0              0             -145.16031      94887.192      45.610958      45.610958      45.610958      0.88404812     924.74319      205.37405      35.339768    
    240500   481000         248.10846     -457.13093      1106.47        1739.7179      2661.6915     -921.97363      929.06656      898.81816      1690.641       0             -4440.4993      0              0             -145.01008      94985.492      45.626703      45.626703      45.626703      0.88313322    -699.00904     -248.98765     -423.39612    
    241000   482000         247.23423      382.87448      2281.7121      1751.0515      2652.3129     -901.26135      940.16557      914.52412      1679.2648      0             -4435.2159      0              0             -144.93423      95035.206      45.634662      45.634662      45.634662      0.88267125    -109.31851      363.4909       894.45105    
    241500   483000         248.8222       335.2206       2201.0794      1737.3414      2669.3485     -932.00712      897.70591      918.97337      1683.1558      0             -4431.8422      0              0             -145.20758      94856.3        45.606008      45.606008      45.606008      0.88433602     995.64867      272.29117     -262.27805    
    242000   484000         246.81194     -272.9781       1248.4098      1625.036       2647.7825     -1022.7465      897.03423      876.88541      1655.2484      0             -4451.9146      0              0             -145.59575      94603.408      45.565443      45.565443      45.565443      0.88670001    -165.56617     -1124.6614      471.29329    
    242500   485000         253.46975     -410.86141      1230.9013      1800.8017      2719.207      -918.40536      921.84919      870.14162      1701.4212      0             -4411.8174      0              0             -144.81974      95110.337      45.646685      45.646685      45.646685      0.881974      -284.05306     -277.37747     -671.15369    
    243000   486000         247.85935      311.32923      2173.8363      1742.1633      2659.0191     -916.85578      925.71707      911.30985      1663.3065      0             -4417.1892      0              0             -144.87598      95073.412      45.640777      45.640777      45.640777      0.88231653     231.1524       628.76768      74.067612    
    243500   487000         255.17106      428.97756      2406.5466      1812.5185      2737.4587     -924.94024      929.47021      891.9146       1685.8888      0             -4432.2138      0              0             -145.06374      94950.355      45.621077      45.621077      45.621077      0.88346003     159.29078      614.96118      512.68071    
    244000   488000         251.74021     -459.83069      1113.6007      1746.7449      2700.6528     -953.9079       906.95924      915.50415      1672.3234      0             -4448.6947      0              0             -145.89039      94412.345      45.534747      45.534747      45.534747      0.88849444    -649.18766     -380.38581     -349.91861    
    244500   489000         252.3162       77.772447      1903.1289      1795.4005      2706.8319     -911.43141      916.92192      912.79898      1683.2992      0             -4424.4515      0              0             -145.0196       94979.261      45.625706      45.625706      45.625706      0.88319116     607.9235      -373.64257     -0.96358541   
    245000   490000         251.85167      279.56463      2189.6062      1803.8383      2701.8484     -898.01008      878.21835      929.86631      1726.9145      0             -4433.0093      0              0             -145.57525      94616.731      45.567582      45.567582      45.567582      0.88657516    -11.168521     -20.199907      870.06231    
    245500   491000         243.33206     -154.12798      1479.8049      1693.2503      2610.4506     -917.20032      893.78841      946.4835       1690.7505      0             -4448.2228      0              0             -145.05278      94957.532      45.622226      45.622226      45.622226      0.88339326    -323.61999     -74.685377     -64.078562    
    246000   492000         251.44172     -403.45055      1272.55        1834.2543      2697.4505     -863.19625      906.24626      915.82655      1714.3592      0             -4399.6283      0              0             -144.2826       95464.413      45.703259      45.703259      45.703259      0.87870277    -225.55375     -510.01557     -474.78233    
    246500   493000         246.59027      567.01396      2458.4333      1676.2152      2645.4045     -969.1893       915.59423      905.15451      1656.5651      0             -4446.5031      0              0             -145.61202      94592.834      45.563745      45.563745      45.563745      0.88679914     729.97048      369.30028      601.77113    
    247000   494000         250.33526      622.17886      2578.1213      1718.5145      2685.5805     -967.06596      892.45622      917.40392      1639.0607      0             -4415.9868      0              0             -145.3941       94734.615      45.586498      45.586498      45.586498      0.88547194     608.80384      447.82006      809.91268    
    247500   495000         255.57986      707.41943      2790.7983      1810.4159      2741.8443     -931.42832      882.1608       932.30285      1686.1559      0             -4432.0479      0              0             -144.94822      95026.032      45.633194      45.633194      45.633194      0.88275646     673.94391      471.13363      977.18077    
    248000   496000         255.09039      47.200839      1885.123       1819.771       2736.5933     -916.82232      925.75763      904.01144      1663.6365      0             -4410.2279      0              0             -145.08474      94936.614      45.618876      45.618876      45.618876      0.8835879      361.17048      353.34557     -572.91354    
    248500   497000         246.51102      62.030595      1778.0284      1691.7118      2644.5543     -952.84247      894.45748      920.12148      1656.3888      0             -4423.8103      0              0             -144.35877      95414.042      45.695219      45.695219      45.695219      0.87916665    -192.66794     -783.09371      1161.8534    
    249000   498000         249.5241       25.511859      1817.1064      1781.7277      2676.8784     -895.1507       919.55221      924.76423      1688.1317      0             -4427.5988      0              0             -144.85443      95087.56       45.643041      45.643041      45.643041      0.88218525    -153.15521      475.58538     -245.8946     
    249500   499000         244.29572      123.76059      1888.8957      1717.9615      2620.7887     -902.82713      914.03277      893.84558      1710.4375      0             -4421.143       0              0             -145.44032      94704.506      45.581668      45.581668      45.581668      0.88575346    -54.239296      293.77279      131.74827    
    250000   500000         252.46906      619.22837      2643.1049      1784.8483      2708.4717     -923.62349      912.86593      919.20487      1668.7935      0             -4424.4878      0              0             -144.93225      95036.501      45.634869      45.634869      45.634869      0.88265922     668.45567      205.6157       983.61375    
Loop time of 130.721 on 1 procs for 250000 steps with 3600 atoms

Performance: 330.475 ns/day, 0.073 hours/ns, 1912.471 timesteps/s, 6.885 Matom-step/s
98.6% CPU use with 1 MPI tasks x 1 OpenMP threads

MPI task timing breakdown:
Section |  min time  |  avg time  |  max time  |%varavg| %total
---------------------------------------------------------------
Pair    | 14.436     | 14.436     | 14.436     |   0.0 | 11.04
Bond    | 91.053     | 91.053     | 91.053     |   0.0 | 69.65
Neigh   | 0.019946   | 0.019946   | 0.019946   |   0.0 |  0.02
Comm    | 9.2236     | 9.2236     | 9.2236     |   0.0 |  7.06
Output  | 0.02529    | 0.02529    | 0.02529    |   0.0 |  0.02
Modify  | 13.599     | 13.599     | 13.599     |   0.0 | 10.40
Other   |            | 2.364      |            |       |  1.81

Nlocal:           3600 ave        3600 max        3600 min
Histogram: 1 0 0 0 0 0 0 0 0 0
Nghost:          14076 ave       14076 max       14076 min
Histogram: 1 0 0 0 0 0 0 0 0 0
Neighs:              0 ave           0 max           0 min
Histogram: 1 0 0 0 0 0 0 0 0 0

Total # of neighbors = 0
Ave neighs/atom = 0
Ave special neighs/atom = 5.9666667
Neighbor list builds = 5722
Dangerous builds = 0
WARNING: No fixes with time integration, atoms won't move
For more information see https://docs.lammps.org/err0028 (src/verlet.cpp:60)


---------------------------------------------------------------------
      Device Time Info (average): 
---------------------------------------------------------------------
Data Transfer:   11.8771 s.
Neighbor copy:   0.4473 s.
Neighbor build:  3.9208 s.
Force calc:      36.0037 s.
Device Overhead: 11.5848 s.
CPU Neighbor:    0.6457 s.
CPU Cast/Pack:   4.7659 s.
CPU Driver_Time: 3.6591 s.
CPU Idle_Time:   1.0052 s.
Average split:   1.0000.
Max Mem / Proc:  37.68 MB.
Prefetch mode:   None.
Vector width:    32.
Lanes / atom:    4.
Pair block:      256.
Neigh block:     128.
Neigh mode:      Hybrid (binning on host) with subgroup support.
Neigh sorting:   Unavailable or disabled.
---------------------------------------------------------------------


--------------------------------------------------------------------------
- Using acceleration for lj/cut:
-  with 1 proc(s) per device.
-  with 1 thread(s) per proc.
-  Horizontal vector operations: ENABLED
-  Shared memory system: No
--------------------------------------------------------------------------
Device 0: NVIDIA A800 40GB Active, 108 CUs, 39/39 GB, 1.4 GHZ (Mixed Precision)
--------------------------------------------------------------------------

Initializing Device and compiling on process 0...Done.
Initializing Device 0 on core 0...Done.

Generated 1 of 1 mixed pair_coeff terms from arithmetic mixing rule
Setting up Verlet run ...
  Unit style    : real
  Current step  : 250000
  Time step     : 2
Per MPI rank memory allocation (min/avg/max) = 14.68 | 14.68 | 14.68 Mbytes
   Step          Time           Temp          Press         Enthalpy        TotEng         KinEng         PotEng         E_bond        E_angle        E_dihed        E_impro         E_vdwl         E_coul         E_long         E_tail         Volume           Lx             Ly             Lz          Density          Pxx            Pyy            Pzz      
    250000   500000         252.46906      619.22838      2643.1049      1784.8483      2708.4717     -923.62349      912.86593      919.20487      1668.7935      0             -4424.4878      0              0             -144.93225      95036.501      45.634869      45.634869      45.634869      0.88265922     668.45568      205.61571      983.61376    
Loop time of 1.112e-06 on 1 procs for 0 steps with 3600 atoms

179.9% CPU use with 1 MPI tasks x 1 OpenMP threads

MPI task timing breakdown:
Section |  min time  |  avg time  |  max time  |%varavg| %total
---------------------------------------------------------------
Pair    | 0          | 0          | 0          |   0.0 |  0.00
Bond    | 0          | 0          | 0          |   0.0 |  0.00
Neigh   | 0          | 0          | 0          |   0.0 |  0.00
Comm    | 0          | 0          | 0          |   0.0 |  0.00
Output  | 0          | 0          | 0          |   0.0 |  0.00
Modify  | 0          | 0          | 0          |   0.0 |  0.00
Other   |            | 1.112e-06  |            |       |100.00

Nlocal:           3600 ave        3600 max        3600 min
Histogram: 1 0 0 0 0 0 0 0 0 0
Nghost:          14067 ave       14067 max       14067 min
Histogram: 1 0 0 0 0 0 0 0 0 0
Neighs:              0 ave           0 max           0 min
Histogram: 1 0 0 0 0 0 0 0 0 0

Total # of neighbors = 0
Ave neighs/atom = 0
Ave special neighs/atom = 5.9666667
Neighbor list builds = 0
Dangerous builds = 0
System init for write_data ...


---------------------------------------------------------------------
      Device Time Info (average): 
---------------------------------------------------------------------
Data Transfer:   0.0001 s.
Neighbor copy:   0.0001 s.
Neighbor build:  0.0007 s.
Force calc:      0.0002 s.
Device Overhead: 0.0000 s.
CPU Neighbor:    0.0001 s.
CPU Cast/Pack:   0.0000 s.
CPU Driver_Time: 0.0000 s.
CPU Idle_Time:   0.0001 s.
Average split:   1.0000.
Max Mem / Proc:  37.37 MB.
Prefetch mode:   None.
Vector width:    32.
Lanes / atom:    4.
Pair block:      256.
Neigh block:     128.
Neigh mode:      Hybrid (binning on host) with subgroup support.
Neigh sorting:   Unavailable or disabled.
---------------------------------------------------------------------


--------------------------------------------------------------------------
- Using acceleration for lj/cut:
-  with 1 proc(s) per device.
-  with 1 thread(s) per proc.
-  Horizontal vector operations: ENABLED
-  Shared memory system: No
--------------------------------------------------------------------------
Device 0: NVIDIA A800 40GB Active, 108 CUs, 39/39 GB, 1.4 GHZ (Mixed Precision)
--------------------------------------------------------------------------

Initializing Device and compiling on process 0...Done.
Initializing Device 0 on core 0...Done.

Generated 1 of 1 mixed pair_coeff terms from arithmetic mixing rule
STAGE COMPLETE: Tg step T=250.0K P=1.0atm steps=250000
Cuda driver error 4 in call at file '/home/alexzhao/lammps/lib/gpu/geryon/nvd_timer.h' in line 98.
Cuda driver error 4 in call at file '/home/alexzhao/lammps/lib/gpu/geryon/nvd_timer.h' in line 99.
Cuda driver error 4 in call at file '/home/alexzhao/lammps/lib/gpu/geryon/nvd_timer.h' in line 98.
Cuda driver error 4 in call at file '/home/alexzhao/lammps/lib/gpu/geryon/nvd_timer.h' in line 99.
Cuda driver error 4 in call at file '/home/alexzhao/lammps/lib/gpu/geryon/nvd_timer.h' in line 98.
Cuda driver error 4 in call at file '/home/alexzhao/lammps/lib/gpu/geryon/nvd_timer.h' in line 99.
