LAMMPS (22 Jul 2025 - Update 3)
KOKKOS mode with Kokkos version 4.6.2 is enabled
  will use up to 1 GPU(s) per node
  using 1 OpenMP thread(s) per MPI task
Reading data file ...
  orthogonal box = (4.5705028 4.5705028 4.5705028) to (46.167477 46.167477 46.167477)
  1 by 1 by 1 MPI processor grid
  reading atoms ...
  6140 atoms
  reading velocities ...
  6140 velocities
  scanning bonds ...
  3 = max bonds/atom
  scanning angles ...
  9 = max angles/atom
  scanning dihedrals ...
  18 = max dihedrals/atom
  scanning impropers ...
  4 = max impropers/atom
  orthogonal box = (4.5705028 4.5705028 4.5705028) to (46.167477 46.167477 46.167477)
  1 by 1 by 1 MPI processor grid
  reading bonds ...
  6670 bonds
  reading angles ...
  10620 angles
  reading dihedrals ...
  15820 dihedrals
  reading impropers ...
  3420 impropers
Finding 1-2 1-3 1-4 neighbors ...
  special bond factors lj:    0        0        1       
  special bond factors coul:  0        0        1       
     3 = max # of 1-2 neighbors
     6 = max # of 1-3 neighbors
     9 = max # of special neighbors
  special bonds CPU = 0.003 seconds
  read_data CPU = 0.188 seconds
PPPM Kokkos initialization ...
  using 12-bit tables for long-range coulomb
  G vector (1/distance) = 0.30702493
  grid = 32 32 32
  stencil order = 5
  estimated absolute RMS force accuracy = 0.00038197405
  estimated relative force accuracy = 1.1503035e-06
  using double precision cuFFT
  3d grid and FFT values/proc = 59319 32768
Generated 21 of 21 mixed pair_coeff terms from sixthpower/sixthpower mixing rule
Neighbor list info ...
  update: every = 1 steps, delay = 0 steps, check = yes
  max neighbors/atom: 4000, page size: 100000
  master list distance cutoff = 11.5
  ghost atom cutoff = 11.5
  binsize = 11.5, bins = 4 4 4
  1 neighbor lists, perpetual/occasional/extra = 1 0 0
  (1) pair lj/class2/coul/long/kk, perpetual
      attributes: full, newton off, kokkos_device
      pair build: full/bin/kk/device
      stencil: full/bin/3d
      bin: kk/device
Setting up Verlet run ...
  Unit style    : real
  Current step  : 0
  Time step     : 1
Per MPI rank memory allocation (min/avg/max) = 28.85 | 28.85 | 28.85 Mbytes
   Step          Time           Temp          Press         Enthalpy        TotEng         KinEng         PotEng         E_bond        E_angle        E_dihed        E_impro         E_vdwl         E_coul         E_long         E_tail         Volume           Lx             Ly             Lz          Density          Pxx            Pyy            Pzz      
         0   0              297.72119     -905.99882      18009.434      18960.452      5448.0574      13512.395      2777.4725      4092.6881      3672.4342      314.64186     -1011.1868      11081.009     -7414.6638     -552.42551      71975.591      41.596975      41.596975      41.596975      1.197728      -1910.0012      376.36979     -1184.365     
      1000   1000           304.42168      1129.519       20260.965      19081.85       5570.671       13511.179      2814.4494      4104.314       3542.8089      308.68491     -917.75385      11080.603     -7421.928      -555.48493      71579.173      41.520467      41.520467      41.520467      1.2043613      2019.2695      1920.6408     -551.35316    
      2000   2000           300.92687     -830.44219      18278.192      19150.732      5506.7189      13644.013      2871.9644      4079.3631      3624.6666      296.99551     -900.90419      11090.633     -7418.7051     -551.8982       72044.359      41.610218      41.610218      41.610218      1.1965848     -1743.6797     -907.41712      159.77028    
      3000   3000           300.56041     -1388.3753      17618.965      19081.759      5500.0129      13581.746      2728.9107      4167.0948      3697.531       302.17671     -977.44606      11082.721     -7419.2421     -550.37481      72243.771      41.648574      41.648574      41.648574      1.1932819     -1384.9249     -2690.9357     -89.265327    
      4000   4000           299.73427      470.76688      19479.829      18987.011      5484.8953      13502.116      2796.7027      4160.5252      3536.574       298.104       -962.74537      11090.366     -7417.4103     -553.92962      71780.151      41.55929       41.55929       41.55929       1.2009891     -46.355595      314.35177      1144.3045    
      5000   5000           297.29738      1507.4897      20636.448      19058.399      5440.302       13618.097      2891.9235      4077.1124      3581.4014      307.15297     -907.46831      11086.036     -7418.0605     -553.94775      71777.802      41.558837      41.558837      41.558837      1.2010285      949.55105      2594.9888      977.92938    
      6000   6000           304.99247      872.86411      20126.939      19214.397      5581.116       13633.281      2880.0969      4098.7294      3604.8081      331.58252     -952.64383      11086.426     -7415.7186     -554.66211      71685.358      41.540988      41.540988      41.540988      1.2025773      2155.5107     -1267.8943      1730.9759    
      7000   7000           295.98831      1468.2943      20566.538      19028.191      5416.3473      13611.844      2867.1424      4131.8214      3491.41        311.10137     -864.21502      11092.221     -7417.6371     -553.46935      71839.844      41.570807      41.570807      41.570807      1.1999912      1901.9826      891.75566      1611.1446    
      8000   8000           299.36356     -949.48376      18133.626      19131.284      5478.1115      13653.172      2875.4652      4115.4944      3687.5463      293.34017     -972.82371      11077.453     -7423.3027     -551.87471      72047.426      41.610809      41.610809      41.610809      1.1965338     -641.38909     -386.18887     -1820.8733    
      9000   9000           295.14988      442.4056       19398.309      18933.298      5401.0046      13532.294      2786.6185      4149.482       3605.4582      303.5424      -972.16744      11078.888     -7419.5276     -551.68621      72072.043      41.615547      41.615547      41.615547      1.1961252     -626.83664      1773.3432      180.7103     
     10000   10000          299.32529     -222.31988      18864.755      19096.993      5477.4113      13619.581      2818.6638      4178.2281      3615.5977      306.72072     -965.21823      11085.462     -7419.8731     -555.11178      71627.289      41.529768      41.529768      41.529768      1.2035522      434.93339     -675.70347     -426.18958    
     11000   11000          305.5429      -917.10817      18307.398      19267.908      5591.1884      13676.72       2850.9395      4110.0728      3671.6647      323.92738     -953.75987      11091.802     -7417.926      -553.67273      71813.455      41.565717      41.565717      41.565717      1.2004322     -1484.1054     -1486.481       219.26183    
     12000   12000          296.41496      125.85644      19075.604      18944.203      5424.1544      13520.049      2798.2895      4140.2827      3563.8606      311.63745     -959.82657      11084.253     -7418.4481     -555.40918      71588.936      41.522354      41.522354      41.522354      1.204197       757.81234     -1378.3083      998.06526    
     13000   13000          298.95983      677.3013       19777.781      19066.941      5470.7236      13596.218      2934.3841      4139.2151      3495.9768      301.80548     -936.50429      11082.899     -7421.5583     -552.51598      71963.805      41.594704      41.594704      41.594704      1.1979242      1254.2472      524.29509      253.36161    
     14000   14000          294.86217     -347.97475      18633.048      18997.496      5395.7398      13601.756      2821.6316      4107.1899      3625.5023      320.10068     -940.41999      11088.276     -7420.5241     -553.66473      71814.493      41.565917      41.565917      41.565917      1.2004148     -995.73522      71.174574     -119.36359    
     15000   15000          296.49649     -626.80009      18350.186      19005.509      5425.6464      13579.862      2811.1436      4096.0375      3658.5776      295.71543     -921.74639      11062.226     -7422.0915     -554.63706      71688.596      41.541613      41.541613      41.541613      1.202523       362.72569     -439.4873      -1803.6386    
     16000   16000          295.83823     -296.46933      18585.782      18896.026      5413.6009      13482.425      2770.7165      4090.0728      3622.1287      301.00315     -963.37839      11080.402     -7418.5198     -554.13053      71754.126      41.554267      41.554267      41.554267      1.2014248     -1389.3956     -600.43029      1100.4179    
     17000   17000          300.41571      738.12114      19838.182      19066.941      5497.365       13569.576      2837.8792      4087.0408      3618.7131      311.36739     -937.26932      11073.036     -7421.1914     -554.97307      71645.192      41.533228      41.533228      41.533228      1.2032515      616.03485      642.43029      955.89828    
     18000   18000          298.63357     -41.060438      18948.785      18991.86       5464.7533      13527.106      2811.6224      4071.4924      3637.883       305.09391     -958.33117      11081.636     -7422.2897     -552.76234      71931.731      41.588524      41.588524      41.588524      1.1984583      2178.8102     -1525.2777     -776.7139     
     19000   19000          295.98621      31.520516      19104.47       19071.42       5416.3088      13655.111      2829.7839      4147.6699      3633.6158      311.31279     -939.09832      11089.795     -7417.9681     -553.04793      71894.586      41.581364      41.581364      41.581364      1.1990775     -175.32112     -832.38526      1102.2679    
     20000   20000          297.8049      -770.67468      18248.391      19054.176      5449.5894      13604.587      2854.5799      4022.9447      3708.2838      316.66806     -969.25623      11092.843     -7421.4768     -554.60899      71692.224      41.542314      41.542314      41.542314      1.2024621     -138.33533     -1648.3456     -525.34316    
     21000   21000          297.48016     -561.53052      18374.451      18961.637      5443.6469      13517.99       2810.4695      4076.9387      3615.4439      310.77315     -959.71946      11085.111     -7421.026      -554.53946      71701.213      41.54405       41.54405       41.54405       1.2023114      328.91811     -1246.4537     -767.05596    
     22000   22000          298.68958     -787.12425      18267.894      19092.996      5465.7782      13627.217      2889.3471      4076.3838      3619.9379      321.12262     -939.48144      11077.427     -7417.5194     -553.18533      71876.728      41.577921      41.577921      41.577921      1.1993754     -1534.5265      928.05931     -1754.9056    
     23000   23000          303.81784      1639.1981      20914.883      19201.839      5559.6213      13642.218      2942.785       4010.0766      3619.3631      310.26105     -901.26823      11081.328     -7420.3275     -554.8784       71657.416      41.53559       41.53559       41.53559       1.2030462      1385.9412      2093.2682      1438.3849    
     24000   24000          301.28104     -98.064582      18902.384      19004.898      5513.1998      13491.698      2788.6123      4106.721       3578.5805      316.62147     -955.68336      11076.958     -7420.1114     -554.70819      71679.404      41.539838      41.539838      41.539838      1.2026772      183.56042     -1301.668       823.91385    
     25000   25000          304.04585     -1093.7856      17976.329      19125.766      5563.7936      13561.973      2811.0028      3999.3951      3704.5         319.66343     -946.39827      11093.807     -7419.998      -551.80031      72057.139      41.612679      41.612679      41.612679      1.1963725     -1780.2446     -1335.6473     -165.46485    
     26000   26000          298.50809     -131.15189      18881.857      19019.021      5462.457       13556.563      2787.9221      4080.2122      3599.8012      312.31308     -875.32095      11074.216     -7422.5806     -554.4609       71711.373      41.546012      41.546012      41.546012      1.202141      -265.83292      725.83383     -853.45659    
     27000   27000          302.7926       376.71669      19475.115      19081.014      5540.8602      13540.154      2904.1387      4051.5662      3617.5036      302.16787     -991.29181      11074.835     -7418.7656     -554.29717      71732.554      41.550102      41.550102      41.550102      1.2017861     -1366.0171      3744.4323     -1248.2651    
     28000   28000          300.57406     -35.925949      19135.297      19173.037      5500.2627      13672.774      2830.3271      4117.7005      3683.4036      323.546       -960.79631      11097.371     -7418.7784     -552.01418      72029.222      41.607304      41.607304      41.607304      1.1968362      123.70847     -277.99724      46.510918    
     29000   29000          303.84135      793.20879      19948.022      19117.925      5560.0514      13557.874      2856.4089      4077.5217      3566.5608      301.21676     -894.24035      11073.252     -7422.8462     -554.10699      71757.174      41.554855      41.554855      41.554855      1.2013737     -91.619702      392.16766      2079.0784    
     30000   30000          298.94709      371.46909      19490.891      19103.369      5470.4904      13632.879      2873.0861      4109.0886      3616.9321      300.70958     -932.23459      11084.295     -7418.9979     -555.85393      71531.656      41.511277      41.511277      41.511277      1.2051613      206.95543      367.93539      539.51644    
     31000   31000          300.25242     -832.02394      18160.351      19031.44       5494.377       13537.063      2785.8684      4100.2819      3668.8674      321.60718     -988.04023      11069.868     -7421.3894     -553.87014      71787.86       41.560778      41.560778      41.560778      1.2008602     -1870.4659     -1215.2072      589.60123    
     32000   32000          297.22909      889.48284      20051.004      19117.277      5439.0524      13678.225      2881.4983      4068.0058      3618.8669      308.67717     -861.20025      11083.075     -7420.6987     -552.39865      71979.09       41.597649      41.597649      41.597649      1.1976698      501.40089      1536.5542      630.49344    
     33000   33000          299.58049      666.42129      19710.037      19011.255      5482.0812      13529.174      2859.411       4053.025       3541.7903      309.36356     -900.44225      11083.236     -7417.2091     -553.02158      71898.012      41.582024      41.582024      41.582024      1.1990204     -506.41545      865.59013      1640.0892    
     34000   34000          301.23211     -187.42442      18954.619      19150.049      5512.3044      13637.745      2801.291       4145.0134      3674.4844      312.99577     -963.06643      11085.592     -7418.5653     -556.12179      71497.201      41.504611      41.504611      41.504611      1.2057421     -613.70631      122.33081     -70.897746    
     35000   35000          298.83064      126.638        19177.053      19045.307      5468.3595      13576.947      2800.934       4144.8952      3635.0246      323.38431     -993.07378      11082.461     -7416.678      -557.38897      71334.659      41.473135      41.473135      41.473135      1.2084894     -126.39691      727.90112     -221.5902     
     36000   36000          295.28523      807.02547      19738.546      18895.718      5403.4814      13492.236      2790.5988      4131.8111      3566.9407      301.05019     -952.12293      11074.173     -7420.2147     -555.24277      71610.391      41.526502      41.526502      41.526502      1.2038362      1039.2511      1302.4828      79.34253     
     37000   37000          302.46512     -455.64963      18643.292      19121.737      5534.8676      13586.869      2847.9258      4118.5551      3605.5633      304.18717     -935.29692      11065.884     -7419.9493     -552.24787      71998.742      41.601434      41.601434      41.601434      1.1973429     -1484.0095     -41.407658      158.46824    
     38000   38000          301.88834     -603.35325      18539.675      19172.424      5524.313       13648.111      2831.9624      4172.3579      3669.0727      306.09987     -992.53769      11078.964     -7417.8083     -552.93636      71909.092      41.58416       41.58416       41.58416       1.1988356     -1241.3999     -358.41138     -210.24846    
     39000   39000          306.35963      1205.9383      20398.914      19138.812      5606.134       13532.678      2827.5132      4122.4787      3564.8149      309.27051     -951.52655      11081.287     -7421.1603     -554.95022      71648.142      41.533798      41.533798      41.533798      1.2032019      536.37123      1752.5586      1328.885     
     40000   40000          299.37005     -892.47749      18168.172      19108.262      5478.2302      13630.032      2833.3425      4135.0098      3613.5966      294.36468     -913.64617      11085.835     -7418.471      -550.50695      72226.431      41.645241      41.645241      41.645241      1.1935684     -1442.4848     -1587.311       352.36327    
     41000   41000          301.51915      359.08266      19437.301      19060.984      5517.557       13543.427      2773.6476      4152.1605      3555.2244      303.03594     -916.40464      11094.712     -7418.9486     -553.31863      71859.413      41.574582      41.574582      41.574582      1.1996645      1016.2314     -15.334233      76.350781    
     42000   42000          300.75055      892.93929      20000.135      19064.837      5503.4924      13561.345      2821.1707      4093.3341      3576.9535      306.28687     -904.22271      11089.188     -7421.365      -553.61366      71821.119      41.567195      41.567195      41.567195      1.2003041      3205.8404     -818.08589      291.06333    
     43000   43000          308.49065      836.67532      20131.541      19253.254      5645.1298      13608.124      2853.6121      4087.0206      3602.8315      316.02187     -904.61049      11076.617     -7423.3685     -552.40259      71978.576      41.59755       41.59755       41.59755       1.1976784      1182.763      -760.83944      2088.1024    
     44000   44000          300.46001     -824.4449       18197.735      19065.047      5498.1756      13566.871      2736.8701      4187.6527      3628.5462      298.2982      -944.69276      11078.199     -7418.0019     -551.2153       72133.614      41.627395      41.627395      41.627395      1.1951042     -861.47319      259.85638     -1871.7179    
     45000   45000          305.05877      422.23343      19622.067      19180.926      5582.3293      13598.597      2877.6907      4071.8677      3626.593       303.3362      -936.97621      11073.677     -7417.5907     -555.02272      71638.782      41.531989      41.531989      41.531989      1.2033591     -788.69372      1063.1479      992.24609    
     46000   46000          303.19662     -154.73115      18888.322      19050.634      5548.2534      13502.38       2739.7357      4125.516       3669.3193      297.15848     -988.04847      11080.709     -7422.0091     -552.79112      71927.986      41.587802      41.587802      41.587802      1.1985207      357.98557     -366.69457     -455.48446    
     47000   47000          298.60641      321.42298      19367.135      19032.342      5464.2562      13568.086      2823.2771      4091.6105      3671.8514      317.30955     -996.2382       11079.463     -7419.1876     -556.71769      71420.673      41.489797      41.489797      41.489797      1.207034       242.67543      341.81538      379.77813    
     48000   48000          297.16161     -637.23189      18398.978      19065.106      5437.8176      13627.288      2850.8662      4086.83        3684.8767      297.09283     -960.53188      11085.459     -7417.3048     -554.72107      71677.738      41.539516      41.539516      41.539516      1.2027051     -1684.5268     -543.95008      316.78119    
     49000   49000          296.40468      868.88352      19951.257      19044.719      5423.9665      13620.752      2914.003       4087.3304      3602.6487      305.73543     -968.2271       11096.133     -7416.871      -555.78914      71539.994      41.51289       41.51289       41.51289       1.2050208      1100.8615      337.04967      1168.7394    
     50000   50000          303.8966       628.96695      19808.006      19153.83       5561.0624      13592.768      2915.8879      4178.6706      3556.19        310.43674     -1015.7589      11066.426     -7419.085      -557.52965      71316.66       41.469646      41.469646      41.469646      1.2087945      115.69055      767.68772      1003.5226    
     51000   51000          300.63566     -1657.938       17262.64       18992.005      5501.39        13490.615      2720.4168      4077.1565      3710.6022      302.05841     -972.26564      11073.636     -7420.9885     -555.92525      71522.479      41.509502      41.509502      41.509502      1.2053159     -1229.7182     -2212.984      -1531.1117    
     52000   52000          302.42706     -1518.9423      17601.315      19191.298      5534.1711      13657.127      2842.0919      4129.5606      3680.2195      317.41378     -961.47243      11071.768     -7422.4549     -553.96675      71775.34       41.558362      41.558362      41.558362      1.2010697     -2649.8839     -18.339816     -1888.6033    
     53000   53000          298.25152     -505.03297      18420.096      18949.251      5457.7621      13491.489      2781.5388      4095.3598      3646.7514      308.7514      -987.82163      11069.099     -7422.1904     -553.44152      71843.457      41.571504      41.571504      41.571504      1.1999309      838.44456     -1636.9866     -716.5569     
     54000   54000          300.34171      669.26386      19783.338      19084.625      5496.0108      13588.614      2856.8639      4163.6941      3586.7346      298.45622     -990.59811      11093.28      -7419.8166     -555.43534      71585.564      41.521702      41.521702      41.521702      1.2042537      1160.2989     -228.7505       1076.2432    
     55000   55000          298.93474     -77.9276        18966.61       19048.277      5470.2645      13578.012      2875.6425      4113.1005      3583.6125      307.52016     -961.96635      11083.028     -7422.9253     -553.32217      71858.953      41.574493      41.574493      41.574493      1.1996721     -489.51215     -938.98155      1194.7109    
     56000   56000          299.17185      1131.7131      20362.286      19176.992      5474.6035      13702.388      2872.7432      4157.8112      3651.7058      316.07714     -950.37949      11075.661     -7421.2305     -553.66204      71814.843      41.565984      41.565984      41.565984      1.200409       794.5112       2372.8338      227.79418    
     57000   57000          305.64139      170.98513      19324.55       19146.253      5592.9908      13553.263      2836.2651      4116.3612      3549.366       328.3191      -941.11342      11087.234     -7423.1698     -556.09734      71500.346      41.505219      41.505219      41.505219      1.205689       1296.5285      296.90156     -1080.4747    
     58000   58000          299.0577       1050.1317      20087.764      18988.96       5472.5146      13516.445      2828.9084      4157.5006      3561.0769      291.88601     -975.32197      11077.235     -7424.8397     -554.18922      71746.527      41.5528        41.5528        41.5528        1.201552       2000.3223      531.73112      618.34177    
     59000   59000          300.61965      1099.291       20213.5        19068.585      5501.0969      13567.488      2878.0017      4120.6154      3550.8365      306.09664     -941.0797       11074.707     -7421.6898     -556.76788      71414.235      41.488551      41.488551      41.488551      1.2071428      489.11775      817.91247      1990.8427    
     60000   60000          297.22077     -350.65248      18670.715      19036.59       5438.9003      13597.69       2884.3321      4089.3329      3658.7835      288.84045     -971.63876      11068.599     -7420.5593     -555.74874      71545.196      41.513896      41.513896      41.513896      1.2049332     -383.44662     -1019.6054      351.09456    
     61000   61000          300.61599      522.97114      19676.623      19128.799      5501.0299      13627.769      2954.6083      4140.8196      3540.4749      304.41418     -975.28925      11084.398     -7421.6567     -553.56838      71826.992      41.568328      41.568328      41.568328      1.2002059      855.72649      286.95515      426.23178    
     62000   62000          301.16167      1148.2252      20193.986      18999.543      5511.0155      13488.527      2917.3361      4093.3649      3505.3964      297.61995     -969.98762      11065.391     -7420.5934     -557.43764      71328.43       41.471928      41.471928      41.471928      1.208595       1177.9802      1113.732       1152.9635    
     63000   63000          301.30173     -1076.4383      17898.905      19018.926      5513.5785      13505.348      2839.6704      4075.2252      3636.5095      301.51552     -1001.8987      11080.133     -7425.8075     -557.31104      71344.634      41.475068      41.475068      41.475068      1.2083205      999.65825     -3014.9061     -1214.0671    
     64000   64000          303.76987      50.065672      19184.358      19132.222      5558.7434      13573.479      2850.7875      4143.7005      3657.316       302.83216     -1041.4786      11080.73      -7420.4086     -556.85341      71403.266      41.486426      41.486426      41.486426      1.2073283      52.38881      -902.46557      1000.2738    
     65000   65000          302.01956     -472.00824      18537.485      19029.086      5526.7142      13502.372      2839.2466      4026.1107      3654.0178      311.61199     -991.97736      11083.495     -7420.1327     -556.76431      71414.693      41.488639      41.488639      41.488639      1.2071351     -1110.9369     -851.79973      546.71195    
     66000   66000          297.20632      206.20563      19176.47       18961.133      5438.6357      13522.497      2853.5816      4113.7679      3580.6208      314.17684     -998.86003      11082.583     -7423.3725     -555.28644      71604.76       41.525413      41.525413      41.525413      1.2039309     -16.440277     -433.95898      1069.0161    
     67000   67000          302.25235      1474.3012      20790.719      19247.064      5530.974       13716.09       2908.492       4081.1149      3609.1087      329.80939     -872.49166      11080.302     -7420.2455     -553.8226       71794.022      41.561967      41.561967      41.561967      1.2007571      1098.9121      754.71198      2569.2796    
     68000   68000          299.31902     -468.88029      18525.881      19015.761      5477.2966      13538.465      2834.9714      4135.0092      3585.297       305.35082     -976.18032      11074.479     -7420.4626     -555.01706      71639.513      41.53213       41.53213       41.53213       1.2033469     -464.90079      890.73291     -1832.473     
     69000   69000          297.25632     -1192.7891      17758.476      19015.488      5439.5507      13575.937      2923.2327      4121.1187      3560.9612      289.36488     -968.50349      11071.395     -7421.6322     -550.2491       72260.276      41.651745      41.651745      41.651745      1.1930093     -1176.2214     -1001.3231     -1400.8228    
     70000   70000          299.11061     -1272.622       17597.927      18928.121      5473.4828      13454.638      2751.8549      4109.8755      3635.7742      298.03531     -1000.6824      11080.776     -7420.9953     -554.77803      71670.379      41.538094      41.538094      41.538094      1.2028286     -1762.0455     -1170.2031     -885.6173     
     71000   71000          301.1581       861.89053      19928.144      19026.766      5510.9502      13515.816      2837.9625      4110.6112      3579.7112      300.60483     -954.06265      11064.352     -7423.3635     -554.47253      71709.868      41.545722      41.545722      41.545722      1.2021662      27.942601      341.67556      2216.0534    
     72000   72000          298.99715     -536.69403      18533.326      19095.778      5471.4066      13624.371      2856.3306      4120.1491      3644.5221      323.12275     -988.43955      11087.953     -7419.2666     -553.32041      71859.182      41.574537      41.574537      41.574537      1.1996683     -1307.7594     -1177.4102      875.08754    
     73000   73000          292.35101      1127.5432      20071.327      18892.809      5349.7875      13543.021      2867.7092      4068.5482      3595.6908      318.61596     -972.37753      11085.339     -7420.5045     -554.79402      71668.314      41.537695      41.537695      41.537695      1.2028633      1981.4456      918.43866      482.74527    
     74000   74000          299.88095     -356.08348      18706.203      19078.836      5487.5793      13591.257      2815.3933      4154.88        3617.2572      315.47321     -982.24023      11093.353     -7422.8599     -554.12107      71755.351      41.554504      41.554504      41.554504      1.2014042      152.47365      501.32877     -1722.0529    
     75000   75000          305.17112     -843.97198      18243.202      19122.391      5584.3852      13538.005      2844.8734      4119.0817      3637.4282      304.87275     -1036.5511      11091.146     -7422.8461     -556.648        71429.615      41.491529      41.491529      41.491529      1.2068829      152.89823     -1223.8042     -1461.01      
     76000   76000          299.2831      -1042.9385      17986.44       19082.183      5476.6391      13605.544      2867.4002      4064.9816      3637.138       317.29358     -923.40598      11066.977     -7424.8405     -551.93129      72040.039      41.609387      41.609387      41.609387      1.1966565     -208.00662     -1708.7676     -1212.0411    
     77000   77000          302.68302      531.74515      19733.651      19177.206      5538.8549      13638.351      2853.183       4082.2325      3610.1072      334.5699      -887.81056      11066.594     -7420.525      -554.13646      71753.359      41.554119      41.554119      41.554119      1.2014376      1906.1754     -469.73123      158.79126    
     78000   78000          307.07208     -730.63518      18492.737      19257.314      5619.1713      13638.143      2799.0064      4082.0594      3685.3067      328.39558     -924.00214      11085.454     -7418.0769     -554.13296      71753.811      41.554206      41.554206      41.554206      1.20143       -1178.1086     -720.73566     -293.06133    
     79000   79000          301.51304     -1078.7643      17904.071      19034.261      5517.4453      13516.815      2867.4765      4100.0272      3573.0326      312.80424     -997.06633      11081.14      -7420.5992     -553.49024      71837.133      41.570284      41.570284      41.570284      1.2000365     -1166.6112     -1363.4299     -706.25166    
     80000   80000          302.31739     -370.72912      18725.07       19111.219      5532.1642      13579.055      2827.5456      4075.4348      3646.4268      316.78428     -935.83527      11073.957     -7425.2588     -556.71968      71420.418      41.489748      41.489748      41.489748      1.2070383     -298.39643     -1471.6318      657.84082    
     81000   81000          298.11004      800.9493       19787.158      18943.966      5455.1731      13488.793      2732.5705      4044.9112      3680.0824      313.3009      -951.45611      11090.711     -7421.3274     -550.82445      72184.799      41.637238      41.637238      41.637238      1.1942567      618.47372      106.64412      1677.7301    
     82000   82000          301.2128      -1430.8051      17639.604      19142.259      5511.951       13630.307      2846.9304      4078.7755      3679.0253      305.64851     -926.33605      11066.52      -7420.2558     -552.14889      72011.649      41.60392       41.60392       41.60392       1.1971283     -2213.782      -1947.6001     -131.03306    
     83000   83000          296.85489     -638.58583      18335.197      19003.496      5432.2049      13571.291      2863.4286      4122.5384      3588.3828      300.1577      -958.24896      11075.372     -7420.34       -554.09427      71758.822      41.555173      41.555173      41.555173      1.2013461     -1203.8903      590.87998     -1302.7471    
     84000   84000          304.53564      1865.3183      21101.046      19156.288      5572.7563      13583.532      2862.1718      4080.7487      3597.944       311.46946     -934.52018      11086.689     -7420.9706     -556.18886      71488.581      41.502943      41.502943      41.502943      1.2058875      1232.1117      1327.094       3036.7494    
     85000   85000          300.10192     -965.08131      17993.551      19007.589      5491.6229      13515.966      2841.5857      4088.429       3623.3372      310.03095     -1015.358       11088.372     -7420.4306     -551.87943      72046.809      41.61069       41.61069       41.61069       1.1965441     -1194.0878     -2381.8084      680.65228    
     86000   86000          301.6901      -1235.3665      17806.547      19110.057      5520.6854      13589.371      2820.6545      4058.1994      3697.2226      307.74372     -953.80597      11082.593     -7423.2362     -549.56166      72350.666      41.669105      41.669105      41.669105      1.1915189     -1484.2301     -949.8714      -1271.9979    
     87000   87000          299.71431     -219.52548      18811.66       19042.553      5484.53        13558.023      2838.2705      4034.3504      3654.0696      314.14198     -943.24581      11081.984     -7421.5479     -551.32677      72119.03       41.624589      41.624589      41.624589      1.1953458     -322.84278     -808.89148      473.15783    
     88000   88000          299.68313     -378.75433      18647.159      19042.627      5483.9593      13558.668      2826.4943      4115.1251      3601.5883      310.37928     -959.42884      11083.735     -7419.2257     -555.36779      71594.271      41.523386      41.523386      41.523386      1.2041073     -745.63032      103.81145     -494.4441     
     89000   89000          301.24987     -278.80822      18901.377      19193.008      5512.6294      13680.379      2914.8625      4154.6107      3578.5444      317.4637      -947.42214      11083.203     -7420.8831     -554.37818      71722.072      41.548078      41.548078      41.548078      1.2019617     -1704.7965      338.73613      529.6357     
     90000   90000          298.75013      217.32155      19241.867      19015.539      5466.8862      13548.653      2892.0803      4056.8098      3557.6785      317.05315     -942.26033      11087.249     -7419.958      -556.80079      71410.014      41.487733      41.487733      41.487733      1.2072142      957.71585      356.00477     -661.75598    
     91000   91000          297.44563     -640.92739      18336.482      19005.98       5443.0149      13562.965      2862.6548      4101.8214      3572.9301      294.11185     -920.43901      11073.915     -7422.0284     -555.1291       71625.055      41.529336      41.529336      41.529336      1.2035898     -1859.2311      203.96881     -267.51986    
     92000   92000          297.8481      -281.36844      18763.267      19059.203      5450.3799      13608.823      2869.2435      4078.3168      3624.0839      320.84911     -951.2387       11087.515     -7419.9465     -551.33181      72118.371      41.624462      41.624462      41.624462      1.1953568      50.592664     -1789.6181      894.92008    
     93000   93000          297.40886     -649.36857      18284.954      18967.106      5442.3421      13524.763      2826.2395      4112.9005      3578.718       317.01334     -971.34919      11082.078     -7420.837      -552.00744      72030.102      41.607473      41.607473      41.607473      1.1968216      246.41954     -1369.9632     -824.562      
     94000   94000          302.18817     -875.50094      18156.07       19075.962      5529.7996      13546.162      2803.4453      4141.0974      3598.8463      308.34541     -965.50069      11079.622     -7419.6933     -551.89276      72045.069      41.610355      41.610355      41.610355      1.196573      -115.28066     -677.3078      -1833.9144    
     95000   95000          302.36315     -324.10518      18763.918      19104.925      5533.0016      13571.923      2843.0274      4075.549       3618.7924      313.70752     -931.88274      11076.008     -7423.2785     -551.13458      72144.18       41.629427      41.629427      41.629427      1.1949291     -1899.0897     -64.325633      991.09979    
     96000   96000          296.93629     -316.06075      18666.484      18995.982      5433.6944      13562.288      2776.6854      4117.695       3671.3016      310.54913     -979.04144      11086.967     -7421.8688     -556.22814      71483.532      41.501966      41.501966      41.501966      1.2059726     -942.81777      399.7749      -405.13937    
     97000   97000          300.43698     -1171.647       17895.837      19124.715      5497.7543      13626.961      2884.2731      4143.9585      3584.0948      311.42431     -949.78051      11069.688     -7416.6972     -552.86973      71917.759      41.585831      41.585831      41.585831      1.1986912     -1942.315      -450.9803      -1121.6458    
     98000   98000          298.58431      216.46405      19236.766      19011.703      5463.8518      13547.851      2838.3864      4069.3939      3646.7727      326.63492     -984.20599      11070.965     -7420.0958     -557.71941      71292.394      41.464942      41.464942      41.464942      1.2092059      77.413841      793.91304     -221.93473    
     99000   99000          306.00423     -1285.352       17879.673      19220.398      5599.6305      13620.767      2805.0839      4108.6273      3717.4979      322.29259     -986.91167      11075.238     -7421.0612     -555.92643      71522.327      41.509472      41.509472      41.509472      1.2053185     -1297.754      -1351.1294     -1207.1726    
    100000   100000         299.61202     -1165.1786      17771.734      18985.757      5482.6581      13503.099      2713.1758      4109.0767      3657.8703      296.55742     -947.3946       11093.326     -7419.512      -556.54522      71442.805      41.494082      41.494082      41.494082      1.2066601     -2301.8805     -655.35825     -538.29718    
    101000   101000         299.69234      1611.8353      20666.543      18989.343      5484.1279      13505.215      2857.4713      4085.3975      3544.2815      305.32444     -949.13255      11079.883     -7418.0097     -557.27628      71349.084      41.47593       41.47593       41.47593       1.2082451      1500.8399      1583.4937      1751.1722    
    102000   102000         299.20435     -436.97869      18641.179      19097.345      5475.1981      13622.147      2880.8544      4146.4193      3622.4411      318.06813     -1001.7173      11078.175     -7422.0937     -555.48483      71579.187      41.520469      41.520469      41.520469      1.204361      -1174.4791      473.9112      -610.36821    
    103000   103000         293.54595      1192.9276      20223.929      18975.242      5371.654       13603.588      2894.9164      4105.7532      3556.9209      312.7588      -930.81159      11084.851     -7420.8016     -553.98157      71773.421      41.557991      41.557991      41.557991      1.2011018      2118.4167     -544.31483      2004.6811    
    104000   104000         298.45589     -1029.8522      18007.269      19082.172      5461.5018      13620.67       2885.053       4094.2253      3645.8356      304.7359      -986.58901      11097.814     -7420.4046     -555.57204      71567.95       41.518297      41.518297      41.518297      1.2045501     -1586.7879     -1165.0309     -337.73766    
    105000   105000         297.06043     -1303.0049      17670.081      19036.214      5435.966       13600.247      2843.1815      4032.7956      3662.2465      310.67528     -912.30104      11080.321     -7416.671      -553.08019      71890.393      41.580555      41.580555      41.580555      1.1991475     -2836.4097     -665.7493      -406.85579    
    106000   106000         303.60458     -674.79233      18321.58       19026.682      5555.7188      13470.963      2818.4103      4111.567       3579.989       302.62694     -994.57847      11074.161     -7421.2125     -554.94905      71648.293      41.533827      41.533827      41.533827      1.2031994     -486.20937     -1262.0982     -276.06942    
    107000   107000         298.92264      1745.3928      20927.009      19104.376      5470.043       13634.333      2870.7963      4173.9406      3537.3995      294.9178      -898.26707      11081.022     -7425.476      -555.30155      71602.811      41.525037      41.525037      41.525037      1.2039637      1781.039       2715.5373      739.60213    
    108000   108000         299.99421      163.86645      19239.904      19068.968      5489.6519      13579.316      2862.4396      4121.5652      3571.904       314.12602     -969.47764      11097.382     -7418.6227     -555.89397      71526.504      41.51028       41.51028       41.51028       1.2052481     -939.17684      1643.6115     -212.8353     
    109000   109000         302.78227     -946.73363      18148.585      19137.406      5540.6712      13596.735      2797.5151      4078.2377      3697.0523      317.15914     -953.9622       11083.595     -7422.8619     -555.19423      71616.652      41.527712      41.527712      41.527712      1.203731       261.11442     -1373.8796     -1727.4357    
    110000   110000         297.86832      1176.9253      20233.641      19005.171      5450.7499      13554.421      2854.0703      4172.6029      3535.0878      311.32644     -966.52447      11072.554     -7424.6952     -555.54513      71571.417      41.518967      41.518967      41.518967      1.2044918      2333.097      -310.64267      1508.3215    
    111000   111000         298.6697       1201.1549      20251.382      19002.048      5465.4145      13536.633      2858.4764      4145.2713      3537.8687      301.26179     -966.69982      11079.011     -7418.5567     -557.51333      71318.746      41.470051      41.470051      41.470051      1.2087591      344.37403      970.83322      2288.2574    
    112000   112000         300.7676       315.19817      19373.702      19046.02       5503.8043      13542.216      2877.8122      4053.8356      3633.5492      304.06814     -983.32168      11077.929     -7421.6563     -557.78408      71284.129      41.46334       41.46334       41.46334       1.2093461      1374.139      -883.82925      455.28481    
    113000   113000         299.62278      674.06092      19606.033      18905.56       5482.8551      13422.705      2814.1596      4099.8013      3572.6947      298.33359     -1013.5228      11072.168     -7420.929      -558.011        71255.14       41.457719      41.457719      41.457719      1.2098381      823.288        311.65327      887.24148    
    114000   114000         299.69433     -464.2607       18548.491      19033.671      5484.1644      13549.506      2820.6918      4047.2072      3614.489       312.97243     -908.87632      11083.458     -7420.4361     -554.87438      71657.935      41.53569       41.53569       41.53569       1.2030375      373.43485     -391.62363     -1374.5933    
    115000   115000         300.13694     -139.21352      18905.8        19051.76       5492.2638      13559.496      2851.867       4072.1794      3575.3023      310.9368      -901.32189      11067.779     -7417.2466     -553.07492      71891.077      41.580687      41.580687      41.580687      1.1991361      823.55802     -1262.7897      21.5911      
    116000   116000         305.69527      855.0014       19978.631      19088.356      5593.9766      13494.379      2852.0897      4059.4828      3550.9613      310.51817     -936.52107      11079.907     -7422.0585     -556.90008      71397.282      41.485267      41.485267      41.485267      1.2074295      1371.6234      499.97332      693.40753    
    117000   117000         303.97555     -1183.1513      17852.408      19091.45       5562.5072      13528.943      2848.7922      4052.924       3620.8798      305.80286     -955.18228      11077.402     -7421.6754     -553.71861      71807.506      41.564569      41.564569      41.564569      1.2005316     -2581.884      -300.97821     -666.59175    
    118000   118000         294.79771     -1714.5216      17227.849      19031.565      5394.5602      13637.005      2880.7002      4103.4971      3607.4588      310.69927     -933.81254      11086.099     -7417.6369     -551.20049      72135.552      41.627767      41.627767      41.627767      1.1950721     -2526.044      -1260.7338     -1356.7869    
    119000   119000         302.52427     -323.71156      18763.285      19103.098      5535.95        13567.148      2855.1142      4134.4255      3604.3798      299.49484     -985.19126      11079.368     -7420.4429     -552.39982      71978.938      41.597619      41.597619      41.597619      1.1976723     -1264.3085      986.41821     -693.24438    
    120000   120000         300.88832     -276.6234       18788.573      19077.256      5506.0134      13571.242      2855.6452      3996.8731      3733.9373      317.2469      -995.43168      11082.592     -7419.6201     -555.6514       71557.729      41.51632       41.51632       41.51632       1.2047222     -535.95343      364.87188     -658.78864    
    121000   121000         293.40255     -1384.257       17538.813      18985.85       5369.0299      13616.82       2891.7254      4073.9812      3675.0605      309.36385     -998.94732      11082.893     -7417.2559     -554.71735      71678.22       41.539609      41.539609      41.539609      1.202697      -1675.7304     -1029.9496     -1447.091     
    122000   122000         301.53864      42.259639      19052.003      19007.71       5517.9137      13489.797      2790.1757      4048.1928      3598.218       312.43573     -928.05295      11090.17      -7421.3431     -553.25789      71867.302      41.576103      41.576103      41.576103      1.1995328      1675.9904     -885.33083     -663.88062    
    123000   123000         305.88837     -444.35194      18755.48       19218.583      5597.5103      13621.073      2805.8359      4126.068       3698.8651      303.19996     -984.15443      11093.266     -7422.0077     -556.39571      71462.004      41.497799      41.497799      41.497799      1.2063359     -1093.2538      85.943049     -325.74504    
    124000   124000         298.69231      213.34491      19263.25       19040.016      5465.8283      13574.187      2868.0945      4096.7564      3567.7569      293.02566     -905.32346      11074.941     -7421.0634     -554.18629      71746.907      41.552873      41.552873      41.552873      1.2015456     -356.83562     -561.93986      1558.8102    
    125000   125000         299.18051      1330.4954      20414.898      19033.02       5474.7619      13558.258      2909.7111      4047.8467      3570.5312      297.60523     -928.87997      11080.848     -7419.4041     -558.31426      71216.437      41.450211      41.450211      41.450211      1.2104956      2155.4968      87.285603      1748.7038    
    126000   126000         302.81897     -1975.8517      17104.682      19171.66       5541.3427      13630.317      2839.2958      4107.3925      3703.7649      315.66528     -987.88022      11076.274     -7424.1951     -554.31078      71730.794      41.549762      41.549762      41.549762      1.2018155     -1139.5644     -1967.7641     -2820.2267    
    127000   127000         299.70381      185.3042       19244.069      19050.122      5484.3379      13565.784      2888.4671      4098.8276      3547.1509      298.7206      -929.27712      11079.772     -7417.8777     -554.03295      71766.764      41.556707      41.556707      41.556707      1.2012132     -490.23077      295.95154      750.19183    
    128000   128000         298.00006      1059.3358      20066.391      18953.366      5453.1606      13500.205      2750.6768      4083.2957      3637.2983      294.00275     -928.73864      11084.007     -7420.3363     -551.90402      72043.6        41.610072      41.610072      41.610072      1.1965974      2054.9602     -531.1127       1654.1598    
    129000   129000         302.53243     -1206.9196      17736.016      18993.776      5536.0994      13457.677      2802.397       4078.3071      3627.7269      295.39752     -1010.0262      11081.406     -7417.532      -556.43614      71456.811      41.496794      41.496794      41.496794      1.2064236     -224.76765     -2512.487      -883.50407    
    130000   130000         302.72646     -383.08251      18805.986      19206.281      5539.65        13666.631      2816.9985      4128.7696      3654.1695      315.23646     -920.48468      11092.697     -7420.7552     -554.94011      71649.447      41.53405       41.53405       41.53405       1.20318       -1623.9822     -894.62658      1369.3612    
    131000   131000         298.65348      512.76064      19503.066      18965.78       5465.1176      13500.662      2854.0553      4134.4083      3501.8109      304.22237     -963.94461      11090.343     -7420.2334     -553.40648      71848.006      41.572382      41.572382      41.572382      1.1998549     -1589.8148      1504.5791      1623.5176    
    132000   132000         298.30503      437.28287      19509.157      19052.636      5458.7412      13593.894      2810.9316      4110.3517      3672.431       308.61413     -966.61149      11079.794     -7421.6162     -555.43914      71585.074      41.521608      41.521608      41.521608      1.204262       41.431981      905.29093      365.12568    
    133000   133000         300.42311      365.38057      19515.107      19131.871      5497.5004      13634.37       2854.7599      4107.2025      3640.3548      303.37751     -951.80061      11101.195     -7420.7188     -552.85815      71919.266      41.586121      41.586121      41.586121      1.1986661      623.06049      694.61679     -221.53556    
    134000   134000         300.69685      1118.7411      20209.602      19036.403      5502.5096      13533.893      2847.9031      4065.267       3556.3764      307.07897     -908.687        11083.445     -7417.4906     -552.95893      71906.157      41.583594      41.583594      41.583594      1.1988846      1042.3123      709.2746       1604.6364    
    135000   135000         296.84271     -1978.161       16864.799      18941.546      5431.982       13509.564      2810.5809      4101.9047      3632.6597      304.88726     -1017.0441      11094.954     -7418.3782     -552.34825      71985.658      41.598914      41.598914      41.598914      1.1975605     -1726.4299     -2383.1556     -1824.8975    
    136000   136000         305.73271     -481.77559      18616.196      19118.634      5594.6619      13523.972      2771.5014      4104.7959      3677.4976      296.74517     -990.00986      11083.905     -7420.4628     -556.02837      71509.214      41.506935      41.506935      41.506935      1.2055395     -607.72787     -1064.604       227.00512    
    137000   137000         300.10452     -1581.0884      17471.081      19126.985      5491.6705      13635.315      2817.4377      4162.5947      3665.4255      314.09108     -976.65198      11074.9       -7422.4819     -553.6759       71813.045      41.565638      41.565638      41.565638      1.200439      -662.12407     -1747.0728     -2334.0683    
    138000   138000         299.72329      874.23433      19995.804      19081.253      5484.6943      13596.559      2807.5546      4120.4047      3607.7098      300.06568     -902.02627      11080.492     -7417.6417     -554.31269      71730.546      41.549715      41.549715      41.549715      1.2018197      423.06575      1757.442       442.19521    
    139000   139000         302.83418      739.86346      20025.894      19251.774      5541.621       13710.153      2907.4589      4074.8863      3673.9173      308.19714     -919.8937       11081.339     -7415.7528     -554.21438      71743.27       41.552171      41.552171      41.552171      1.2016066      1818.1507      743.94493     -342.50526    
    140000   140000         298.99379      450.247        19486.729      19017.254      5471.3451      13545.909      2805.6217      4068.709       3668.5386      306.68877     -962.51314      11081.802     -7422.9378     -556.12559      71496.713      41.504516      41.504516      41.504516      1.2057503      288.57879      1255.816      -193.65378    
    141000   141000         306.717        541.68804      19740.675      19176.002      5612.6735      13563.328      2828.1708      4080.1212      3626.0463      310.47587     -938.38426      11078.308     -7421.4098     -556.27162      71477.945      41.500884      41.500884      41.500884      1.2060669      935.38994     -839.16915      1528.8433    
    142000   142000         297.72633      670.63902      19709.946      19014.133      5448.1515      13565.982      2877.7541      4050.5865      3611.474       307.66391     -935.14849      11076.635     -7422.9835     -558.89607      71142.3        41.435823      41.435823      41.435823      1.211757       595.44494     -51.953193      1468.4253    
    143000   143000         300.3009      -1025.09        18051.873      19125.962      5495.2642      13630.697      2850.0018      4166.8139      3610.7907      302.54562     -966.69648      11084.953     -7417.7113     -553.42229      71845.954      41.571986      41.571986      41.571986      1.1998892     -743.23936     -1146.0891     -1185.9415    
    144000   144000         301.05858      416.23114      19458.312      19023.438      5509.129       13514.309      2831.6075      4172.0879      3529.096       303.60216     -1001.2485      11098.504     -7419.3401     -555.01624      71639.618      41.532151      41.532151      41.532151      1.2033451      2379.7849     -895.99238     -235.09914    
    145000   145000         292.46083      37.589095      18970.43       18931.043      5351.7971      13579.246      2844.709       4114.1955      3554.4313      313.89074     -912.07147      11083.557     -7419.4661     -553.40611      71848.054      41.572391      41.572391      41.572391      1.1998541      390.18126     -703.35809      425.94412    
    146000   146000         294.46806     -536.12063      18438.992      19001.632      5388.5278      13613.104      2843.7803      4090.099       3635.8731      320.23786     -933.88567      11078.465     -7421.4658     -552.54453      71960.086      41.593988      41.593988      41.593988      1.1979861     -904.39916     -449.43352     -254.5292     
    147000   147000         303.32101      339.98168      19425.355      19069.438      5550.5298      13518.908      2812.8455      4029.4931      3638.6104      302.62343     -907.74326      11066.19      -7423.1117     -553.91269      71782.346      41.559714      41.559714      41.559714      1.2009524      1028.2751      427.39185     -435.72186    
    148000   148000         296.78101     -236.65896      18720.837      18967.562      5430.853       13536.709      2787.5732      4108.0425      3611.0708      314.66456     -962.84352      11096.068     -7417.867      -556.21711      71484.95       41.50224       41.50224       41.50224       1.2059487      480.9135      -660.60727     -530.28312    
    149000   149000         304.28832     -1484.3653      17627.248      19181.941      5568.2306      13613.71       2808.4338      4094.5695      3736.1443      312.70306     -1001.4187      11086.868     -7423.5894     -553.64439      71817.132      41.566426      41.566426      41.566426      1.2003707     -148.50707     -3141.875      -1162.7138    
    150000   150000         301.14393      1384.207       20579.594      19130.091      5510.6908      13619.4        2813.583       4194.0215      3554.656       319.55106     -925.76339      11083.331     -7419.9793     -553.75369      71802.956      41.563691      41.563691      41.563691      1.2006077      598.34242      1909.3351      1644.9436    
    151000   151000         295.02817      440.09796      19424.214      18963.102      5398.7773      13564.325      2819.2114      4070.6015      3643.988       322.72417     -977.19497      11101.349     -7416.3543     -553.44907      71842.477      41.571315      41.571315      41.571315      1.1999473     -1174.7533      1852.2555      642.79171    
    152000   152000         294.46011      1295.0773      20321.643      18967.365      5388.3824      13578.983      2939.2577      4146.2977      3458.8239      307.028       -932.19453      11081.794     -7422.0241     -554.52723      71702.795      41.544356      41.544356      41.544356      1.2022848      2075.3449      562.49829      1247.3888    
    153000   153000         295.5011       503.51272      19470.375      18946.876      5407.4316      13539.444      2828.8449      4139.7058      3563.7874      313.217       -963.74923      11078.149     -7420.5104     -557.7367       71290.185      41.464514      41.464514      41.464514      1.2092434      688.05588      31.684157      790.79811    
    154000   154000         299.26252      1473.6505      20612.107      19068.074      5476.2625      13591.811      2842.1592      4191.1892      3501.1839      298.4041      -915.82596      11092.017     -7417.3158     -553.44289      71843.279      41.57147       41.57147       41.57147       1.1999339      1935.7233     -572.41123      3057.6396    
    155000   155000         299.79964      824.07652      19854.705      18996.53       5486.0915      13510.439      2871.6915      4060.8996      3551.048       304.87477     -939.46982      11084.219     -7422.8245     -556.8352       71405.601      41.486878      41.486878      41.486878      1.2072888      292.80172      494.30892      1685.1189    
    156000   156000         309.11915      1914.9653      21226.275      19230.863      5656.631       13574.232      2913.8005      4095.7975      3559.2555      301.43951     -969.52691      11094.244     -7420.7784     -556.49745      71448.938      41.49527       41.49527       41.49527       1.2065565      1639.5224      2731.5892      1373.7844    
    157000   157000         300.54644      36.786577      19035.371      18996.891      5499.7573      13497.133      2768.5005      4092.3047      3603.2807      306.99567     -946.08317      11093.971     -7421.8363     -554.34847      71725.916      41.548821      41.548821      41.548821      1.2018973     -430.44902      406.84612      133.96263    
    158000   158000         298.23914      258.63557      19410.949      19140.429      5457.5355      13682.893      2848.1887      4144.7923      3614.014       312.59184     -894.34608      11083.347     -7425.6946     -554.39969      71719.29       41.547541      41.547541      41.547541      1.2020083     -1085.0155      1003.6242      857.29801    
    159000   159000         306.28483     -517.82076      18588.829      19132.705      5604.7652      13527.94       2757.7022      4116.6746      3691.34        305.40034     -1001.7338      11077.256     -7418.6989     -552.09622      72018.519      41.605243      41.605243      41.605243      1.1970141     -1929.5874     -1062.624       1438.749     
    160000   160000         300.53144      636.59641      19721.518      19053.54       5499.4827      13554.058      2829.9265      4120.9146      3601.5566      311.74932     -972.89792      11082.702     -7419.8933     -552.63355      71948.494      41.591754      41.591754      41.591754      1.1981791      1768.635      -186.21714      327.37139    
    161000   161000         305.16325     -439.91864      18705.121      19163.627      5584.2412      13579.386      2929.384       4090.1084      3586.1201      320.55835     -1006.3068      11080.224     -7420.7022     -556.36739      71465.641      41.498503      41.498503      41.498503      1.2062745     -110.15982     -230.12082     -979.47529    
    162000   162000         303.52214      1972.2152      21111.078      19052.858      5554.2101      13498.648      2833.2412      4090.6343      3551.9285      321.04227     -963.56076      11084.431     -7419.068      -555.64491      71558.565      41.516481      41.516481      41.516481      1.2047081      961.85038      1928.1766      3026.6186    
    163000   163000         303.59933     -224.78499      18946.202      19180.446      5555.6227      13624.823      2896.4887      4157.6091      3590.0314      302.0328      -985.99745      11084.77      -7420.1117     -556.46069      71453.659      41.496184      41.496184      41.496184      1.2064768     -1106.7139     -1865.9675      2298.3264    
    164000   164000         300.71319     -842.97986      18132.358      19016.279      5502.8087      13513.471      2814.4201      4068.6784      3593.5041      293.13123     -915.53744      11078.882     -7419.6077     -553.01711      71898.592      41.582136      41.582136      41.582136      1.1990107     -1141.0087     -2014.1562      626.2254     
    165000   165000         291.8292       522.80145      19591.884      19046.637      5340.2389      13706.398      2942.7373      4153.3162      3625.984       315.46317     -992.60677      11082.807     -7421.3025     -556.00463      71512.267      41.507526      41.507526      41.507526      1.205488      -429.10008      676.31618      1321.1883    
    166000   166000         299.76317      1349.8521      20393.343      18986.111      5485.4241      13500.687      2817.3717      4147.8832      3509.1482      293.11206     -927.32309      11081.396     -7420.9009     -556.23129      71483.128      41.501888      41.501888      41.501888      1.2059794     -444.53868      2562.9392      1931.1558    
    167000   167000         298.78008      56.615238      18989.169      18929.644      5467.4343      13462.21       2772.3648      4046.6647      3624.4076      298.51564     -934.34853      11078.276     -7423.6704     -551.52666      72092.892      41.61956       41.61956       41.61956       1.1957792      1003.6648     -689.85764     -143.96145    
    168000   168000         301.56374     -899.46544      18152.087      19087.237      5518.373       13568.864      2863.1758      4091.0357      3616.8831      300.22529     -960.11977      11078.012     -7420.3474     -557.74772      71288.776      41.464241      41.464241      41.464241      1.2092673     -281.98778     -1312.8165     -1103.592     
    169000   169000         303.59596      643.4207       19736.36       19064.768      5555.561       13509.207      2816.7786      4064.933       3612.9365      306.0465      -959.92061      11087.225     -7418.7915     -555.55206      71570.524      41.518794      41.518794      41.518794      1.2045068     -144.65399     -22.387206      2097.3033    
    170000   170000         303.973       -1840.0878      17214.61       19140.078      5562.4606      13577.617      2878.575       4113.197       3604.4862      313.45332     -985.32686      11070.43      -7417.1979     -554.16246      71749.991      41.553469      41.553469      41.553469      1.201494      -581.69815     -2836.1823     -2102.3829    
    171000   171000         292.89234      28.279536      18875.842      18846.431      5359.6934      13486.738      2854.091       4044.6399      3587.6827      301.70281     -965.40959      11084.373     -7420.342      -557.57938      71310.298      41.468413      41.468413      41.468413      1.2089023      287.02255      443.29317     -645.47711    
    172000   172000         302.65729      61.345619      19191.551      19127.571      5538.3842      13589.187      2867.9489      4119.5592      3603.3206      298.0572      -966.06499      11087.834     -7421.4683     -555.99569      71513.418      41.507749      41.507749      41.507749      1.2054686      61.95378       937.00616     -814.92308    
    173000   173000         302.18783     -1085.9043      17849.185      18982.677      5529.7933      13452.884      2744.9874      4102.8944      3591.2086      294.90262     -943.19889      11086.373     -7424.2831     -555.53036      71573.319      41.519335      41.519335      41.519335      1.2044598     -711.25141     -1154.4922     -1391.9692    
    174000   174000         301.12289     -1268.2783      17687.363      19013.297      5510.3059      13502.991      2793.0724      4070.8436      3685.6484      305.73291     -1033.462       11098.365     -7417.2097     -554.66099      71685.503      41.541016      41.541016      41.541016      1.2025748     -174.59448     -1714.5857     -1915.6546    
    175000   175000         300.49437     -404.19558      18603.337      19025.289      5498.8045      13526.485      2802.7244      4093.768       3624.8642      311.68182     -958.88366      11071.762     -7419.4322     -555.4728       71580.737      41.520769      41.520769      41.520769      1.2043349     -652.52986     -860.20679      300.14992    
    176000   176000         301.3668      -494.01613      18610.642      19125.452      5514.7692      13610.683      2800.1911      4147.9291      3659.7692      313.63464     -966.07609      11074.955     -7419.7201     -556.45369      71454.558      41.496358      41.496358      41.496358      1.2064616     -21.546183     -300.42571     -1160.0765    
    177000   177000         298.19713      1067.9712      20129.156      19013.02       5456.7668      13556.253      2867.8032      4088.903       3552.9308      306.47741     -930.35673      11089.593     -7419.0977     -554.85236      71660.778      41.536239      41.536239      41.536239      1.2029898      859.14718      1821.2311      523.53518    
    178000   178000         298.98412      1131.9512      20180.14       18997.79       5471.1682      13526.621      2894.3305      4095.585       3555.1033      312.65011     -991.40254      11082.658     -7422.3029     -555.15774      71621.359      41.528622      41.528622      41.528622      1.2036519      496.93884      1535.5191      1363.3956    
    179000   179000         297.76991     -107.5315       18922.169      19034.208      5448.9489      13585.259      2856.0571      4109.0729      3634.7705      303.356       -967.62009      11072.624     -7423.0007     -556.54306      71443.083      41.494136      41.494136      41.494136      1.2066554      1079.9213     -1294.4514     -108.06442    
    180000   180000         295.40276     -481.48737      18435.244      18937.666      5405.6322      13532.034      2801.6115      4106.7201      3647.1128      311.61799     -990.23397      11077.163     -7421.9574     -555.71376      71549.699      41.514767      41.514767      41.514767      1.2048574     -1881.6516     -137.058        574.24753    
    181000   181000         296.36778     -1080.5637      17858.988      18992.046      5423.2911      13568.755      2825.998       4124.67        3633.1747      291.4154      -971.23022      11085.846     -7421.1192     -553.01004      71899.512      41.582313      41.582313      41.582313      1.1989954     -26.346479     -1972.2625     -1243.0822    
    182000   182000         300.66728     -754.78264      18337.191      19128.272      5501.9685      13626.303      2861.3548      4134.6098      3616.4363      301.68962     -954.99687      11087.714     -7420.504      -553.26819      71865.964      41.575845      41.575845      41.575845      1.1995551     -343.74697     -1621.6173     -298.98367    
    183000   183000         299.56836      728.66447      19720.655      18957.743      5481.8592      13475.884      2832.2239      4110.8027      3537.4166      293.26117     -966.46148      11089.567     -7420.9262     -553.84445      71791.19       41.561421      41.561421      41.561421      1.2008045      1247.9635      1407.6384     -469.6085     
    184000   184000         299.10845     -1925.1001      17086.403      19097.877      5473.4431      13624.434      2863.0201      4116.293       3662.1699      305.23553     -1000.4558      11094.818     -7416.6468     -554.97524      71644.911      41.533173      41.533173      41.533173      1.2032562     -2050.5784     -1461.9931     -2262.7287    
    185000   185000         300.45052      1504.6475      20581.276      19009.89       5498.0021      13511.888      2897.1453      4154.7037      3435.1625      303.07212     -941.36231      11084.189     -7421.0223     -555.2479       71609.73       41.526374      41.526374      41.526374      1.2038473      1711.5679      1358.2071      1444.1676    
    186000   186000         294.13885      252.63712      19178.589      18913.835      5382.5035      13531.331      2839.4176      4032.4918      3644.4485      307.55067     -954.24319      11083.755     -7422.0886     -553.33653      71857.088      41.574133      41.574133      41.574133      1.1997033     -183.43032      1671.3325     -729.99082    
    187000   187000         296.54353     -1607.9837      17382.658      19070.55       5426.5072      13644.043      2858.4627      4085.4993      3701.7807      321.89277     -983.19653      11080.142     -7420.5381     -552.42325      71975.884      41.597031      41.597031      41.597031      1.1977232     -440.38157     -2670.9202     -1712.6493    
    188000   188000         295.62273      440.87523      19456.559      18994.019      5409.6574      13584.361      2805.5715      4122.7868      3608.7211      310.40966     -904.63818      11065.241     -7423.7308     -552.71492      71937.903      41.589713      41.589713      41.589713      1.1983555      294.05892      98.271726      930.29505    
    189000   189000         295.34826     -620.74515      18336.514      18986.184      5404.6348      13581.549      2880.654       4120.3179      3582.2212      302.56488     -964.46818      11080.845     -7420.5855     -554.0581       71763.506      41.556078      41.556078      41.556078      1.2012677     -76.60934      -1444.2906     -341.33553    
    190000   190000         298.64227     -174.4446       18828.343      19010.066      5464.9124      13545.154      2821.1287      4109.9248      3564.1571      313.82231     -930.45879      11089.779     -7423.1991     -556.64909      71429.475      41.491502      41.491502      41.491502      1.2068853      1933.5536     -842.6321      -1614.2552    
    191000   191000         296.49751      684.641        19707.217      18994.063      5425.6651      13568.398      2829.8526      4105.5347      3577.7409      297.80685     -910.1642       11086.743     -7419.1155     -556.69143      71424.041      41.490449      41.490449      41.490449      1.2069771      2096.3362      0.38359875    -42.796781    
    192000   192000         307.43653      2021.7425      21327.565      19219.744      5625.8403      13593.904      2906.9416      4136.8488      3519.0417      296.68744     -927.39555      11081.528     -7419.7483     -556.19492      71487.801      41.502792      41.502792      41.502792      1.2059006      1857.6468      2351.6576      1855.9232    
    193000   193000         294.90206      806.56958      19879.165      19039.982      5396.4696      13643.512      2921.3336      4101.3586      3581.0344      309.96545     -931.6403       11080.587     -7419.1268     -557.33917      71341.033      41.47437       41.47437       41.47437       1.2083815      1272.028      -832.17048      1979.8512    
    194000   194000         300.51186     -239.85349      18760.202      19009.775      5499.1244      13510.651      2792.792       4128.9684      3657.8201      305.20284     -1044.7087      11089.209     -7418.6329     -557.29268      71346.984      41.475523      41.475523      41.475523      1.2082807     -1676.4477     -452.418        1409.3052    
    195000   195000         306.76141     -980.35294      18228.957      19254.106      5613.4862      13640.62       2846.3939      4128.0492      3700.8006      320.18037     -1005.2055      11072.338     -7421.9362     -554.53663      71701.579      41.544121      41.544121      41.544121      1.2023052      88.303742     -1473.371      -1555.9915    
    196000   196000         301.22714      246.24587      19291.861      19034.103      5512.2136      13521.89       2822.213       4106.6355      3581.7619      296.99117     -937.50053      11074.325     -7422.5369     -553.97766      71773.927      41.558089      41.558089      41.558089      1.2010933     -508.53789      1899.0116     -651.73609    
    197000   197000         302.35133      149.08456      19197.007      19041.251      5532.7853      13508.466      2814.0609      4041.4886      3637.0955      303.03724     -957.77037      11092.956     -7422.402      -555.03866      71636.726      41.531592      41.531592      41.531592      1.2033937      2150.0022     -1537.805      -164.94355    
    198000   198000         302.70504      456.83745      19492.447      19014.688      5539.2579      13475.43       2785.4941      4098.1716      3550.1796      302.7069      -926.95864      11087.028     -7421.1915     -554.48212      71708.627      41.545482      41.545482      41.545482      1.202187       189.18837      784.04322      397.28077    
    199000   199000         299.49376      1023.5319      20097.843      19029.129      5480.494       13548.635      2789.6937      4135.0963      3625.7394      315.84094     -985.31698      11086.868     -7419.2859     -555.3601       71595.262      41.523577      41.523577      41.523577      1.2040906      172.47668      2052.4771      845.64195    
    200000   200000         297.62442      1007.0477      20069.389      19018.043      5446.2867      13571.756      2852.9905      4139.0702      3537.0091      316.81067     -922.07945      11069.862     -7421.9063     -555.4429       71584.59       41.521514      41.521514      41.521514      1.2042701     -183.28061      2104.0216      1100.4021    
    201000   201000         304.38004     -614.05659      18594.815      19233.593      5569.9091      13663.684      2860.2808      4147.5265      3622.1975      311.16355     -936.51461      11083.062     -7424.0311     -557.43308      71329.014      41.472041      41.472041      41.472041      1.2085851     -1633.1776      767.10985     -976.10205    
    202000   202000         296.95572      480.04159      19471.273      18968.374      5434.0499      13534.324      2808.3902      4163.5557      3565.4152      311.91216     -971.66279      11079.666     -7422.953      -553.51954      71833.331      41.569551      41.569551      41.569551      1.2001         412.83682      937.3156       89.972356    
    203000   203000         303.69911      146.78781      19322          19168.17       5557.4485      13610.721      2799.2113      4145.9632      3653.1934      306.53893     -955.78722      11081.939     -7420.3379     -553.32764      71858.243      41.574356      41.574356      41.574356      1.199684      -712.6847       1410.2105     -257.16239    
    204000   204000         298.21153     -312.74483      18644.695      18971.308      5457.0303      13514.277      2785.7739      4150.4857      3581.8186      321.35792     -987.88203      11082.011     -7419.2873     -555.25388      71608.959      41.526225      41.526225      41.526225      1.2038603     -718.28991      591.34914     -811.29372    
    205000   205000         298.29378      422.10727      19481.948      19041.342      5458.5354      13582.806      2833.1547      4173.1551      3560.354       306.28799     -957.29297      11088.171     -7421.0236     -555.5293       71573.456      41.519361      41.519361      41.519361      1.2044575     -150.07301      99.353827      1317.041     
    206000   206000         298.9158       277.28537      19258.154      18969.104      5469.9178      13499.186      2807.1679      4121.1772      3612.5019      317.28892     -1008.2072      11067.006     -7417.7488     -556.27473      71477.545      41.500807      41.500807      41.500807      1.2060736      115.10581      551.39442      165.35587    
    207000   207000         299.35753     -974.73823      18072.306      19094.992      5478.0011      13616.991      2861.2784      4114.3935      3652.7342      323.35336     -1006.4561      11093.566     -7421.8786     -552.68847      71941.346      41.590377      41.590377      41.590377      1.1982982     -2083.1218      363.01807     -1204.111     
    208000   208000         300.01186     -564.93577      18475.851      19067.375      5489.9749      13577.4        2832.0012      4056.0373      3673.3386      322.86095     -978.19812      11091.457     -7420.0972     -553.81065      71795.571      41.562266      41.562266      41.562266      1.2007312     -186.68181     -1464.063      -44.06253     
    209000   209000         299.49657      81.504955      19074.779      18989.676      5480.5455      13509.131      2809.5934      4125.9156      3565.6955      310.45574     -964.82092      11084.317     -7422.0257     -555.36369      71594.799      41.523488      41.523488      41.523488      1.2040984      1472.9848     -970.64306     -257.82691    
    210000   210000         299.57739      2259.4744      21420.01       19062.15       5482.0244      13580.126      2864.1691      4121.9256      3517.3645      323.19105     -896.6681       11072.658     -7422.5149     -555.67925      71554.142      41.515626      41.515626      41.515626      1.2047826      2776.7055      1694.105       2307.6126    
    211000   211000         299.82667      1806.2186      20957.574      19065.637      5486.5861      13579.051      2848.7581      4057.8495      3634.2882      325.25213     -946.76027      11080.673     -7421.0092     -553.60328      71822.465      41.567455      41.567455      41.567455      1.2002816      1915.5243      1497.3787      2005.7529    
    212000   212000         294.98639     -189.80917      18690.273      18888.666      5398.0129      13490.653      2828.8628      4065.6951      3578.643       301.88319     -948.3853       11084.818     -7420.8637     -554.786        71669.351      41.537896      41.537896      41.537896      1.2028459     -135.72031      1006.0531     -1439.7603    
    213000   213000         294.07948     -1122.4658      17849.624      19023.588      5381.4171      13642.171      2912.4043      4111.1583      3619.7846      298.75091     -951.21432      11073.532     -7422.245      -554.43838      71714.285      41.546575      41.546575      41.546575      1.2020922     -724.50689     -1105.9105     -1536.9798    
    214000   214000         295.51336      2451.6751      21497.898      18944.439      5407.656       13536.783      2909.9537      4105.6338      3483.865       310.69272     -930.7288       11080.746     -7423.3797     -556.76107      71415.108      41.48872       41.48872       41.48872       1.2071281      2236.7215      2354.7974      2763.5062    
    215000   215000         296.98609     -717.77873      18273.415      19023.377      5434.6058      13588.771      2842.2185      4122.136       3607.0759      302.67419     -949.45475      11084.161     -7420.0395     -554.99154      71642.808      41.532767      41.532767      41.532767      1.2032915     -957.26498     -156.91051     -1039.1607    
    216000   216000         296.6121      -414.62333      18465.129      18898.333      5427.762       13470.571      2769.0381      4082.3969      3603.944       302.31607     -957.10913      11090.512     -7420.5271     -555.00416      71641.178      41.532452      41.532452      41.532452      1.2033189      99.286722     -1613.0159      269.85921    
    217000   217000         303.86124      152.09382      19244.157      19084.872      5560.4154      13524.456      2800.5436      4061.1418      3677.3783      302.60605     -979.38587      11084.353     -7422.1807     -553.6968       71810.334      41.565115      41.565115      41.565115      1.2004844      1250.7329     -89.407239     -705.0442     
    218000   218000         304.45432      570.40216      19776.931      19179.761      5571.2683      13608.493      2848.7077      4173.2414      3572.4603      307.93397     -951.62189      11078.106     -7420.3348     -553.88264      71786.239      41.560465      41.560465      41.560465      1.2008873     -715.41476      1343.0817      1083.5396    
    219000   219000         297.80794     -2531.7794      16258.744      18903.226      5449.645       13453.581      2751.9659      4066.6112      3685.4871      303.91644     -1006.2901      11073.823     -7421.9331     -555.16248      71620.748      41.528504      41.528504      41.528504      1.2036621     -3879.7894     -2373.0555     -1342.4932    
    220000   220000         298.59535      1043.8174      20205.8        19116.433      5464.0539      13652.379      2874.724       4076.9201      3637.3154      308.62243     -904.21668      11081.155     -7422.1412     -555.62925      71560.581      41.516871      41.516871      41.516871      1.2046742      990.70683      1195.046       945.69942    
    221000   221000         296.47907      991.37811      19978.729      18945.538      5425.3276      13520.21       2842.048       4123.6333      3496.3424      286.88168     -892.14144      11084.949     -7421.5027     -556.40792      71460.434      41.497495      41.497495      41.497495      1.2063624      728.55446      573.47679      1672.1031    
    222000   222000         300.63513      456.76226      19484.216      19009.12       5501.3803      13507.74       2851.3151      4034.5546      3582.2566      298.70949     -914.93353      11077.894     -7422.0569     -557.4983       71320.669      41.470423      41.470423      41.470423      1.2087265      252.17565      152.43336      965.67778    
    223000   223000         297.11796      313.93813      19419.207      19090.113      5437.0188      13653.094      2842.4447      4160.0862      3621.439       310.55557     -946.82094      11087.279     -7421.8901     -553.16992      71878.731      41.578307      41.578307      41.578307      1.199342      -1538.4658      609.64916      1870.631     
    224000   224000         293.21695     -738.73827      18100.537      18874.119      5365.6335      13508.485      2819.7596      4097.5773      3652.7864      294.69205     -1014.3629      11080.985     -7422.9521     -553.75714      71802.509      41.563605      41.563605      41.563605      1.2006152     -1141.9704     -1503.4755      429.231      
    225000   225000         303.66347     -1546.4549      17460.131      19081.955      5556.7965      13525.159      2784.2662      4052.1046      3689.9983      314.29971     -972.01617      11078.045     -7421.5393     -552.92775      71910.212      41.584376      41.584376      41.584376      1.198817      -1123.4464     -1900.2305     -1615.6877    
    226000   226000         294.67157      255.10654      19162.772      18896.084      5392.2519      13503.832      2867.4057      4087.4621      3572.643       300.21138     -981.95615      11075.878     -7417.8124     -554.69344      71681.309      41.540206      41.540206      41.540206      1.2026452      1265.366      -180.6215      -319.42485    
    227000   227000         301.24224     -595.19409      18443.092      19063.899      5512.4898      13551.409      2807.2552      4096.6396      3680.4266      302.60584     -1011.56        11096.158     -7420.1159     -555.95158      71519.092      41.508846      41.508846      41.508846      1.205373      -965.45677      239.4905      -1059.616     
    228000   228000         303.02942     -327.2698       18738.176      19079.149      5545.1937      13533.955      2890.3996      4123.6313      3523.5146      309.14856     -975.36289      11080.988     -7418.3639     -556.57128      71439.461      41.493435      41.493435      41.493435      1.2067166     -110.76455      439.96034     -1311.0052    
    229000   229000         303.30711      713.97108      19808.951      19064.778      5550.2752      13514.503      2798.4221      4048.6501      3647.8918      309.39964     -959.6196       11090.918     -7421.159      -556.34191      71468.914      41.499137      41.499137      41.499137      1.2062193      431.28059      1106.8177      603.81497    
    230000   230000         300.03943      27.856371      19021.739      18992.608      5490.4795      13502.129      2810.8658      4085.1616      3594.2149      301.35773     -932.84907      11066.399     -7423.0211     -554.51623      71704.217      41.54463       41.54463       41.54463       1.202261       1184.6083     -1102.2969      1.2576556    
    231000   231000         302.48339      312.95991      19309.374      18982.684      5535.2018      13447.482      2811.9227      4073.4912      3547.4599      306.37208     -952.00229      11081.095     -7420.8565     -555.50367      71576.758      41.52          41.52          41.52          1.2044019     -406.82935     -117.97716      1463.6862    
    232000   232000         297.70355      251.41768      19239.19       18976.324      5447.7348      13528.589      2832.2562      4082.2841      3612.2684      317.0646      -967.32539      11075.181     -7423.1394     -554.62138      71690.623      41.542005      41.542005      41.542005      1.202489      -407.02042     -1577.6952      2738.9687    
    233000   233000         305.17536     -304.99814      18758.676      19076.494      5584.4628      13492.031      2799.3064      4115.7319      3590.2539      330.89557     -1004.7618      11079.624     -7419.0191     -556.48452      71450.599      41.495591      41.495591      41.495591      1.2065285      252.75376     -1214.7713      47.023135    
    234000   234000         301.29365     -266.781        18841.896      19120.875      5513.4307      13607.445      2862.6586      4145.9843      3649.0882      323.0392      -1038.5613      11084.315     -7419.0797     -554.52034      71703.685      41.544528      41.544528      41.544528      1.2022699     -934.49279      279.10988     -144.96008    
    235000   235000         298.32796      52.382212      19085.912      19031.16       5459.1609      13571.999      2818.0487      4068.1113      3670.87        297.75871     -925.83837      11067.306     -7424.2571     -554.78303      71669.733      41.537969      41.537969      41.537969      1.2028395     -277.30857      1736.0642     -1301.6089    
    236000   236000         303.04139      1111.9353      20264.586      19105.325      5545.4128      13559.913      2823.9678      4109.699       3603.5927      314.51793     -969.84646      11097.897     -7419.9149     -556.20293      71486.771      41.502593      41.502593      41.502593      1.205918       1668.6306      169.49409      1497.6812    
    237000   237000         304.61822      1021.7508      20096.548      19031.99       5574.2675      13457.723      2815.723       4100.3948      3542.0835      309.50925     -975.78986      11085.067     -7419.2645     -556.55821      71441.139      41.49376       41.49376       41.49376       1.2066883      1365.7984      280.93216      1418.5218    
    238000   238000         303.23836      1055.6023      20153.138      19054.679      5549.0173      13505.661      2806.7801      4151.4898      3542.6056      305.18937     -964.2476       11083.851     -7420.0073     -557.25156      71352.248      41.476543      41.476543      41.476543      1.2081915      838.90161     -417.71063      2745.6158    
    239000   239000         303.61677      1218.1139      20319.685      19049.833      5555.9419      13493.891      2827.7371      4126.4578      3504.1033      310.42399     -921.2377       11069.078     -7422.6705     -556.2496       71480.774      41.501432      41.501432      41.501432      1.2060192      751.33419      2090.5763      812.43109    
    240000   240000         301.00399     -385.29774      18756.767      19161.223      5508.13        13653.093      2868.949       4079.6515      3620.804       323.69103     -899.79864      11080.84      -7421.0443     -552.4087       71977.78       41.597396      41.597396      41.597396      1.1976916     -584.52889     -758.1268       186.76247    
    241000   241000         301.09927      1473.4104      20552.473      19017.228      5509.8736      13507.354      2861.3339      4103.9286      3559.1348      303.01394     -981.05118      11081.253     -7420.2586     -556.5202       71446.017      41.494704      41.494704      41.494704      1.2066059      2343.9606      977.28742      1098.9831    
    242000   242000         302.94379      305.6145       19459.246      19141.509      5543.6269      13597.882      2837.3004      4138.0272      3600.3703      310.00982     -942.51791      11078.035     -7423.3432     -557.75057      71288.412      41.46417       41.46417       41.46417       1.2092734      534.66684      1071.9905     -689.81385    
    243000   243000         299.83948      280.40884      19332.352      19040.645      5486.8204      13553.825      2770.3567      4098.2733      3635.2259      317.67634     -909.34234      11065.895     -7424.2603     -557.41665      71331.117      41.472448      41.472448      41.472448      1.2085495     -32.146828      747.31198      126.06137    
    244000   244000         300.25072     -56.815504      19010.541      19069.956      5494.3458      13575.61       2830.9131      4070.5927      3631.0403      313.56856     -937.4286       11088.473     -7421.549      -554.50362      71705.848      41.544945      41.544945      41.544945      1.2022337      598.64553     -357.74182     -411.35022    
    245000   245000         296.18526     -665.95407      18368.526      19062.75       5419.9512      13642.799      2816.9766      4128.6031      3701.8761      324.73171     -986.63191      11079.704     -7422.4601     -556.26175      71479.213      41.50113       41.50113       41.50113       1.2060455      930.48487     -1630.6233     -1297.7237    
    246000   246000         300.03317      1532.2124      20589.358      18990.087      5490.3648      13499.722      2809.5164      4121.5543      3553.5052      307.63348     -959.95953      11086.708     -7419.2362     -555.56099      71569.374      41.518572      41.518572      41.518572      1.2045262      1785.0133      743.83314      2067.7908    
    247000   247000         302.90547     -496.05638      18656.408      19175.046      5542.9255      13632.121      2872.3568      4083.8821      3640.6642      315.33497     -954.42379      11091.735     -7417.428      -554.62727      71689.862      41.541858      41.541858      41.541858      1.2025017     -1442.3565     -481.60683      435.7942     
    248000   248000         301.29655      467.06983      19557.103      19071.313      5513.4838      13557.83       2776.3457      4143.5806      3661.2735      310.41256     -989.40037      11077.859     -7422.2416     -557.53047      71316.554      41.469626      41.469626      41.469626      1.2087962      1218.7213      385.41659     -202.92839    
    249000   249000         299.88952      232.03392      19313.168      19070.36       5487.7361      13582.624      2857.5908      4144.6448      3642.0348      296.96306     -1010.2306      11073.473     -7421.8519     -554.14527      71752.218      41.553899      41.553899      41.553899      1.2014567      533.36078     -1120.1267      1282.8677    
    250000   250000         303.27748      1634.9416      20865.853      19146.341      5549.7331      13596.608      2897.2073      4176.3439      3489.8219      298.61816     -919.65739      11079.948     -7425.6731     -551.35579      72115.235      41.623859      41.623859      41.623859      1.1954088      2122.98        1086.2186      1695.626     
    251000   251000         301.10379     -363.82723      18668.031      19047.645      5509.9563      13537.688      2838.2827      4158.6753      3552.3139      311.54995     -989.0952       11087.71      -7421.7487     -555.76202      71543.486      41.513565      41.513565      41.513565      1.204962      -347.74076     -103.13118     -640.60976    
    252000   252000         296.38104      755.48679      19703.775      18916.722      5423.5338      13493.188      2786.1851      4073.4979      3600.8554      301.70174     -944.79537      11097.068     -7421.325      -556.61818      71433.441      41.49227       41.49227       41.49227       1.2068183      998.28631      473.2037       794.97036    
    253000   253000         294.27284      547.11798      19510.652      18942.172      5384.9555      13557.217      2843.2243      4060.9745      3631.7314      306.53476     -959.93344      11095.94      -7421.2546     -558.08557      71245.62       41.455872      41.455872      41.455872      1.2099998      1477.3401     -2288.0629      2452.0767    
    254000   254000         299.81635     -1242.923       17742.142      19038.05       5486.3973      13551.653      2817.084       4113.4407      3656.2514      302.95121     -1001.3559      11081.31      -7418.0277     -556.16661      71491.44       41.503496      41.503496      41.503496      1.2058392     -1016.5729     -1945.779      -766.417      
    255000   255000         301.56828      836.85167      19924.023      19054.733      5518.4562      13536.276      2898.2021      4094.1444      3545.5014      309.904       -972.67529      11085.095     -7423.8948     -558.23695      71226.299      41.452124      41.452124      41.452124      1.210328       318.54641      42.774253      2149.2343    
    256000   256000         299.0775       716.07818      19845.183      19097.952      5472.8769      13625.076      2903.4383      4064.6801      3612.6207      305.54756     -925.30057      11086.519     -7422.43       -555.7003       71551.432      41.515102      41.515102      41.515102      1.2048282     -1298.0033      2204.005       1242.2328    
    257000   257000         300.28244      1581.7493      20694.506      19039.993      5494.9263      13545.067      2844.4452      4131.9665      3530.7953      307.18389     -936.75638      11085.643     -7418.2111     -554.37331      71722.702      41.5482        41.5482        41.5482        1.2019511      2192.7483      548.61741      2003.8821    
    258000   258000         297.10508     -253.36816      18665.927      18929.917      5436.7832      13493.134      2788.3663      4064.1766      3591.876       310.23243     -909.40282      11069.229     -7421.3437     -556.54513      71442.817      41.494085      41.494085      41.494085      1.2066599     -83.470471      367.42262     -1044.0566    
    259000   259000         300.34267     -839.61308      18224.278      19104.067      5496.0284      13608.039      2874.8839      4145.022       3602.2031      314.37431     -993.72714      11084.561     -7419.2784     -553.39504      71849.491      41.572668      41.572668      41.572668      1.1998301      188.85948     -2070.0624     -637.63627    
    260000   260000         296.99283     -89.425805      18929.564      19023.052      5434.7291      13588.323      2847.638       4100.5976      3623.3765      318.37557     -958.31301      11083.309     -7426.6613     -554.68014      71683.028      41.540538      41.540538      41.540538      1.2026164     -402.14782     -302.08938      435.95979    
    261000   261000         300.29341     -1530.4459      17369.499      18969.212      5495.1271      13474.085      2684.8175      4095.1581      3676.4238      313.14149     -943.41847      11069.29      -7421.3274     -554.76722      71671.776      41.538364      41.538364      41.538364      1.2028052     -1697.3769     -906.05347     -1987.9075    
    262000   262000         303.87278      644.12274      19768.543      19093.483      5560.6266      13532.856      2828.8355      4069.1383      3631.1218      312.31379     -970.92829      11082.729     -7420.3539     -553.30018      71861.809      41.575044      41.575044      41.575044      1.1996245      740.95779     -1260.4416      2451.852     
    263000   263000         301.41487     -92.378489      18917.807      19014.352      5515.6488      13498.703      2760.0568      4172.0789      3530.9117      320.06184     -944.70488      11080.649     -7420.3497     -554.84972      71661.119      41.536305      41.536305      41.536305      1.202984       576.69314     -1855.6787      1001.8501    
    264000   264000         294.08195     -74.958978      18793.589      18871.999      5381.4623      13490.537      2799.0821      4111.5464      3578.7932      295.33239     -957.25354      11082.995     -7419.9588     -554.35142      71725.535      41.548747      41.548747      41.548747      1.2019037      226.04009     -463.48739      12.570361    
    265000   265000         299.00898      995.08178      20103.245      19064.945      5471.6231      13593.322      2843.9232      4148.3006      3565.4193      319.61506     -929.05658      11067.019     -7421.8983     -555.7389       71546.462      41.514141      41.514141      41.514141      1.2049119     -484.08948      1605.8676      1863.4672    
    266000   266000         300.33631     -1017.8384      18079.197      19148.324      5495.9122      13652.412      2876.343       4095.6282      3665.4984      308.38464     -942.64537      11075.646     -7426.4436     -552.05775      72023.537      41.606209      41.606209      41.606209      1.1969307     -792.14982     -566.73576     -1694.6295    
    267000   267000         302.75551      898.92435      20019.206      19081.476      5540.1815      13541.294      2879.1161      4083.7456      3555.9293      305.52721     -946.19948      11084.962     -7421.7863     -555.87897      71528.433      41.510654      41.510654      41.510654      1.2052156      1942.2456      905.88636     -151.35888    
    268000   268000         293.24124     -739.42485      18209.27       18982.589      5366.078       13616.511      2885.3771      4135.445       3598.3721      298.57078     -979.26879      11092.69      -7414.6753     -554.46001      71711.488      41.546035      41.546035      41.546035      1.2021391      194.90524     -1537.1963     -875.98347    
    269000   269000         301.38872     -266.27091      18753.724      19032.286      5515.1703      13517.115      2817.009       4117.798       3598.4651      312.99975     -997.26057      11087.687     -7419.5831     -554.28956      71733.54       41.550293      41.550293      41.550293      1.2017695      605.53691      517.54263     -1921.8923    
    270000   270000         295.5612      -1165.3253      17710.91       18929.683      5408.5315      13521.151      2825.2219      4080.1951      3622.8509      308.24882     -975.94906      11081.259     -7420.6757     -554.44597      71713.304      41.546385      41.546385      41.546385      1.2021087     -1685.3921      72.57845      -1883.1622    
    271000   271000         300.26172     -841.78199      18181.067      19062.16       5494.5471      13567.613      2849.4583      4079.7948      3643.2864      306.66187     -956.0269       11067.824     -7423.3849     -554.00358      71770.569      41.557441      41.557441      41.557441      1.2011495     -875.78017     -1855.0925      205.52668    
    272000   272000         295.69322     -835.19669      18033.382      18911.611      5410.9473      13500.664      2830.6372      4028.5315      3614.952       302.38101     -929.17539      11075.037     -7421.6993     -551.46189      72101.36       41.621189      41.621189      41.621189      1.1956388     -2367.6157     -457.34878      319.37441    
    273000   273000         299.88858     -1264.547       17834.813      19162.12       5487.7189      13674.401      2904.0356      4052.0585      3654.8096      303.35675     -888.11841      11066.736     -7418.4774     -552.45723      71971.458      41.596179      41.596179      41.596179      1.1977968     -2173.1581     -427.92787     -1192.5552    
    274000   274000         304.25251     -588.99359      18539.692      19158.526      5567.5754      13590.95       2823.7119      4088.8095      3637.3343      316.7217      -937.93006      11082.651     -7420.3478     -551.9144       72042.244      41.609811      41.609811      41.609811      1.1966199     -1134.7611      9.3587551     -641.57842    
    275000   275000         299.25218     -961.85621      17994.048      19004.71       5476.0733      13528.637      2848.1822      4030.3987      3625.5395      298.95451     -925.99794      11072.976     -7421.4163     -551.87283      72047.671      41.610856      41.610856      41.610856      1.1965298     -249.91108     -694.93289     -1940.7247    
    276000   276000         299.68407      492.29435      19665.957      19149.605      5483.9765      13665.629      2845.3656      4194.4035      3557.319       310.61954     -907.04903      11083.748     -7418.778      -552.85866      71919.199      41.586108      41.586108      41.586108      1.1986672     -328.18412      1163.8091      641.25806    
    277000   277000         297.50085      841.8852       19847.342      18966.491      5444.0255      13522.466      2886.5137      4092.2153      3542.8975      307.59497     -961.43579      11072.994     -7418.3141     -554.22403      71742.021      41.55193       41.55193       41.55193       1.2016275      1744.3134      1769.7831     -988.44094    
    278000   278000         300.02154     -1507.8211      17554.507      19128.836      5490.1521      13638.684      2856.7072      4049.7519      3705.0576      312.16405     -952.13069      11088.465     -7421.3307     -555.37836      71592.909      41.523122      41.523122      41.523122      1.2041302     -1531.2668     -1349.9772     -1642.2193    
    279000   279000         298.31347     -287.53537      18718.501      19019.664      5458.8958      13560.769      2829.9602      4107.1974      3626.976       314.75838     -974.35828      11077.558     -7421.3229     -553.63568      71818.262      41.566644      41.566644      41.566644      1.2003518     -214.85116     -375.25254     -272.50243    
    280000   280000         303.87903      1133.1954      20384.815      19195.533      5560.741       13634.792      2823.05        4181.7183      3583.1399      305.76655     -904.3121       11071.532     -7426.1032     -552.52859      71962.162      41.594388      41.594388      41.594388      1.1979515      1570.7188     -552.256        2381.1236    
    281000   281000         298.87581     -814.60488      18162.82       19015.264      5469.1861      13546.077      2768.6397      4124.76        3650.6836      304.05312     -965.22079      11084.209     -7421.0475     -554.13597      71753.421      41.554131      41.554131      41.554131      1.2014366      1248.2945     -1699.6751     -1992.434     
    282000   282000         305.02406     -1471.6198      17602.447      19142.964      5581.6941      13561.27       2812.4296      4103.4037      3700.2259      293.95996     -1023.7442      11095.98      -7420.9848     -553.94157      71778.603      41.558992      41.558992      41.558992      1.2010151     -502.35376     -2100.6049     -1811.9008    
    283000   283000         300.44083     -425.77133      18503.96       18947.885      5497.8247      13450.06       2779.8794      4106.8479      3574.1054      287.26946     -961.02606      11083.044     -7420.0603     -556.16339      71491.855      41.503576      41.503576      41.503576      1.2058322     -549.10571     -286.41113     -441.79714    
    284000   284000         302.15857     -678.34909      18249.352      18952.118      5529.258       13422.86       2849.9519      4103.9686      3536.7142      305.58647     -1017.9527      11066.698     -7422.1059     -559.72866      71036.476      41.415267      41.415267      41.415267      1.2135622      381.10033     -1233.5934     -1182.5541    
    285000   285000         299.31218     -844.89491      18103.538      18989.518      5477.1712      13512.347      2824.1695      4116.1673      3532.2833      303.94393     -939.62702      11095.416     -7420.0058     -552.98538      71902.718      41.582931      41.582931      41.582931      1.1989419     -917.19746     -561.58679     -1055.9005    
    286000   286000         298.38655     -262.24602      18798.202      19073.428      5460.233       13613.195      2883.3366      4082.4754      3589.4109      301.88565     -904.21022      11082.661     -7422.3635     -552.5264       71962.447      41.594442      41.594442      41.594442      1.1979468     -1694.7218      720.1555       187.82826    
    287000   287000         297.978       -263.98794      18807.857      19085.365      5452.757       13632.608      2932.7492      4006.9026      3659.5838      309.17937     -927.08532      11074.858     -7423.5798     -551.62409      72080.158      41.617109      41.617109      41.617109      1.1959905     -269.52787     -87.16335      -435.27259    
    288000   288000         305.61203     -449.58693      18539.797      19010.871      5592.4535      13418.418      2788.8314      4107.5348      3540.3349      301.65259     -976.50085      11076.811     -7420.2458     -553.42527      71845.566      41.571911      41.571911      41.571911      1.1998957      305.81062     -145.82105     -1508.7504    
    289000   289000         300.00274      404.49416      19502.283      19079.44       5489.808       13589.632      2890.0702      4131.7797      3560.5107      316.84326     -981.69843      11091.176     -7419.0494     -554.71292      71678.792      41.539719      41.539719      41.539719      1.2026874      929.89722     -636.57371      920.15897    
    290000   290000         306.05387     -715.07346      18353.487      19101.374      5600.5389      13500.835      2741.3115      4069.9316      3679.5705      291.81483     -941.03976      11082.638     -7423.3915     -554.43355      71714.91       41.546695      41.546695      41.546695      1.2020817     -241.45406     -430.75944     -1473.0069    
    291000   291000         302.01955      902.37495      19988.263      19045.715      5526.7139      13519.001      2835.2745      4179.7086      3509.5395      306.52964     -972.08701      11083.674     -7423.6378     -555.16049      71621.005      41.528553      41.528553      41.528553      1.2036578      646.60993     -195.74425      2256.2592    
    292000   292000         298.10433      2225.4946      21386.302      19064.59       5455.0686      13609.521      2893.1911      4107.9459      3555.0028      303.34321     -918.53822      11091.91      -7423.334      -555.84412      71532.918      41.511521      41.511521      41.511521      1.20514        2306.493       2570.4264      1799.5643    
    293000   293000         299.46284      592.34868      19746.875      19127.936      5479.9283      13648.008      2921.4808      4073.6998      3646.2267      303.17962     -957.99824      11083.379     -7421.9596     -554.96375      71646.395      41.53346       41.53346       41.53346       1.2032313      1264.7269     -153.36183      665.68102    
    294000   294000         299.00844     -685.97294      18387.588      19110.428      5471.6132      13638.815      2899.1789      4093.6179      3643.4069      283.2383      -951.79072      11091.182     -7420.0185     -550.30055      72253.52       41.650447      41.650447      41.650447      1.1931209     -2083.4458      759.71035     -734.18334    
    295000   295000         303.39468      449.1063       19586.326      19114.59       5551.8778      13562.712      2898.847       4058.2459      3554.0082      311.55472     -915.93959      11075.92      -7419.9246     -552.05775      72023.538      41.606209      41.606209      41.606209      1.1969307     -154.04546      617.0679       884.29647    
    296000   296000         297.27888      154.73389      19192.504      19030.691      5439.9636      13590.728      2856.6073      4173.8086      3525.0571      307.36721     -935.59468      11083.162     -7419.6793     -554.50805      71705.275      41.544835      41.544835      41.544835      1.2022433      576.34118     -528.60397      416.46447    
    297000   297000         303.01492     -272.05976      18892.85       19177.443      5544.9286      13632.515      2861.6929      4084.3868      3626.0182      297.35159     -909.00411      11087.957     -7415.8874     -554.33799      71727.272      41.549083      41.549083      41.549083      1.2018745      77.681886     -1194.8487      300.9875     
    298000   298000         302.90232      448.38292      19579.072      19111.315      5542.8679      13568.447      2849.6412      4191.4085      3532.5782      302.69924     -983.47383      11095.822     -7420.2283     -555.8575       71531.197      41.511188      41.511188      41.511188      1.205169      -877.19999      1262.3742      959.97454    
    299000   299000         288.87248      562.75218      19407.359      18820.427      5286.1332      13534.294      2795.5234      4099.64        3637.021       296.33604     -965.14161      11091.648     -7420.7326     -555.98678      71514.563      41.50797       41.50797       41.50797       1.2054493      63.276124     -1103.1859      2728.1663    
    300000   300000         303.54573     -1011.856       18059.247      19123.005      5554.6418      13568.363      2815.1561      4025.9937      3680.2643      294.56908     -922.95806      11091.787     -7416.4489     -551.5827       72085.567      41.61815       41.61815       41.61815       1.1959007     -1625.5611     -942.55577     -467.45116    
    301000   301000         307.05793     -138.95629      18995.539      19140.92       5618.9122      13522.008      2799.0973      4136.0619      3607.6753      299.70547     -972.87315      11071.963     -7419.6219     -554.24887      71738.806      41.551309      41.551309      41.551309      1.2016813      812.982       -123.27421     -1106.5767    
    302000   302000         296.08766      356.05127      19236.751      18863.894      5418.1651      13445.729      2801.8246      4048.941       3622.4241      300.53584     -999.89634      11091.951     -7420.0517     -553.73935      71804.815      41.56405       41.56405       41.56405       1.2005766     -1055.7141      1340.3695      783.49841    
    303000   303000         299.56531      507.19709      19584.787      19053.356      5481.8034      13571.552      2840.3035      4055.4845      3632.3199      322.22738     -934.24459      11078.655     -7423.1936     -553.43247      71844.632      41.571731      41.571731      41.571731      1.1999113     -256.86666      2164.056      -385.59801    
    304000   304000         299.18451     -500.7823       18558.088      19082.61       5474.8351      13607.775      2862.8735      4090.8644      3609.023       311.96908     -926.12526      11077.826     -7418.656      -553.63058      71818.923      41.566772      41.566772      41.566772      1.2003408     -1315.5443     -256.69628      69.893653    
    305000   305000         300.31732     -554.65099      18434.511      19014.399      5495.5646      13518.834      2820.3958      4111.6525      3600.973       293.2358      -977.02185      11091.399     -7421.8001     -554.6398       71688.241      41.541545      41.541545      41.541545      1.2025289      179.50394      157.17245     -2000.6294    
    306000   306000         301.37846      442.62644      19532.976      19070.585      5514.9825      13555.602      2834.3522      4116.0849      3573.5345      324.9109      -954.97603      11084.034     -7422.338      -555.08949      71630.166      41.530324      41.530324      41.530324      1.2035039      1042.4968     -302.03363      587.41614    
    307000   307000         296.33397     -581.72967      18405.494      19014.524      5422.6725      13591.851      2895.4124      4035.5122      3634.2425      317.04533     -934.83555      11066.863     -7422.3892     -553.88285      71786.212      41.56046       41.56046       41.56046       1.2008878     -323.28832     -881.191       -540.7097     
    308000   308000         297.46476      92.183568      19077.487      18981.233      5443.3649      13537.868      2802.0247      4136.9822      3578.0119      300.52919     -936.04262      11077.634     -7421.2714     -555.35354      71596.108      41.523741      41.523741      41.523741      1.2040764     -94.028833     -184.10848      554.68801    
    309000   309000         303.69185      202.44021      19358.408      19146.927      5557.3158      13589.611      2872.2307      4119.8098      3568.3977      318.00797     -952.40382      11082.862     -7419.2933     -555.08514      71630.727      41.530432      41.530432      41.530432      1.2034945     -655.73987      410.30371      852.7568     
    310000   310000         296.19391     -641.47726      18175.246      18844.847      5420.1095      13424.737      2786.3759      4089.7362      3606.7394      305.36385     -1017.5139      11076.635     -7422.5987     -555.52055      71574.583      41.519579      41.519579      41.519579      1.2044385      762.31358     -1314.9274     -1371.8179    
    311000   311000         301.63237      1111.1701      20280.691      19124.234      5519.629       13604.605      2924.2241      4103.093       3592.5148      315.17767     -996.20105      11082.638     -7416.8419     -557.16755      71363.008      41.478628      41.478628      41.478628      1.2080094      1881.8323      567.24327      884.43474    
    312000   312000         294.75924      1476.6125      20491.799      18949.482      5393.8562      13555.626      2869.9248      4146.4097      3495.1384      316.02504     -941.05386      11088.089     -7418.9068     -555.17234      71619.476      41.528258      41.528258      41.528258      1.2036835     -65.431422      1270.424       3224.8449    
    313000   313000         299.70299     -233.94433      18819.625      19063.375      5484.3228      13579.052      2854.5395      4096.8332      3600.5454      317.90835     -961.211        11090.569     -7420.1323     -556.54832      71442.407      41.494005      41.494005      41.494005      1.2066668      573.05277     -1271.4582     -3.4275219    
    314000   314000         301.87564      540.54261      19604.591      19038.336      5524.0806      13514.255      2861.9164      4027.1243      3574.502       302.72833     -913.67133      11083.043     -7421.3875     -553.54473      71830.062      41.568921      41.568921      41.568921      1.2001547      381.9727       671.09301      568.56211    
    315000   315000         294.33914      1861.5526      20963.213      19020.643      5386.1688      13634.474      2900.2884      4119.1179      3574.6166      317.36836     -946.32221      11088.12      -7418.7148     -555.69123      71552.599      41.515328      41.515328      41.515328      1.2048085      840.59508      3142.2008      1601.8618    
    316000   316000         300.8106      -1114.7675      17855.355      19021.684      5504.5912      13517.093      2833.4368      4078.9237      3626.8969      298.31636     -980.68422      11076.705     -7416.5016     -554.24005      71739.947      41.55153       41.55153       41.55153       1.2016622     -962.65164     -1270.826      -1110.8248    
    317000   317000         303.91983      1098.2028      20347.223      19197.452      5561.4875      13635.964      2869.923       4103.4606      3630.1571      318.16478     -932.35713      11069.336     -7422.7203     -553.86739      71788.216      41.560847      41.560847      41.560847      1.2008542      3006.463      -885.23245      1173.3778    
    318000   318000         297.01141      1044.4616      20043.917      18956.621      5435.0691      13521.551      2816.1958      4111.8802      3576.5006      305.30526     -947.43478      11083.14      -7424.0356     -557.03115      71380.482      41.482013      41.482013      41.482013      1.2077137      1425.4501      1406.6573      301.27752    
    319000   319000         298.77783     -465.9843       18607.613      19095.965      5467.3931      13628.572      2794.9928      4097.6204      3733.2618      315.69165     -978.1135       11083.978     -7418.8595     -553.31534      71859.84       41.574664      41.574664      41.574664      1.1996573     -1098.2885     -1767.227       1467.5626    
    320000   320000         302.27955      73.824241      19120.8        19043.548      5531.4719      13512.076      2788.9482      4076.1948      3590.4831      311.78649     -914.70018      11079.427     -7420.0633     -554.14537      71752.204      41.553896      41.553896      41.553896      1.2014569      1102.345      -110.18363     -770.68865    
    321000   321000         297.90315     -904.80531      18056.176      19009.283      5451.3871      13557.896      2810.9987      4038.3177      3670.5592      310.24435     -950.9506       11100.794     -7422.0677     -550.4884       72228.865      41.645709      41.645709      41.645709      1.1935281     -447.92081     -475.18367     -1791.3114    
    322000   322000         304.19397      308.42705      19532.778      19209.877      5566.5042      13643.373      2894.9707      4146.0723      3610.2462      313.34588     -971.72254      11072.16      -7421.6994     -553.88326      71786.159      41.56045       41.56045       41.56045       1.2008886     -597.44764      133.51743      1389.2114    
    323000   323000         303.89297      44.902372      19036.429      18989.325      5560.9961      13428.329      2779.5311      4116.8768      3580.9505      301.29214     -1015.7643      11084.331     -7418.8881     -552.77431      71930.173      41.588223      41.588223      41.588223      1.1984843     -450.45949     -1586.6388      2171.8054    
    324000   324000         305.23754     -916.55761      18198.982      19161.382      5585.6006      13575.782      2838.3618      4093.4015      3635.0605      309.20601     -970.34026      11087.991     -7417.8989     -552.25381      71997.968      41.601285      41.601285      41.601285      1.1973558      163.36165     -1866.2331     -1046.8014    
    325000   325000         301.18919      4.4817517      19159.745      19155.031      5511.519       13643.512      2873.3808      4155.0249      3592.0134      306.11397     -948.32793      11086.906     -7421.5993     -551.27233      72126.153      41.625959      41.625959      41.625959      1.1952278      32.537293     -300.62174      281.5297     
    326000   326000         300.02651     -635.78115      18329.912      18994.55       5490.2429      13504.307      2776.139       4157.2034      3576.8355      299.3131      -963.15217      11078.03      -7420.0616     -554.6984       71680.669      41.540082      41.540082      41.540082      1.202656       63.043105     -1289.6257     -680.76082    
    327000   327000         299.56862     -847.75126      18190.718      19079.522      5481.864       13597.658      2852.3         4079.1197      3662.2636      300.31134     -968.01188      11089.098     -7417.4224     -553.09156      71888.915      41.58027       41.58027       41.58027       1.1991721     -549.05503      4.9196217     -1999.1184    
    328000   328000         304.49574     -87.592522      19033.081      19124.459      5572.0262      13552.433      2859.6039      4040.224       3625.3945      312.15379     -958.86967      11090.742     -7416.8155     -555.84867      71532.332      41.511408      41.511408      41.511408      1.2051499      207.92001      74.852057     -545.54964    
    329000   329000         299.39388     -785.04476      18166.808      18990.032      5478.6665      13511.365      2801.805       4100.4033      3617.0339      311.73872     -976.38795      11075.608     -7418.8351     -552.98216      71903.137      41.583012      41.583012      41.583012      1.1989349     -793.68172     -1047.7983     -513.6543     
    330000   330000         300.24585      176.32771      19325.27       19140.721      5494.2568      13646.464      2870.6306      4076.1761      3651.7072      311.67919     -926.45617      11085.143     -7422.4157     -554.04075      71765.754      41.556512      41.556512      41.556512      1.2012301     -1278.2948      774.56058      1032.7173    
    331000   331000         296.14572      2541.5069      21587.826      18936.546      5419.2277      13517.319      2885.5408      4049.7068      3485.964       305.42156     -877.07576      11087.07      -7419.3092     -555.86665      71530.019      41.51096       41.51096       41.51096       1.2051889      1857.7644      2380.0338      3386.7226    
    332000   332000         303.90262     -1160.5637      17884.654      19098.562      5561.1727      13537.389      2857.8646      4092.3799      3621.1893      300.04434     -1005.2797      11091.066     -7419.8756     -554.39359      71720.079      41.547693      41.547693      41.547693      1.2019951     -996.47575     -1715.0801     -770.13518    
    333000   333000         304.74495      177.88564      19394.364      19208.291      5576.5867      13631.704      2811.5216      4152.7448      3635.9428      321.33975     -946.62858      11081.308     -7424.5242     -554.36212      71724.151      41.54848       41.54848       41.54848       1.2019269      755.78653      157.11279     -379.2424     
    334000   334000         297.89066      652.36299      19754.247      19068.846      5451.1586      13617.687      2830.2646      4173.6354      3538.4336      315.70955     -923.52851      11101.882     -7418.7087     -551.92417      72040.968      41.609565      41.609565      41.609565      1.1966411      363.22885     -64.85052       1658.7106    
    335000   335000         297.44217     -260.09739      18709.702      18981.793      5442.9517      13538.842      2781.712       4074.0843      3685.916       303.30056     -954.95149      11072.121     -7423.3403     -554.31496      71730.253      41.549658      41.549658      41.549658      1.2018246     -635.58579     -376.2736       231.56722    
    336000   336000         302.43109      1779.0084      21009.341      19141.741      5534.2448      13607.497      2892.9834      4141.3128      3517.0248      300.32047     -922.16777      11095.099     -7417.0758     -552.36882      71982.977      41.598398      41.598398      41.598398      1.1976051      3195.4565      84.43044       2057.1382    
    337000   337000         295.34295      328.28202      19306.553      18963.867      5404.5375      13559.329      2863.2109      4089.9995      3588.1619      297.12524     -936.06545      11078.779     -7421.882      -555.50212      71576.958      41.520038      41.520038      41.520038      1.2043985      925.64759      1186.7086     -1127.5101    
    338000   338000         299.46274     -457.02803      18595.547      19075.579      5479.9265      13595.652      2850.8133      4111.3731      3606.2352      306.46433     -937.78733      11079.885     -7421.3312     -552.08765      72019.637      41.605458      41.605458      41.605458      1.1969955     -1068.5881      401.61071     -704.10667    
    339000   339000         299.17288      293.91654      19260.713      18953.02       5474.6223      13478.398      2788.9179      4105.8417      3595.1839      311.34441     -997.54241      11093.031     -7418.3788     -553.9122       71782.409      41.559726      41.559726      41.559726      1.2009514      664.54678     -118.0547       335.25753    
    340000   340000         297.03924     -432.52843      18555.94       19009.753      5435.5783      13574.175      2769.0554      4170.5955      3591.937       309.2479      -922.16765      11078.412     -7422.9054     -552.67815      71942.689      41.590635      41.590635      41.590635      1.1982758     -681.44686     -1141.1163      524.97785    
    341000   341000         299.42491      410.3423       19414.262      18987.359      5479.2341      13508.125      2739.1406      4112.0038      3649.4308      308.21126     -960.28802      11081.826     -7422.2        -557.381        71335.678      41.473332      41.473332      41.473332      1.2084722     -736.05655      2417.3962     -450.31274    
    342000   342000         295.97913     -342.12295      18609.441      18969.029      5416.1792      13552.85       2835.1765      4111.6688      3564.2848      321.31133     -926.1626       11072.59      -7426.0186     -551.71111      72068.79       41.614921      41.614921      41.614921      1.1961791      263.88125     -803.76676     -486.48335    
    343000   343000         305.04134      636.05008      19770.327      19104.901      5582.0103      13522.89       2870.4297      4101.8423      3531.0565      307.10638     -958.59113      11092.499     -7421.4524     -554.27627      71735.259      41.550625      41.550625      41.550625      1.2017407      1289.2803      298.12963      320.74034    
    344000   344000         298.04223     -1093.705       17933.265      19080.531      5453.9323      13626.599      2790.213       4171.1222      3640.7207      334.75856     -963.42741      11075.836     -7422.6242     -552.80346      71926.38       41.587492      41.587492      41.587492      1.1985475     -139.67667     -3264.9346      123.49615    
    345000   345000         299.80778     -1583.1699      17372.474      19038.632      5486.2405      13552.391      2772.9289      4124.907       3649.4577      314.68232     -981.62837      11091.619     -7419.5755     -550.99329      72162.679      41.632985      41.632985      41.632985      1.1946228     -1676.9881     -833.65416     -2238.8674    
    346000   346000         297.54035      996.80191      20017.832      18971.323      5444.7482      13526.575      2819.6343      4039.9116      3562.0493      318.15114     -870.42514      11081.511     -7424.2567     -552.33282      71987.668      41.599301      41.599301      41.599301      1.1975271      756.32226      1375.6629      858.42058    
    347000   347000         301.43408      310.65518      19470.097      19144.247      5516.0004      13628.246      2925.9283      4030.066       3584.7613      311.46332     -872.65328      11068.367     -7419.6865     -552.83426      71922.373      41.58672       41.58672       41.58672       1.1986143      1000.6713      1179.3097     -1248.0155    
    348000   348000         300.20576     -392.07401      18636.486      19046.662      5493.523       13553.139      2812.39        4113.6297      3656.0336      308.04958     -1006.8614      11092.018     -7422.1199     -554.28395      71734.266      41.550433      41.550433      41.550433      1.2017574     -744.25135     -1426.915       994.94428    
    349000   349000         298.62995     -831.22247      18228.957      19095.211      5464.687       13630.524      2898.1262      4183.2223      3581.5794      296.21795     -989.27961      11080.066     -7419.4081     -556.42511      71458.228      41.497068      41.497068      41.497068      1.2063997     -296.03599     -1147.3579     -1050.2735    
    350000   350000         299.30852      1323.7113      20355.189      18973.197      5477.1043      13496.092      2809.8297      4111.7198      3551.8362      309.94293     -937.04622      11071.128     -7421.3176     -555.42135      71587.367      41.522051      41.522051      41.522051      1.2042234      1423.4285      2081.271       466.43437    
    351000   351000         297.21095     -1654.3323      17192.074      18922.811      5438.7205      13484.09       2773.9897      4070.7925      3635.3091      298.74137     -944.94855      11069.257     -7419.0513     -554.27661      71735.215      41.550616      41.550616      41.550616      1.2017415     -1625.3618     -1799.7916     -1537.8433    
    352000   352000         302.38253     -585.89672      18472.406      19084.453      5533.3562      13551.096      2797.4639      4062.2695      3652.6629      314.14945     -928.88075      11073.761     -7420.3301     -555.10003      71628.805      41.530061      41.530061      41.530061      1.2035268     -15.019655     -1567.3979     -175.27258    
    353000   353000         293.63695     -216.86996      18605.066      18832.878      5373.3193      13459.559      2789.0079      4133.6934      3564.161       296.64034     -972.99306      11072.859     -7423.8096     -552.02313      72028.054      41.607079      41.607079      41.607079      1.1968556     -1133.6707      1319.0579     -835.99702    
    354000   354000         298.43971     -987.21529      18065.513      19099.325      5461.2058      13638.119      2846.8448      4107.8689      3659.6569      311.73084     -948.34754      11079.152     -7418.7865     -553.73916      71804.84       41.564055      41.564055      41.564055      1.2005762     -1197.7959     -1159.3885     -604.46153    
    355000   355000         296.84256     -64.477417      18861.848      18928.78       5431.9792      13496.801      2754.2898      4081.9813      3668.6173      304.22887     -974.45855      11078.136     -7415.9943     -558.60717      71179.094      41.442965      41.442965      41.442965      1.2111307      317.19695     -939.53274      428.90353    
    356000   356000         299.04475      94.581647      19161.311      19062.129      5472.2775      13589.852      2873.9561      4129.4118      3539.2057      322.86699     -936.81452      11081.532     -7420.3065     -552.982        71903.158      41.583016      41.583016      41.583016      1.1989346      497.42904     -758.62856      544.94446    
    357000   357000         300.8512       218.05669      19285.946      19057.502      5505.3341      13552.168      2879.9624      4073.4373      3576.0743      300.07709     -943.72602      11084.662     -7418.3198     -553.50848      71834.766      41.569828      41.569828      41.569828      1.2000761     -173.46977      949.98585     -122.34602    
    358000   358000         299.58162      399.85062      19362.326      18944.176      5482.1018      13462.075      2800.2452      4135.5744      3511.6209      313.93399     -949.76296      11071.546     -7421.0829     -554.49913      71706.428      41.545057      41.545057      41.545057      1.2022239     -234.01338     -165.73213      1599.2974    
    359000   359000         300.08386      657.92608      19678.607      18988.402      5491.2924      13497.11       2826.2477      4020.9536      3607.7536      308.74324     -934.40425      11088.475     -7420.6594     -552.75647      71932.495      41.588671      41.588671      41.588671      1.1984456      1453.7753      1672.5457     -1152.5428    
    360000   360000         302.27763      775.01098      19894.425      19080.663      5531.4366      13549.227      2812.6755      4172.2404      3536.7605      296.47404     -929.82313      11080.956     -7420.0563     -552.26224      71996.869      41.601073      41.601073      41.601073      1.1973741      577.25011      1191.4168      556.36604    
    361000   361000         296.3796       548.7648       19537.935      18964.335      5423.5074      13540.828      2863.3392      4135.2906      3545.704       294.43537     -965.30261      11084.092     -7416.7308     -554.76842      71671.621      41.538334      41.538334      41.538334      1.2028078      694.17023      870.99449      81.129691    
    362000   362000         305.08867     -652.05587      18480.394      19165.877      5582.8765      13583.001      2785.1298      4065.4117      3690.6884      312.39177     -939.67641      11090.126     -7421.07       -551.59835      72083.522      41.617757      41.617757      41.617757      1.1959347      127.5714      -215.72943     -1868.0096    
    363000   363000         302.48854     -795.38702      18319.842      19156.421      5535.2962      13621.125      2858.7445      4085.6456      3622.5378      314.68247     -915.37839      11075.082     -7420.1896     -551.32344      72119.466      41.624673      41.624673      41.624673      1.1953386     -1303.6347     -1744.9856      662.45924    
    364000   364000         298.84696     -1105.793       17917.022      19068.102      5468.6582      13599.444      2896.0558      4062.5726      3618.1393      311.21803     -956.69965      11088.452     -7420.2939     -557.06129      71376.62       41.481265      41.481265      41.481265      1.207779      -1147.8264     -670.6028      -1498.9498    
    365000   365000         302.06194     -799.43348      18143.267      18980.248      5527.4896      13452.759      2838.0435      4034.9929      3583.5101      302.77581     -957.8009       11069.995     -7418.7579     -553.86202      71788.912      41.560981      41.560981      41.560981      1.2008426      149.29428     -1212.0608     -1335.5339    
    366000   366000         296.72905     -868.74377      18109.842      19020.948      5429.902       13591.046      2797.9429      4087.6958      3656.9608      308.23191     -915.25396      11077.718     -7422.2501     -552.91419      71911.976      41.584716      41.584716      41.584716      1.1987876     -2559.749      -962.85257      916.37027    
    367000   367000         300.77725     -1289.1032      17876.398      19230.413      5503.981       13726.432      2843.4798      4173.8499      3674.5497      301.37676     -931.82114      11087.827     -7422.8298     -552.07599      72021.157      41.605751      41.605751      41.605751      1.1969703     -915.82394     -2555.8747     -395.61089    
    368000   368000         302.37068      1716.8286      20897.482      19091.497      5533.1394      13558.357      2824.8344      4209.23        3445.0618      300.72632     -885.95921      11086.279     -7421.8148     -551.24875      72129.237      41.626553      41.626553      41.626553      1.1951767      205.54142      1921.6414      3023.303     
    369000   369000         294.2681      -160.15884      18751.249      18919.095      5384.8688      13534.226      2852.7583      4082.0111      3589.685       306.68539     -951.94294      11076.329     -7421.3        -553.3192       71859.339      41.574567      41.574567      41.574567      1.1996657     -1015.4174      1194.0052     -659.06438    
    370000   370000         301.34808      916.65063      20109.127      19148.656      5514.4266      13634.229      2915.3025      4112.8038      3580.0882      309.78168     -945.16222      11078.972     -7417.5572     -553.41919      71846.356      41.572064      41.572064      41.572064      1.1998825      1301.3692     -53.229235      1501.812     
    371000   371000         295.91589     -947.05268      18025.632      19020.66       5415.022       13605.638      2828.4078      4090.9753      3639.1651      309.30653     -911.46356      11069.624     -7420.3777     -551.91719      72041.88       41.609741      41.609741      41.609741      1.196626      -768.51207     -471.74322     -1600.9028    
    372000   372000         300.03091      410.34029      19438.191      19009.397      5490.3234      13519.074      2899.5921      4055.7699      3546.814       314.04201     -966.63216      11088.878     -7419.39       -554.91946      71652.113      41.534565      41.534565      41.534565      1.2031353      3069.4945     -301.35003     -1537.1236    
    373000   373000         305.06911     -32.560362      19169.113      19203.165      5582.5184      13620.647      2894.8643      4073.0713      3625.7519      309.6303      -945.57919      11080.787     -7417.8784     -554.46484      71710.862      41.545914      41.545914      41.545914      1.2021496      30.159808     -1038.1177      910.27677    
    374000   374000         303.93105     -489.60646      18616.883      19127.819      5561.6929      13566.126      2787.8212      4058.7176      3738.0948      313.58024     -995.71425      11081.091     -7417.4644     -555.66826      71555.557      41.5159        41.5159        41.5159        1.2047587     -1223.1504      601.59087     -847.25981    
    375000   375000         300.70844     -561.26648      18438.093      19023.67       5502.7217      13520.949      2857.889       4118.1166      3558.1613      305.02143     -967.75111      11070.555     -7421.0432     -555.80113      71538.451      41.512591      41.512591      41.512591      1.2050468     -789.81492     -1461.6438      567.65924    
    376000   376000         300.73986      1231.4967      20367.658      19078.353      5503.2967      13575.056      2886.6935      4169.4941      3480.1208      297.85415     -929.01533      11090.455     -7420.546      -553.87573      71787.135      41.560638      41.560638      41.560638      1.2008723      1677.6079      1614.3871      402.49498    
    377000   377000         300.01226      420.67568      19476.47       19035.71       5489.9822      13545.728      2879.4844      4035.0849      3659.571       319.36042     -987.84418      11064.289     -7424.2182     -553.45248      71842.034      41.57123       41.57123       41.57123       1.1999546     -880.9365       840.86993      1302.0936    
    378000   378000         302.46917     -424.08869      18630.967      19074.532      5534.9417      13539.59       2797.8627      4087.9946      3633.8445      312.54252     -966.93424      11093.435     -7419.1548     -554.41366      71717.482      41.547192      41.547192      41.547192      1.2020386     -1183.8597     -243.12682      154.72042    
    379000   379000         307.27793      768.30683      20000.786      19197.812      5622.9381      13574.874      2849.816       4152.2396      3542.9358      325.54547     -959.32258      11084.148     -7420.4886     -554.84015      71662.355      41.536544      41.536544      41.536544      1.2029633      657.30774      1701.125      -53.512241    
    380000   380000         296.99202      196.32553      19211.254      19005.356      5434.7143      13570.642      2796.2349      4163.8357      3579.7542      309.11639     -941.39193      11079.969     -7416.8765     -552.9166       71911.663      41.584656      41.584656      41.584656      1.1987928     -99.794857     -541.16631      1229.9378    
    381000   381000         301.52416     -1220.923       17894.429      19174.967      5517.6487      13657.318      2862.8271      4069.2806      3632.0243      318.98425     -886.4764       11080.053     -7419.3741     -552.87984      71916.444      41.585577      41.585577      41.585577      1.1987131     -1946.8657     -1996.5594      280.65611    
    382000   382000         303.0591       875.91718      20105.735      19187.125      5545.7369      13641.389      2899.8784      4151.2053      3544.7011      304.97473     -929.68258      11090.8       -7420.4889     -552.9256       71910.492      41.58443       41.58443       41.58443       1.1988123      1107.6234      66.416258      1453.7119    
    383000   383000         301.1384       712.95769      19738.556      18995.105      5510.5897      13484.516      2809.1455      4101.4873      3563.319       310.28474     -962.42821      11082.383     -7419.6758     -556.09163      71501.079      41.505361      41.505361      41.505361      1.2056767      370.27638      898.90818      869.68853    
    384000   384000         302.03024     -383.51287      18663.935      19064.102      5526.9097      13537.192      2789.3891      4123.6152      3582.041       319.96868     -927.67765      11070.351     -7420.495      -555.74218      71546.039      41.514059      41.514059      41.514059      1.204919      -47.43456      -515.26678     -587.83725    
    385000   385000         299.21874      1475.4382      20626.509      19083.944      5475.4614      13608.483      2911.6259      4083.0705      3548.6578      311.94001     -911.42         11084.016     -7419.4075     -554.64164      71688.004      41.541499      41.541499      41.541499      1.2025329      1074.3433      1563.7002      1788.271     
    386000   386000         299.534        1229.3458      20305.009      19021.093      5481.2305      13539.863      2868.4736      4136.6426      3495.1348      316.88777     -932.26818      11077.978     -7422.9862     -555.22941      71612.114      41.526835      41.526835      41.526835      1.2038073      621.06064      1760.116       1306.8609    
    387000   387000         300.31899     -37.893899      18943.897      18983.44       5495.5952      13487.844      2734.0303      4090.8824      3620.2261      302.02375     -925.46596      11082.569     -7416.4212     -555.70323      71551.054      41.515029      41.515029      41.515029      1.2048346     -432.85227      1062.4957     -743.32508    
    388000   388000         303.30122      201.7725       19362.76       19152.709      5550.1675      13602.541      2854.3666      4176.9783      3575.8726      297.02851     -950.17482      11070.176     -7421.7056     -557.02182      71381.678      41.482245      41.482245      41.482245      1.2076934      137.27784      310.73281      157.30685    
    389000   389000         300.94983      156.3959       19131.961      18968.427      5507.139       13461.288      2758.4633      4158.8505      3518.9393      311.06014     -924.29577      11060.554     -7422.2828     -554.56515      71697.891      41.543409      41.543409      41.543409      1.2023671      1250.2849      142.84313     -923.9403     
    390000   390000         299.69747     -159.70191      19011.107      19178.764      5484.2217      13694.542      2853.331       4160.3353      3623.9229      306.47118     -921.91315      11088.309     -7415.9136     -552.361        71983.996      41.598594      41.598594      41.598594      1.1975882     -292.12264      129.62616     -316.60924    
    391000   391000         299.82604      167.55309      19232.076      19056.368      5486.5746      13569.794      2839.4421      4069.1891      3647.3069      324.37712     -975.90813      11086.979     -7421.5928     -552.96218      71905.735      41.583513      41.583513      41.583513      1.1988916     -184.79276      327.90482      359.54723    
    392000   392000         301.45921      1013.7621      20127.209      19072.717      5516.4602      13556.257      2838.38        4140.249       3531.2552      316.49372     -923.90587      11075.056     -7421.2704     -557.47828      71323.23       41.47092       41.47092       41.47092       1.2086831      395.54189      1723.3624      922.38208    
    393000   393000         304.8511      -1272.6309      17865.245      19206.988      5578.5291      13628.459      2863.6677      4196.0764      3571.0456      307.25856     -976.49373      11082.534     -7415.629      -550.00646      72292.154      41.657869      41.657869      41.657869      1.1924833     -706.97959     -1755.3447     -1355.5684    
    394000   394000         295.86896     -963.52406      17970.757      18976.858      5414.1632      13562.694      2801.8018      4137.0926      3613.2346      314.28012     -979.20346      11094.989     -7419.5004     -555.33634      71598.326      41.52417       41.52417       41.52417       1.2040391     -660.026       -222.37722     -2008.169     
    395000   395000         304.11937     -1.3121578      19165.918      19167.292      5565.1391      13602.153      2867.1054      4162.6144      3590.1143      303.40325     -982.3899       11083.723     -7422.4179     -554.04551      71765.137      41.556393      41.556393      41.556393      1.2012404      134.64456      559.85807     -698.4391     
    396000   396000         296.29985      5.216164       18946.792      18941.339      5422.0481      13519.291      2817.5071      4133.8822      3606.0741      307.57406     -994.42609      11072.248     -7423.5689     -554.683        71682.659      41.540466      41.540466      41.540466      1.2026226     -882.57538      1839.2085     -940.9846     
    397000   397000         302.91723      588.62903      19726.063      19111.835      5543.1409      13568.694      2822.2338      4074.8768      3588.9404      304.0054      -904.64292      11103.161     -7419.8804     -555.70848      71550.379      41.514898      41.514898      41.514898      1.2048459     -1132.6448      1151.2217      1747.3102    
    398000   398000         298.94472      165.5783       19288.255      19114.536      5470.4472      13644.089      2905.4492      4001.0512      3684.0774      335.30274     -929.87976      11068.586     -7420.4971     -552.70328      71939.417      41.590005      41.590005      41.590005      1.1983303      149.83987      1567.7513     -1220.8563    
    399000   399000         297.80821     -53.480339      18989.39       19045.423      5449.65        13595.773      2902.5006      4045.0925      3638.4138      308.2436      -941.91214      11064.382     -7420.9474     -553.46419      71840.515      41.570937      41.570937      41.570937      1.19998       -267.38949     -19.237597      126.18607    
    400000   400000         300.5943       1012.0393      20139.013      19078.962      5500.633       13578.329      2902.2386      4091.8369      3534.2866      303.84233     -924.29481      11090.914     -7420.4944     -553.61205      71821.326      41.567235      41.567235      41.567235      1.2003006     -348.87178      1800.278       1584.7117    
    401000   401000         294.63398     -27.629326      18982.635      19011.453      5391.564       13619.889      2823.8562      4134.5675      3632.2403      320.40736     -964.23343      11091.663     -7418.6124     -555.96625      71517.205      41.508481      41.508481      41.508481      1.2054048      1747.1062     -1675.3552     -154.63897    
    402000   402000         298.14202      476.68669      19510.508      19012.418      5455.7583      13556.66       2820.143       4054.0695      3616.6522      315.78263     -908.90976      11078.662     -7419.7404     -554.95742      71647.212      41.533618      41.533618      41.533618      1.2032175      526.20717     -274.21434      1178.0673    
    403000   403000         299.77603     -464.11879      18599.933      19086.586      5485.6593      13600.927      2836.6252      4195.6693      3583.8588      303.97141     -972.31547      11074.407     -7421.2894     -553.02478      71897.595      41.581944      41.581944      41.581944      1.1990273     -2524.3653     -699.16229      1831.1712    
    404000   404000         295.41074      96.802893      19022.243      18920.822      5405.7781      13515.044      2806.8265      4108.7322      3618.1663      312.27896     -984.42262      11070.429     -7416.966      -553.47189      71839.514      41.570744      41.570744      41.570744      1.1999967      454.40545      850.16204     -1014.1588    
    405000   405000         296.40497     -153.13924      18821.776      18981.551      5423.9718      13557.579      2828.2717      4097.7841      3607.864       323.77604     -949.28127      11076.053     -7426.8886     -555.79324      71539.467      41.512788      41.512788      41.512788      1.2050297     -275.32425      464.41587     -648.50934    
    406000   406000         300.54949      189.29448      19303.636      19105.795      5499.8132      13605.982      2854.2379      4130.6896      3640.6452      310.37539     -977.126        11068.975     -7421.8151     -554.82533      71664.27       41.536914      41.536914      41.536914      1.2029312      355.52034     -452.71691      665.08       
    407000   407000         296.3038       834.04771      19826.699      18956.39       5422.1204      13534.269      2776.9837      4088.7672      3622.4886      312.53386     -925.01604      11080.198     -7421.6859     -555.71512      71549.523      41.514733      41.514733      41.514733      1.2048603      1816.0093     -165.66196      851.79582    
    408000   408000         304.03891     -197.4827       18971.664      19178.11       5563.6667      13614.443      2836.524       4075.2113      3645.1324      324.76185     -946.33641      11093.874     -7414.7234     -554.69977      71680.492      41.540048      41.540048      41.540048      1.2026589     -390.20562      622.63296     -824.87543    
    409000   409000         299.70908     -179.30286      18857.01       19045.01       5484.4343      13560.576      2830.3932      4088.9066      3610.6232      302.97578     -922.03342      11073.202     -7423.491      -553.05031      71894.277      41.581304      41.581304      41.581304      1.1990827     -523.10121      785.63207     -800.43943    
    410000   410000         302.54147     -953.1296       18023.026      19016.318      5536.2647      13480.053      2828.658       4047.5523      3610.1461      309.91813     -971.65492      11077.344     -7421.9108     -556.42906      71457.72       41.49697       41.49697       41.49697       1.2064083     -311.63055     -873.69164     -1674.0666    
    411000   411000         304.08878     -1112.091       17906.162      19069.871      5564.5792      13505.292      2816.9697      4138.1279      3612.22        309.21488     -1014.2048      11068.441     -7425.4768     -554.15447      71751.026      41.553669      41.553669      41.553669      1.2014767     -2557.4936     -1138.2302      359.45081    
    412000   412000         299.10432     -649.47468      18377.115      19055.77       5473.3676      13582.403      2908.6886      4105.841       3574.2685      304.87766     -972.75494      11080.821     -7419.339      -554.94199      71649.204      41.534003      41.534003      41.534003      1.2031841     -1240.13       -588.31553     -119.97846    
    413000   413000         297.12614     -786.27368      18222.08       19040.687      5437.1686      13603.518      2801.0397      4121.7431      3683.9594      315.02376     -978.41748      11081.123     -7420.9531     -556.97174      71388.096      41.483488      41.483488      41.483488      1.2075848     -620.95629     -1089.3665     -648.4983     
    414000   414000         302.09637     -1103.0538      17832.675      18979.7        5528.1198      13451.58       2716.4358      4122.8329      3616.8665      311.17349     -981.25006      11088.359     -7422.8378     -557.64605      71301.773      41.466761      41.466761      41.466761      1.2090468     -708.49922     -1978.265      -622.3972     
    415000   415000         295.7605       1321.1516      20354.559      18982.232      5412.1784      13570.054      2936.0658      4151.2958      3506.6         310.10224     -992.17978      11078.475     -7420.3049     -558.2516       71224.43       41.451762      41.451762      41.451762      1.2103597      1306.5728      2175.7267      481.15544    
    416000   416000         302.98038      1270.542       20500.193      19168.143      5544.2965      13623.847      2852.5505      4165.4212      3515.9123      315.26386     -874.27863      11071.281     -7422.3034     -553.09991      71887.83       41.580061      41.580061      41.580061      1.1991902      538.56209      1776.8292      1496.2348    
    417000   417000         297.19612     -1346.1008      17600.061      19009.576      5438.4491      13571.127      2783.7083      4033.3826      3766.3636      304.38834     -988.13891      11089.913     -7418.4897     -553.78706      71798.63       41.562856      41.562856      41.562856      1.2006801     -2076.0589     -779.68028     -1182.5631    
    418000   418000         297.45774      1653.0941      20647.402      18930.964      5443.2365      13487.728      2879.9268      4142.0564      3458.0941      291.73088     -939.27591      11075.558     -7420.3626     -558.47577      71195.841      41.446215      41.446215      41.446215      1.2108458      2887.1048      1622.2953      449.88234    
    419000   419000         303.5944      -446.72819      18593.807      19061.407      5555.5324      13505.875      2835.5933      4118.1315      3609.296       300.56057     -1008.2294      11073.705     -7423.1821     -553.99216      71772.048      41.557726      41.557726      41.557726      1.2011247      540.78536     -2736.7796      855.80968    
    420000   420000         297.70196      248.80519      19237.668      18978.075      5447.7057      13530.369      2842.2637      4136.6816      3521.7607      297.51595     -923.84871      11079.497     -7423.5007     -555.77702      71541.555      41.513192      41.513192      41.513192      1.2049945      524.19669     -28.513045      250.73191    
    421000   421000         300.85789      259.48513      19306.132      19033.965      5505.4566      13528.509      2882.2982      4136.9949      3490.7736      284.48444     -926.67574      11080.485     -7419.8513     -552.85569      71919.585      41.586183      41.586183      41.586183      1.1986607     -520.03383     -769.08334      2067.5725    
    422000   422000         301.28301      1173.9611      20351.358      19125.175      5513.2359      13611.939      2896.1274      4094.8879      3629.6142      305.93491     -977.8764       11084.327     -7421.0761     -555.17945      71618.559      41.528081      41.528081      41.528081      1.2036989      1764.9541      481.49403      1275.4353    
    423000   423000         298.8658       23.598953      19086.302      19061.567      5469.0029      13592.564      2837.1018      4109.8214      3620.8214      311.70541     -954.06398      11084.576     -7417.3986     -553.2369       71870.029      41.576629      41.576629      41.576629      1.1994872      483.15396      788.41053     -1200.7676    
    424000   424000         299.14318     -78.292669      18991.514      19073.315      5474.0788      13599.236      2849.0952      4089.0905      3650.8702      315.45887     -956.22131      11073.664     -7422.7218     -555.00898      71640.556      41.532332      41.532332      41.532332      1.2033293     -1001.5549     -151.8518       918.52865    
    425000   425000         299.95389     -887.63972      18182.712      19108.036      5488.914       13619.122      2837.4058      4164.2033      3675.4808      301.90559     -1006.5726      11071.644     -7424.9449     -556.26012      71479.423      41.50117       41.50117       41.50117       1.206042      -396.5904       563.00035     -2829.3291    
    426000   426000         302.1732       161.68358      19356.329      19187.208      5529.5257      13657.682      2892.7445      4089.7054      3608.843       306.079       -899.16339      11075.615     -7416.1417     -554.37158      71722.926      41.548243      41.548243      41.548243      1.2019474      112.59917      134.27695      238.17463    
    427000   427000         298.6971      -777.88263      18220.434      19035.496      5465.9158      13569.58       2776.793       4060.8452      3679.5427      314.07902     -918.92065      11075.103     -7417.8626     -553.42441      71845.678      41.571933      41.571933      41.571933      1.1998938     -799.4499       1570.1597     -3104.3577    
    428000   428000         302.01219     -272.56921      18717.751      19001.516      5526.5793      13474.936      2804.7201      4151.2516      3538.5655      298.61        -990.88819      11088.025     -7415.3475     -556.99715      71384.84       41.482857      41.482857      41.482857      1.2076399      617.92484     -567.05387     -868.5786     
    429000   429000         302.63114      1394.0688      20612.52       19156.659      5537.9057      13618.754      2897.6668      4111.8162      3492.9255      311.86633     -850.85928      11077.507     -7422.1684     -555.26365      71607.699      41.525981      41.525981      41.525981      1.2038815      695.58762      793.14707      2693.4717    
    430000   430000         306.28894      1116.3314      20343.126      19179.06       5604.8405      13574.219      2854.3251      4093.5497      3581.0366      307.39068     -931.30961      11087.222     -7417.9949     -556.09681      71500.413      41.505233      41.505233      41.505233      1.2056879      1465.9956      1365.3201      517.67858    
    431000   431000         297.46224      630.4506       19684.895      19029.453      5443.319       13586.134      2821.9231      4184.3299      3606.9197      311.06133     -1004.0184      11083.398     -7417.4788     -557.76574      71286.472      41.463794      41.463794      41.463794      1.2093063     -489.49432      1693.102       687.7441     
    432000   432000         300.91806      505.96475      19613.042      19083.387      5506.5576      13576.829      2882.7133      4153.8025      3501.837       312.06108     -951.99574      11095.466     -7417.0553     -553.93838      71779.016      41.559071      41.559071      41.559071      1.2010081      1221.291       1443.209      -1146.6058    
    433000   433000         299.51608      715.26985      19811.745      19060.108      5480.9025      13579.205      2846.5857      4085.088       3602.1351      313.575       -932.55033      11087.142     -7422.7697     -551.81861      72054.749      41.612219      41.612219      41.612219      1.1964122      2932.6553      1025.8134     -1812.6592    
    434000   434000         300.86744      44.296795      19144.153      19097.57       5505.6313      13591.938      2888.2599      4120.3722      3530.7211      314.96101     -916.97667      11076.028     -7421.4268     -551.40992      72108.155      41.622497      41.622497      41.622497      1.1955261      506.57249     -99.057197     -274.62491    
    435000   435000         297.36829      654.07804      19828.1        19144.298      5441.5996      13702.698      2902.4632      4100.197       3618.7249      324.10068     -900.22685      11080.786     -7423.3471     -554.66947      71684.407      41.540804      41.540804      41.540804      1.2025932      1096.2967     -1134.0267      1999.9642    
    436000   436000         301.34935     -1179.9012      17834.434      19071.66       5514.4499      13557.21       2828.7402      4136.6142      3578.6333      298.44654     -939.64389      11074.232     -7419.813      -553.00807      71899.768      41.582363      41.582363      41.582363      1.1989911     -1040.6615     -1481.8535     -1017.1885    
    437000   437000         303.00935     -37.972611      19123.018      19162.937      5544.8266      13618.111      2788.9108      4174.2196      3613.0184      317.95671     -946.66362      11089.744     -7419.0749     -551.59431      72084.05       41.617858      41.617858      41.617858      1.1959259     -171.9095      -729.96009      787.95175    
    438000   438000         300.82843      378.63452      19485.53       19087.22       5504.9175      13582.303      2826.4848      4111.0997      3572.1041      325.65654     -909.426        11074.868     -7418.4844     -551.23123      72131.53       41.626994      41.626994      41.626994      1.1951387     -58.944761      1260.2175     -65.369232    
    439000   439000         301.63604     -365.69106      18671.035      19054.617      5519.6961      13534.921      2856.0764      4095.3913      3563.3345      306.772       -959.36031      11089.107     -7416.4008     -552.82905      71923.051      41.586851      41.586851      41.586851      1.198603      -608.11714      632.09322     -1121.0493    
    440000   440000         302.32755     -1057.6611      17964.623      19074.051      5532.3501      13541.701      2827.0534      4095.3871      3636.1714      307.66285     -990.77696      11085.616     -7419.4134     -552.81839      71924.437      41.587118      41.587118      41.587118      1.1985799      940.50259     -2235.2151     -1878.2708    
    441000   441000         300.39463     -1181.3691      17893.092      19132.399      5496.9793      13635.42       2835.9715      4111.2252      3672.5306      311.66294     -958.6762       11083.904     -7421.1976     -552.76634      71931.21       41.588423      41.588423      41.588423      1.198467      -675.73042     -515.61843     -2352.7584    
    442000   442000         299.67134      1286.8         20343.316      19001.158      5483.7437      13517.414      2889.953       4044.8418      3571.1926      303.09077     -954.20058      11083.388     -7420.851      -555.95829      71518.229      41.508679      41.508679      41.508679      1.2053876      1719.7726      1445.4275      695.19988    
    443000   443000         304.26423     -609.46776      18582.567      19220.012      5567.7899      13652.222      2880.8291      4109.1048      3630.0219      317.77253     -937.20446      11070.086     -7418.3872     -554.42496      71716.021      41.54691       41.54691       41.54691       1.2020631     -2421.8734      692.61182     -99.141662    
    444000   444000         302.20768      232.85228      19286.098      19044.075      5530.1566      13513.918      2786.0688      4105.7407      3635.4457      297.92736     -973.63316      11084.419     -7422.0502     -557.90333      71268.892      41.460385      41.460385      41.460385      1.2096047     -790.81872      1190.3274      299.04812    
    445000   445000         300.43562     -568.15126      18419.308      19013.045      5497.7294      13515.316      2800.5841      4070.9204      3591.9516      307.40276     -897.02415      11066.488     -7425.0066     -554.88701      71656.304      41.535375      41.535375      41.535375      1.2030649     -1164.3335     -358.8084      -181.31187    
    446000   446000         298.24251      1406.1981      20514.225      19044.804      5457.5972      13587.207      2852.7575      4073.2021      3625.7744      312.74912     -935.24759      11078.403     -7420.4323     -554.92609      71651.257      41.5344        41.5344        41.5344        1.2031496      1831.8569      362.28689      2024.4506    
    447000   447000         295.85508     -196.45605      18702.073      18906.994      5413.9093      13493.085      2804.8621      4091.8226      3560.7639      316.48899     -931.56941      11073.276     -7422.5591     -555.92358      71522.694      41.509543      41.509543      41.509543      1.2053123     -911.10785     -1543.6118      1865.3515    
    448000   448000         301.74639      179.29299      19304.465      19117.546      5521.7154      13595.83       2852.5934      4121.724       3602.8992      318.29916     -964.01539      11082.039     -7417.709      -556.21654      71485.022      41.502254      41.502254      41.502254      1.2059475     -883.06181     -173.13106      1594.0719    
    449000   449000         301.74351      571.35685      19600.869      19001.053      5521.6627      13479.391      2800.8655      4087.3299      3562.9446      300.47246     -937.18835      11086.47      -7421.5033     -552.36291      71983.747      41.598546      41.598546      41.598546      1.1975923      951.52195     -129.45031      891.99889    
    450000   450000         303.63643      982.74952      20191.867      19164.123      5556.3015      13607.822      2881.8926      4127.8878      3525.7781      308.68591     -903.66671      11088.368     -7421.1234     -554.4889       71707.751      41.545313      41.545313      41.545313      1.2022017     -139.60339      1826.1873      1261.6647    
    451000   451000         301.70584      2232.6726      21379.628      19052.852      5520.9734      13531.879      2858.0766      4075.3253      3532.7511      306.59825     -921.58943      11099.461     -7418.7437     -556.42334      71458.455      41.497112      41.497112      41.497112      1.2063958      1405.3113      2775.5798      2517.1266    
    452000   452000         292.2437       369.5092       19225.609      18840.209      5347.8238      13492.385      2833.8036      4025.2471      3610.802       289.8666      -921.6994       11074.32      -7419.9542     -555.96603      71517.232      41.508487      41.508487      41.508487      1.2054044      820.58253      62.09915       225.84592    
    453000   453000         298.69129     -967.15061      17985.884      18991.325      5465.8095      13525.516      2876.5418      4173.804       3517.5789      289.49503     -997.6979       11085.531     -7419.7373     -557.79178      71283.145      41.463149      41.463149      41.463149      1.2093628     -25.09857      -45.873119     -2830.4801    
    454000   454000         298.61611      99.134292      19142.4        19038.493      5464.4338      13574.059      2859.2016      4091.4881      3616.7655      303.14244     -957.58279      11082.372     -7421.3277     -553.23825      71869.853      41.576595      41.576595      41.576595      1.1994902      153.85778      565.8193      -422.2742     
    455000   455000         301.73656     -60.62902       19018.909      19082.402      5521.5355      13560.867      2901.6164      4074.3301      3540.6813      300.35015     -928.35365      11089.101     -7416.8581     -553.71853      71807.516      41.564571      41.564571      41.564571      1.2005315     -199.19022      354.78741     -337.48425    
    456000   456000         297.99722      1016.6082      19985.175      18925.065      5453.1086      13471.957      2860.2774      4119.262       3551.8273      299.14766     -1032.2028      11092.204     -7418.5585     -556.08045      71502.517      41.50564       41.50564       41.50564       1.2056524      1095.0247      475.26602      1479.5337    
    457000   457000         304.89157     -775.02066      18341.685      19155.955      5579.2696      13576.686      2815.7008      4115.6692      3632.9993      301.60711     -953.54585      11086.138     -7421.8825     -551.9242       72040.965      41.609565      41.609565      41.609565      1.1966411     -1706.2565     -608.27851     -10.526991    
    458000   458000         302.44178     -325.05886      18728.878      19067.93       5534.4404      13533.489      2845.389       4020.7087      3623.6609      315.69404     -922.15577      11070.191     -7419.9986     -555.94432      71520.026      41.509027      41.509027      41.509027      1.2053573     -677.32774     -126.12306     -171.72579    
    459000   459000         299.42723      1195.7964      20241.247      18994.597      5479.2767      13515.321      2859.3383      4130.987       3534.3411      297.33209     -964.53588      11078.905     -7421.0467     -556.22139      71484.4        41.502134      41.502134      41.502134      1.205958       1700.6226      1622.8557      263.91078    
    460000   460000         300.46381     -123.48241      18834.579      18964.342      5498.2453      13466.097      2821.8096      4034.3097      3605.9768      299.05517     -953.84764      11078.578     -7419.7846     -551.80876      72056.036      41.612466      41.612466      41.612466      1.1963909     -493.87432      1200.0616     -1076.6345    
    461000   461000         304.73866     -551.01132      18522.814      19099.373      5576.4715      13522.901      2840.9198      4092.9583      3618.8809      306.75423     -985.2531       11069.703     -7421.062      -554.18164      71747.509      41.55299       41.55299       41.55299       1.2015356     -93.047762     -261.69696     -1298.2892    
    462000   462000         298.2918       1485.6824      20519.01       18970.917      5458.4991      13512.418      2807.7614      4096.0202      3539.1481      306.0717      -894.33556      11080.78      -7423.0284     -556.49815      71448.849      41.495252      41.495252      41.495252      1.206558       1620.7502      1240.5512      1595.7459    
    463000   463000         302.15344      850.9297       19973.663      19082.501      5529.1641      13553.337      2826.2957      4064.3311      3606.8998      313.61205     -899.12488      11064.481     -7423.1574     -553.69679      71810.335      41.565115      41.565115      41.565115      1.2004844     -758.32419      2770.598       540.51531    
    464000   464000         301.60538     -628.42899      18381.135      19038.41       5519.1351      13519.275      2746.5839      4094.7001      3648.8545      311.53384     -939.36328      11077.714     -7420.748      -554.42703      71715.753      41.546858      41.546858      41.546858      1.2020676     -2651.4034      923.8534      -157.73698    
    465000   465000         300.69177      685.07112      19790.943      19077.53       5502.4167      13575.114      2838.4115      4140.7744      3583.291       305.24049     -942.37779      11076.116     -7426.3418     -556.83884      71405.134      41.486788      41.486788      41.486788      1.2072967     -423.10242      2324.0655      154.25032    
    466000   466000         300.18957     -411.25988      18650.792      19081.244      5493.2268      13588.017      2784.1686      4178.997       3578.5467      321.10442     -932.43915      11077.416     -7419.7761     -554.0222       71768.157      41.556975      41.556975      41.556975      1.2011899     -145.98271     -332.9243      -754.87262    
    467000   467000         295.69832     -475.954        18488.434      18989.118      5411.0406      13578.078      2795.3852      4098.2037      3677.6159      317.00558     -974.23633      11086.37      -7422.2667     -551.23334      72131.254      41.626941      41.626941      41.626941      1.1951433     -1.3399675     -1406.6944     -19.827646    
    468000   468000         295.47646     -623.24625      18349.336      19000.923      5406.9807      13593.942      2847.2091      4035.4088      3659.7827      304.06952     -928.0401       11091.685     -7416.1726     -554.65391      71686.418      41.541193      41.541193      41.541193      1.2025595     -571.81152     -665.53921     -632.38804    
    469000   469000         302.62744      1370.8782      20554.475      19127.56       5537.8379      13589.722      2878.908       4158.0595      3581.4468      307.2179      -1003.5245      11089.852     -7422.238      -557.10326      71371.243      41.480223      41.480223      41.480223      1.20787        389.65548      1447.4591      2275.5199    
    470000   470000         301.62021     -573.18604      18462.503      19063.649      5519.4064      13544.242      2815.2231      4135.6847      3604.3727      308.6399      -972.9094       11075.178     -7421.9464     -552.90538      71913.122      41.584937      41.584937      41.584937      1.1987685      816.09848     -1634.0227     -901.6339     
    471000   471000         290.48663      6.6860971      18874.753      18867.696      5315.6709      13552.025      2780.23        4144.8599      3598.1855      289.59809     -936.96194      11098.544     -7422.4307     -549.39322      72372.849      41.673364      41.673364      41.673364      1.1911537      638.59668     -1353.3572      734.8188     
    472000   472000         301.4465      -528.84112      18475.028      19028.706      5516.2277      13512.478      2823.6398      4166.987       3519.1112      300.81142     -951.05595      11073.617     -7420.6322     -553.86377      71788.686      41.560937      41.560937      41.560937      1.2008464      724.98364     -1656.3226     -655.1844     
    473000   473000         292.40967      878.45381      19817.495      18897.686      5350.8609      13546.825      2802.2152      4185.6961      3508.1742      311.38127     -922.87347      11079.853     -7417.6218     -553.80348      71796.501      41.562445      41.562445      41.562445      1.2007157      317.77088      557.88761      1759.7029    
    474000   474000         297.73778      153.11001      19255.02       19095.23       5448.3611      13646.869      2861.323       4098.0378      3620.9607      309.6308      -907.74401      11082.978     -7418.3168     -555.63597      71559.716      41.516704      41.516704      41.516704      1.2046887      446.1176      -885.34624      898.55868    
    475000   475000         302.07637     -878.81673      18140.182      19063.828      5527.7538      13536.075      2814.7423      4113.1667      3611.6919      308.4685      -973.75258      11083.819     -7422.0612     -551.7308       72066.218      41.614426      41.614426      41.614426      1.1962218     -1648.5312     -1975.1416      987.22267    
    476000   476000         300.4943      -36.758556      18973.657      19011.983      5498.8031      13513.18       2815.7733      4119.3599      3627.013       301.29978     -1001.3878      11072.392     -7421.2704     -556.16464      71491.693      41.503545      41.503545      41.503545      1.205835      -657.49234      870.57221     -323.35554    
    477000   477000         298.46282      771.68441      19828.209      19019.235      5461.6287      13557.606      2853.1038      4104.2782      3539.5962      297.37052     -906.22122      11087.974     -7418.4949     -553.1462       71881.813      41.578901      41.578901      41.578901      1.1992906      494.94658      932.47209      887.63456    
    478000   478000         297.9094       1412.9337      20549.946      19077.149      5451.5016      13625.647      2882.0303      4133.2669      3568.055       318.59398     -931.87535      11075.512     -7419.9362     -556.30574      71473.561      41.500036      41.500036      41.500036      1.2061409      2553.8961      1207.7093      477.19577    
    479000   479000         302.41068     -1209.5593      17814.375      19082.297      5533.8713      13548.426      2829.9769      4103.8149      3632.2718      292.02952     -974.39946      11085.418     -7420.6859     -553.18402      71876.899      41.577954      41.577954      41.577954      1.1993726     -3058.9091     -1324.0993      754.33057    
    480000   480000         299.16044     -532.58345      18563.732      19122.459      5474.3947      13648.064      2879.09        4141.835       3650.9492      301.60572     -976.60293      11073.666     -7422.4789     -552.74293      71934.257      41.589011      41.589011      41.589011      1.1984163     -44.660985      100.36764     -1653.457     
    481000   481000         300.93338     -811.08882      18262.337      19108.469      5506.838       13601.631      2771.2043      4149.5687      3663.6186      312.11692     -953.79569      11080.169     -7421.2507     -555.85976      71530.906      41.511132      41.511132      41.511132      1.2051739     -236.91735     -2436.8295      240.48043    
    482000   482000         298.05936      635.10815      19739.499      19073.177      5454.2456      13618.931      2842.3177      4161.9655      3598.6439      316.20633     -960.70994      11080.899     -7420.3906     -552.71138      71938.363      41.589802      41.589802      41.589802      1.1983479     -1496.2322      2464.3613      937.1953     
    483000   483000         297.39753     -333.73643      18543.22       18894.545      5442.1347      13452.41       2797.1001      4103.9125      3542.3544      304.98594     -972.71462      11098.08      -7421.3084     -550.84542      72182.051      41.63671       41.63671       41.63671       1.1943022     -859.13098      819.18966     -961.26796    
    484000   484000         302.86851     -442.6004       18645.83       19109.046      5542.2494      13566.796      2882.5292      4102.7841      3562.485       302.73407     -942.83704      11079.072     -7419.9706     -554.06806      71762.216      41.555829      41.555829      41.555829      1.2012893      221.1566      -601.56331     -947.39447    
    485000   485000         296.79357     -286.27052      18659.544      18959.067      5431.0829      13527.984      2771.3214      4090.4693      3641.2259      314.82035     -932.10712      11067.005     -7424.7513     -554.21912      71742.656      41.552053      41.552053      41.552053      1.2016168     -659.0982      -1028.1498      828.43649    
    486000   486000         303.27868      345.3335       19366.058      19004.614      5549.755       13454.859      2769.1878      4119.3876      3550.5781      308.96373     -950.73895      11078.034     -7420.5531     -554.03014      71767.128      41.556777      41.556777      41.556777      1.2012071     -366.99893      70.551515      1332.4479    
    487000   487000         292.69188      67.243753      19098.95       19028.445      5356.0251      13672.42       2840.4766      4163.3095      3628.5112      314.13321     -931.41229      11079.49      -7422.0886     -553.05092      71894.197      41.581289      41.581289      41.581289      1.199084       48.816232     -1916.8184      2069.7334    
    488000   488000         294.91743     -916.85178      18031.461      18988.254      5396.7509      13591.504      2848.968       4136.7406      3576.0207      308.27785     -924.32651      11069.179     -7423.3558     -555.66877      71555.491      41.515887      41.515887      41.515887      1.2047599      554.75568     -2297.678      -1007.633     
    489000   489000         303.56772      422.64877      19615.345      19172.669      5555.0443      13617.625      2866.3715      4132.6253      3596.268       318.96841     -950.96439      11075.552     -7421.1961     -553.64104      71817.566      41.56651       41.56651       41.56651       1.2003635      335.27745     -210.77769      1143.4465    
    490000   490000         302.07138      129.36856      19212.4        19077.029      5527.6625      13549.366      2865.7867      4100.4665      3588.0534      306.82036     -970.52724      11079.876     -7421.1096     -554.162        71750.051      41.55348       41.55348       41.55348       1.201493      -42.443922     -513.72042      944.27002    
    491000   491000         303.30166     -1301.186       17743.664      19110.826      5550.1755      13560.651      2785.8632      4103.1616      3682.0367      300.97668     -981.80619      11092.584     -7422.1654     -551.89209      72045.157      41.610372      41.610372      41.610372      1.1965715     -261.44454     -1720.7061     -1921.4073    
    492000   492000         295.74441      535.70822      19467.067      18910.846      5411.884       13498.962      2786.0678      4051.9865      3633.7804      296.04118     -943.88288      11093.816     -7418.8466     -558.4904       71193.975      41.445853      41.445853      41.445853      1.2108775      153.51547      1396.0843      57.524882    
    493000   493000         302.73226      64.781512      19248.673      19181.077      5539.756       13641.321      2817.8617      4107.2571      3629.9237      329.25764     -904.76908      11081.562     -7419.7717     -555.73005      71547.601      41.514361      41.514361      41.514361      1.2048927      889.2211      -1515.4047      820.52818    
    494000   494000         302.32645      1249.8073      20339.898      19029.329      5532.3301      13496.999      2804.2391      4103.418       3565.6736      304.11765     -952.745        11092.686     -7420.3902     -552.99115      71901.968      41.582787      41.582787      41.582787      1.1989544      765.68381      207.17167      2776.5665    
    495000   495000         296.04824      200.36576      19172.347      18962.996      5417.4439      13545.552      2884.9001      4084.4594      3551.3463      307.89361     -943.35745      11078.513     -7418.2028     -554.98609      71643.511      41.532903      41.532903      41.532903      1.2032797     -832.98481     -146.51987      1580.602     
    496000   496000         299.53184      58.38209       19019.887      18958.834      5481.1908      13477.643      2828.6678      4092.7444      3559.8257      297.9937      -952.96564      11075.471     -7424.0933     -554.51157      71704.819      41.544747      41.544747      41.544747      1.2022509      558.67621     -1586.015       1202.485     
    497000   497000         304.54181      1116.7967      20300.526      19135.417      5572.8694      13562.547      2860.7415      4084.3691      3568.0154      308.58687     -918.15764      11079.265     -7420.2732     -555.83051      71534.669      41.51186       41.51186       41.51186       1.2051105      2311.7728      218.14043      820.47692    
    498000   498000         298.83412      937.44799      20030.702      19050.804      5468.4232      13582.381      2898.7299      4074.8634      3579.892       302.13317     -931.88493      11081.803     -7423.1556     -554.75515      71673.335      41.538665      41.538665      41.538665      1.202779       198.70521      2469.9681      143.67062    
    499000   499000         305.63829     -435.45584      18619.228      19074.578      5592.934       13481.644      2830.713       4050.3239      3596.2663      313.9682      -974.46707      11085.18      -7420.3399     -554.54165      71700.93       41.543996      41.543996      41.543996      1.2023161     -1777.1549     -169.87113      640.65846    
    500000   500000         299.37908      622.19313      19744.669      19091.928      5478.3955      13613.533      2901.9101      4084.7292      3542.8672      313.75751     -883.31441      11073.409     -7419.8258     -552.73844      71934.841      41.589123      41.589123      41.589123      1.1984065      2912.9391      430.97985     -1477.3396    
Loop time of 942.322 on 1 procs for 500000 steps with 6140 atoms

Performance: 45.844 ns/day, 0.524 hours/ns, 530.604 timesteps/s, 3.258 Matom-step/s
100.0% CPU use with 1 MPI tasks x 1 OpenMP threads

MPI task timing breakdown:
Section |  min time  |  avg time  |  max time  |%varavg| %total
---------------------------------------------------------------
Pair    | 103.55     | 103.55     | 103.55     |   0.0 | 10.99
Bond    | 131.81     | 131.81     | 131.81     |   0.0 | 13.99
Kspace  | 465.63     | 465.63     | 465.63     |   0.0 | 49.41
Neigh   | 54.228     | 54.228     | 54.228     |   0.0 |  5.75
Comm    | 10.716     | 10.716     | 10.716     |   0.0 |  1.14
Output  | 4.2859     | 4.2859     | 4.2859     |   0.0 |  0.45
Modify  | 152.4      | 152.4      | 152.4      |   0.0 | 16.17
Other   |            | 19.7       |            |       |  2.09

Nlocal:           6140 ave        6140 max        6140 min
Histogram: 1 0 0 0 0 0 0 0 0 0
Nghost:          16861 ave       16861 max       16861 min
Histogram: 1 0 0 0 0 0 0 0 0 0
Neighs:              0 ave           0 max           0 min
Histogram: 1 0 0 0 0 0 0 0 0 0
FullNghs:  3.33696e+06 ave 3.33696e+06 max 3.33696e+06 min
Histogram: 1 0 0 0 0 0 0 0 0 0

Total # of neighbors = 3336956
Ave neighs/atom = 543.47818
Ave special neighs/atom = 5.6319218
Neighbor list builds = 12567
Dangerous builds = 0
System init for write_data ...
PPPM Kokkos initialization ...
  using 12-bit tables for long-range coulomb
  G vector (1/distance) = 0.30703898
  grid = 32 32 32
  stencil order = 5
  estimated absolute RMS force accuracy = 0.00038176576
  estimated relative force accuracy = 1.1496762e-06
  using double precision cuFFT
  3d grid and FFT values/proc = 59319 32768
Generated 21 of 21 mixed pair_coeff terms from sixthpower/sixthpower mixing rule
System init for write_restart ...
PPPM Kokkos initialization ...
  using 12-bit tables for long-range coulomb
  G vector (1/distance) = 0.30703898
  grid = 32 32 32
  stencil order = 5
  estimated absolute RMS force accuracy = 0.00038176576
  estimated relative force accuracy = 1.1496762e-06
  using double precision cuFFT
  3d grid and FFT values/proc = 59319 32768
Generated 21 of 21 mixed pair_coeff terms from sixthpower/sixthpower mixing rule
STAGE COMPLETE: NPT T=300.0->300.0K P=1.0->1.0atm steps=500000
