LAMMPS (22 Jul 2025 - Update 3)
KOKKOS mode with Kokkos version 4.6.2 is enabled
  will use up to 1 GPU(s) per node
  using 1 OpenMP thread(s) per MPI task
Reading data file ...
  orthogonal box = (4.7236256 4.7236256 4.7236256) to (47.482084 47.482084 47.482084)
  1 by 1 by 1 MPI processor grid
  reading atoms ...
  6500 atoms
  reading velocities ...
  6500 velocities
  scanning bonds ...
  4 = max bonds/atom
  scanning angles ...
  16 = max angles/atom
  scanning dihedrals ...
  38 = max dihedrals/atom
  scanning impropers ...
  12 = max impropers/atom
  orthogonal box = (4.7236256 4.7236256 4.7236256) to (47.482084 47.482084 47.482084)
  1 by 1 by 1 MPI processor grid
  reading bonds ...
  6970 bonds
  reading angles ...
  11760 angles
  reading dihedrals ...
  17500 dihedrals
  reading impropers ...
  4800 impropers
Finding 1-2 1-3 1-4 neighbors ...
  special bond factors lj:    0        0        1       
  special bond factors coul:  0        0        1       
     4 = max # of 1-2 neighbors
    10 = max # of 1-3 neighbors
    14 = max # of special neighbors
  special bonds CPU = 0.003 seconds
  read_data CPU = 0.246 seconds
PPPM Kokkos initialization ...
  using 12-bit tables for long-range coulomb
  G vector (1/distance) = 0.29966485
  grid = 30 30 30
  stencil order = 5
  estimated absolute RMS force accuracy = 0.00032751629
  estimated relative force accuracy = 9.8630557e-07
  using double precision cuFFT
  3d grid and FFT values/proc = 50653 27000
Generated 28 of 28 mixed pair_coeff terms from sixthpower/sixthpower mixing rule
Neighbor list info ...
  update: every = 1 steps, delay = 0 steps, check = yes
  max neighbors/atom: 4000, page size: 100000
  master list distance cutoff = 11.5
  ghost atom cutoff = 11.5
  binsize = 11.5, bins = 4 4 4
  1 neighbor lists, perpetual/occasional/extra = 1 0 0
  (1) pair lj/class2/coul/long/kk, perpetual
      attributes: full, newton off, kokkos_device
      pair build: full/bin/kk/device
      stencil: full/bin/3d
      bin: kk/device
Setting up Verlet run ...
  Unit style    : real
  Current step  : 0
  Time step     : 1
Per MPI rank memory allocation (min/avg/max) = 44.28 | 44.28 | 44.28 Mbytes
   Step          Time           Temp          Press         Enthalpy        TotEng         KinEng         PotEng         E_bond        E_angle        E_dihed        E_impro         E_vdwl         E_coul         E_long         E_tail         Volume           Lx             Ly             Lz          Density          Pxx            Pyy            Pzz      
         0   0              502.28656      106.39337      22706.063      22584.764      9730.4381      12854.326      4498.3057      4162.2071      3129.7234      347.77665      182.01454      4903.6153     -4369.3165     -503.79945      78174.683      42.758459      42.758459      42.758459      1.1284429      370.95389      1399.2066     -1450.9803    
      1000   1000           499.59556     -265.19175      22216.866      22519.611      9678.3073      12841.304      4465.6047      4165.9569      3116.9281      378.12219      180.81401      4904.0879     -4370.2103     -503.13241      78278.325      42.777347      42.777347      42.777347      1.1269488      1316.1155     -73.395045     -2038.2957    
      2000   2000           504.44143      158.06901      22684.093      22503.784      9772.1828      12731.601      4360.3206      3998.937       3345.4826      385.87384      124.94004      4891.5282     -4375.4815     -503.53206      78216.197      42.766026      42.766026      42.766026      1.1278439     -1465.2363      1209.7265      729.71687    
      3000   3000           493.78127     -568.10835      21649.095      22303.826      9565.6712      12738.154      4339.0001      4103.6724      3201.4774      403.28876      141.19681      4918.1582     -4368.6393     -498.38885      79023.362      42.912633      42.912633      42.912633      1.1163238     -225.34994     -1240.5165     -238.45861    
      4000   4000           499.12639      1051.8824      23621.074      22421.455      9669.2184      12752.236      4252.7239      4222.3259      3131.1497      378.58423      239.69078      4900.9691     -4373.2074     -503.64364      78198.869      42.762868      42.762868      42.762868      1.1280938      1236.6573      1279.2797      639.71023    
      5000   5000           510.53516      1469.8728      24498.203      22821.049      9890.2325      12930.816      4322.4627      4243.8017      3182.7402      400.29539      240.04282      4909.9047     -4368.4314     -503.3921       78237.943      42.769989      42.769989      42.769989      1.1275304      1526.1834      1135.1632      1748.2717    
      6000   6000           501.82098      1808.819       24485.864      22428.257      9721.4188      12706.838      4340.2069      4161.0015      3104.7674      375.75628      197.47413      4899.8008     -4372.1688     -504.93153      77999.412      42.726479      42.726479      42.726479      1.1309786     -31.628273      3443.8603      2014.225     
      7000   7000           500.23093      801.5021       23493.661      22579.697      9690.6158      12889.081      4440.5         4187.0037      3175.3592      389.99657      164.75548      4902.7877     -4371.3217     -503.70387      78189.518      42.761163      42.761163      42.761163      1.1282288      1367.9524     -507.12908      1543.683     
      8000   8000           504.09975      1071.3199      23682.808      22471.02       9765.5637      12705.456      4371.8671      4246.3317      3073.8071      369.83433      93.008609      4921.2769     -4370.6696     -507.79949      77558.885      42.64589       42.64589       42.64589       1.1374024      2136.9512     -104.59139      1181.5999    
      9000   9000           493.27889     -2505.3331      19369.351      22232.982      9555.9389      12677.043      4308.8989      4136.3058      3217.9116      372.71426      110.78795      4899.7973     -4369.3732     -502.51403      78374.653      42.794886      42.794886      42.794886      1.1255637     -29.690323     -3270.6159     -4215.693     
     10000   10000          507.89971     -88.995968      22432.183      22533.133      9839.1777      12693.955      4271.2022      4082.1267      3280.7747      370.86295      148.60198      4912.1437     -4371.7571     -506.36865      77778.042      42.686021      42.686021      42.686021      1.1341975      1436.5659     -85.459151     -1618.0946    
     11000   11000          502.03264     -245.29482      22094.072      22374.204      9725.5192      12648.685      4378.235       4114.9892      3131.092       358.93005      105.53117      4924.2541     -4364.3466     -502.94997      78306.719      42.782518      42.782518      42.782518      1.1265401      220.84917     -71.862185     -884.87144    
     12000   12000          487.15347     -787.75442      21312.985      22202.351      9437.2756      12765.076      4312.5025      4139.244       3266.8128      389.1022       114.32559      4917.4475     -4374.3589     -508.75619      77413.038      42.619142      42.619142      42.619142      1.1395453     -1749.8761     -289.58294     -323.80422    
     13000   13000          505.46819     -277.07228      22186.354      22500.861      9792.0737      12708.787      4312.9993      4120.3024      3217.7679      380.21354      156.079        4896.8777     -4375.4523     -506.01359      77832.618      42.696002      42.696002      42.696002      1.1334022     -171.04151      1.2212458     -661.39658    
     14000   14000          505.00917     -188.29454      22444.64       22661.031      9783.1814      12877.85       4452.3539      4133.3936      3200.9441      377.95227      164.64861      4916.39       -4367.8327     -499.80161      78799.991      42.872162      42.872162      42.872162      1.1194882     -438.01876      77.675206     -204.54008    
     15000   15000          499.53416      2190.1621      24817.922      22317.752      9677.1178      12640.634      4325.3183      4010.4124      3203.6211      382.30286      169.27757      4918.0288     -4368.3268     -503.16031      78273.985      42.776556      42.776556      42.776556      1.1270113      3155.7768      777.66554      2637.0439    
     16000   16000          505.29639      661.95804      23377.06       22616.919      9788.7454      12828.174      4256.2852      4132.8369      3294.6016      409.20909      187.32394      4919.6549     -4371.7378     -500.19111      78738.63       42.861031      42.861031      42.861031      1.1203606      1869.0153      146.45403     -29.595185    
     17000   17000          503.38785     -241.64105      22078.531      22352.166      9751.7726      12600.393      4226.3547      4154.8113      3217.1885      373.40327      76.160136      4923.389      -4370.9139     -507.2231       77647.021      42.662038      42.662038      42.662038      1.1361114     -363.60406     -305.11189     -56.207188    
     18000   18000          496.72845      592.99008      23033.027      22354.964      9622.765       12732.199      4270.8982      4124.7454      3214.9254      388.5844       187.91647      4916.9542     -4371.8251     -502.31568      78405.601      42.800518      42.800518      42.800518      1.1251194     -244.51021      1732.9785      290.50195    
     19000   19000          498.65411     -166.96436      22397.357      22587.862      9660.0693      12927.792      4379.4438      4184.9296      3217.2587      400.59414      190.75079      4924.9441     -4370.1289     -503.40453      78236.012      42.769637      42.769637      42.769637      1.1275583      110.33536     -700.14838      88.919956    
     20000   20000          497.0667       510.61432      22928.642      22346.299      9629.3175      12716.982      4321.9814      4159.9994      3146.2002      374.21309      174.9233       4915.3855     -4375.7212     -503.63296      78200.526      42.76317       42.76317       42.76317       1.1280699     -328.38705      1650.9133      209.31676    
     21000   21000          495.92779      1915.7893      24737.675      22569.65       9607.2543      12962.395      4464.0876      4275.9612      3164.9247      388.44397      118.70845      4921.3411     -4371.0716     -507.55493      77596.257      42.652739      42.652739      42.652739      1.1368546      2095.7353      1512.1573      2139.4752    
     22000   22000          500.1407       359.13766      22877.913      22469.827      9688.868       12780.959      4283.2537      4231.1691      3241.1371      377.74513      104.4479       4918.235      -4375.0289     -505.48592      77913.867      42.710854      42.710854      42.710854      1.1322203      295.03372      964.61228     -182.23304    
     23000   23000          492.94308     -314.88265      21923.17       22282.148      9549.4336      12732.714      4279.2255      4177.3413      3172.7257      375.23026      191.64323      4910.8973     -4374.349      -503.82594      78170.574      42.75771       42.75771       42.75771       1.1285022     -540.03239      67.111955     -471.7275     
     24000   24000          492.91662     -8.5657565      22168.649      22178.505      9548.9209      12629.584      4300.4815      4075.2535      3176.2835      379.35603      159.31528      4911.8551     -4372.9606     -499.17822      78898.4        42.890002      42.890002      42.890002      1.1180919     -541.10189     -15.178906      530.58353    
     25000   25000          503.52282     -755.09447      21719.454      22576.637      9754.3873      12822.25       4431.5641      4192.2081      3175.7775      353.43483      128.95178      4914.908      -4374.5944     -505.97282      77838.89       42.697149      42.697149      42.697149      1.1333109     -1398.3962     -846.10023     -20.787013    
     26000   26000          490.31831      1013.3255      23445.515      22301.296      9498.5857      12802.71       4380.6405      4153.0601      3156.0168      388.70369      191.96791      4909.1106     -4376.7893     -508.67392      77425.559      42.62144       42.62144       42.62144       1.139361       1907.7521      1231.9268     -99.702514    
     27000   27000          504.58562      765.85277      23404.203      22533.072      9774.9762      12758.095      4425.4425      4095.4527      3164.6108      390.74887      134.40759      4918.6332     -4371.2004     -504.96482      77994.27       42.725541      42.725541      42.725541      1.1310531      914.3405       996.01197      387.20583    
     28000   28000          492.89311     -504.33404      21665.285      22238.615      9548.4655      12690.149      4359.0029      4178.2045      3126.5341      391.75034      86.962735      4916.0332     -4368.3387     -505.25872      77948.903      42.717255      42.717255      42.717255      1.1317114      53.661359     -1063.7669     -502.89659    
     29000   29000          504.59934      853.98627      23502.34       22528.538      9775.242       12753.296      4279.5101      4196.8151      3213.1462      399.43738      112.16365      4920.5399     -4368.3167     -503.70919      78188.691      42.761013      42.761013      42.761013      1.1282407      1923.8234      684.54955     -46.414119    
     30000   30000          503.89262      1220.1244      23816.697      22435.017      9761.5513      12673.466      4448.8122      4171.4441      3047.3996      382.24216      78.021522      4914.6879     -4369.1419     -507.22009      77647.481      42.662122      42.662122      42.662122      1.1361046      483.25603      1218.4361      1958.6811    
     31000   31000          498.10144     -507.99127      22023.065      22612.096      9649.3629      12962.734      4557.0144      4114.3292      3195.0491      383.75171      177.78937      4899.1088     -4364.309      -495.35636      79507.129      43.000023      43.000023      43.000023      1.1095315      428.89639     -903.70136     -1049.1688    
     32000   32000          505.21926     -1128.2359      21037.049      22319.438      9787.2513      12532.186      4231.5254      4166.0592      3172.3925      383.33355      40.773555      4903.3358     -4365.2338     -505.33555      77937.051      42.71509       42.71509       42.71509       1.1318835     -988.68856     -1730.0261     -665.99311    
     33000   33000          496.9817      -398.06227      21975.018      22426.285      9627.6709      12798.614      4385.0076      4203.5263      3259.9133      362.40669      25.616423      4930.1542     -4368.0107     -506.66113      77733.143      42.677805      42.677805      42.677805      1.1348526     -302.20403      87.378305     -979.36109    
     34000   34000          498.51631     -1276.3692      20894.295      22356.674      9657.3997      12699.274      4435.2847      4153.9348      3109.1703      351.28239      96.764288      4920.0525     -4367.2152     -501.32146      78561.094      42.828794      42.828794      42.828794      1.1228925      171.23167     -3209.9012     -790.43823    
     35000   35000          504.05179      278.86717      22838.754      22520.921      9764.6346      12756.286      4363.1306      4100.7447      3261.6803      370.09379      118.16511      4914.2162     -4371.7441     -503.96327      78149.272      42.753825      42.753825      42.753825      1.1288098      2357.7067     -385.34084     -1135.7643    
     36000   36000          497.36707      1288.1679      23605.59       22145.833      9635.1364      12510.696      4403.8647      4120.776       2992.3151      355.07831      88.873475      4917.9797     -4368.1909     -506.86415      77702.008      42.672106      42.672106      42.672106      1.1353074      1342.6946      859.57081      1662.2383    
     37000   37000          497.8256       2516.5896      25308.972      22428.109      9644.0192      12784.09       4469.9238      4157.7592      3055.3733      372.49089      187.18322      4912.4425     -4371.0828     -501.75255      78493.597      42.816524      42.816524      42.816524      1.1238581      1932.3885      3391.3333      2226.0471    
     38000   38000          495.86796      1476.0323      24082.664      22390.627      9606.0953      12784.532      4429.9979      4163.4816      3065.1064      369.42693      211.97968      4912.5206     -4367.9814     -501.05536      78602.816      42.836374      42.836374      42.836374      1.1222965      569.48269      1241.9309      2616.6834    
     39000   39000          493.85089      1340.9188      23763.212      22231.694      9567.0199      12664.674      4298.9762      4210.4355      3107.0432      377.81802      131.21306      4909.0184     -4369.8303     -502.89806      78314.803      42.78399       42.78399       42.78399       1.1264238      3092.6795     -186.14762      1116.2246    
     40000   40000          494.90808      528.64502      22812.158      22204.635      9587.5001      12617.135      4371.8067      4161.2482      3094.4173      373.47825      86.651697      4900.0491     -4370.5159     -499.80574      78799.341      42.872044      42.872044      42.872044      1.1194975      327.11726     -123.87672      1382.6945    
     41000   41000          499.38691     -561.79513      21916.988      22556.421      9674.2653      12882.156      4392.7879      4132.1953      3231.5887      396.66033      189.08005      4912.3419     -4372.4981     -504.64047      78044.399      42.734692      42.734692      42.734692      1.1303266     -801.13562     -477.64037     -406.6094     
     42000   42000          495.12785     -662.41944      21469.138      22222.725      9591.7576      12630.968      4343.4037      4177.5101      3170.679       359.31133      55.660506      4897.7812     -4373.3783     -504.89263      78005.422      42.727577      42.727577      42.727577      1.1308914     -208.65578     -627.46999     -1151.1326    
     43000   43000          502.93331     -1027.675       21225.389      22394.979      9742.9672      12652.012      4446.9435      4022.599       3167.0229      362.21564      125.64284      4900.2304     -4372.6427     -504.68668      78037.254      42.733388      42.733388      42.733388      1.1304301     -2365.4996      266.10964     -983.63502    
     44000   44000          495.25528     -1244.6688      20905.439      22315.752      9594.2261      12721.526      4386.754       4227.1032      3208.3115      369.3653       4.7625799      4897.5079     -4372.2786     -506.91833      77693.704      42.670586      42.670586      42.670586      1.1354287     -398.58827     -1195.3774     -2140.0409    
     45000   45000          497.61427      1917.2567      24668.049      22471.058      9639.9252      12831.132      4399.7565      4179.4421      3110.6988      382.33561      245.79289      4884.9621     -4371.8554     -501.24696      78572.772      42.830916      42.830916      42.830916      1.1227256      2219.6276      533.68494      2998.4576    
     46000   46000          498.41093      655.5499       22980.402      22238.89       9655.3584      12583.531      4366.5472      4077.2314      3125.5408      365.8929       112.32758      4906.894      -4370.9025     -507.79385      77559.748      42.646048      42.646048      42.646048      1.1373898      1110.8731      1330.3257     -474.54903    
     47000   47000          503.55409      1089.4979      23736.701      22495.235      9754.9931      12740.242      4388.9734      4235.3549      3065.5997      379.35888      142.55091      4899.4385     -4371.0343     -504.07055      78132.639      42.750792      42.750792      42.750792      1.1290501      5.8279973      1096.3432      2166.3225    
     48000   48000          497.56372      939.11607      23394.33       22318.384      9638.9459      12679.438      4406.4743      4123.7359      3112.5979      371.01027      136.68505      4900.0525     -4371.1177     -501.33549      78558.897      42.828394      42.828394      42.828394      1.1229239      1194.7835      239.47132      1383.0934    
     49000   49000          500.78155      828.53326      23287.246      22348.197      9701.2827      12646.914      4394.3654      4151.9614      3083.8263      358.43574      104.28638      4923.6341     -4369.5952     -506.78226      77714.565      42.674405      42.674405      42.674405      1.1351239      1860.9991      1475.5177     -850.91703    
     50000   50000          498.91594     -1083.0407      20945.206      22175.239      9665.1415      12510.098      4205.1632      4066.2205      3175.6173      366.83261      165.24329      4905.392      -4374.371      -505.7404       77874.662      42.703689      42.703689      42.703689      1.1327903     -1304.662      -1442.8632     -501.59697    
     51000   51000          497.50936      195.89975      22507.247      22283.42       9637.8929      12645.527      4299.5492      4053.7959      3209.0557      382.70168      160.89051      4908.6091     -4369.0753     -502.7136       78343.54       42.789223      42.789223      42.789223      1.1260107      843.4302       412.82907     -668.56001    
     52000   52000          500.65433     -715.78514      21449.805      22265.307      9698.8182      12566.489      4223.5458      4231.5583      3100.5258      359.40711      112.83889      4908.5124     -4369.8996     -504.14727      78120.75       42.748623      42.748623      42.748623      1.1292219     -2282.5438      44.369473      90.818894    
     53000   53000          488.29089     -1937.9696      19969.451      22164.68       9459.31        12705.37       4264.11        4182.6723      3319.9721      372.44215      20.37406       4916.7173     -4370.9177     -507.06876      77670.655      42.666366      42.666366      42.666366      1.1357656     -2631.7069     -1834.1059     -1348.0961    
     54000   54000          505.73801      1043.2199      23657.954      22470.391      9797.3007      12673.09       4416.3655      4152.0518      3118.4706      376.19694      72.735064      4910.9176     -4373.6474     -504.56689      78055.781      42.73677       42.73677       42.73677       1.1301618      1477.3458      97.605992      1554.708     
     55000   55000          494.05898      455.08501      22741.301      22220.562      9571.0511      12649.511      4381.3422      4027.1299      3133.4111      382.59137      197.21087      4902.9442     -4375.1191     -501.9633       78460.642      42.810531      42.810531      42.810531      1.1243301      932.06569      1298.7772     -865.5879     
     56000   56000          497.19179      310.23231      22856.102      22503.08       9631.7408      12871.339      4382.2905      4170.3497      3257.6253      377.30281      141.91874      4912.895      -4371.0433     -504.75934      78026.021      42.731337      42.731337      42.731337      1.1305929     -1177.0518      351.09133      1756.6574    
     57000   57000          492.9606      -2315.2532      19707.814      22333.327      9549.773       12783.554      4365.6846      4099.4893      3318.642       380.22079      83.849456      4906.7741     -4371.1065     -506.50534      77757.054      42.682181      42.682181      42.682181      1.1345037     -1821.8892     -3311.5206     -1812.3497    
     58000   58000          494.90592     -126.1778       22052.291      22196.121      9587.4582      12608.662      4326.9245      4019.3759      3157.6268      376.82362      181.46185      4915.6105     -4369.1608     -503.88924      78160.754      42.755919      42.755919      42.755919      1.128644      -935.41061      433.27517      123.60205    
     59000   59000          503.14261      915.12407      23582.202      22541.247      9747.0218      12794.225      4482.8937      4166.3564      3082.3813      358.96731      174.02369      4902.76       -4373.1573     -504.94918      77996.685      42.725982      42.725982      42.725982      1.1310181      718.43625      1004.6012      1022.3348    
     60000   60000          491.68724      244.19132      22495.373      22218.646      9525.1052      12693.541      4224.6544      4066.7097      3267.9874      385.40364      212.66119      4907.6534     -4371.5289     -506.848        77704.484      42.67256       42.67256       42.67256       1.1352712      597.59081      720.73228     -585.74912    
     61000   61000          489.03478     -1239.1718      20665.632      22079.821      9473.7208      12606.1        4299.5816      4191.8637      3068.6179      374.84759      139.46138      4900.5169     -4368.7892     -503.29643      78252.816      42.772699      42.772699      42.772699      1.1273161     -3049.6408     -350.46315     -317.4116     
     62000   62000          485.29442     -1270.1395      20784.024      22237.244      9401.2616      12835.982      4331.8758      4137.5853      3220.4988      394.35635      214.91625      4905.0144     -4368.2645     -502.01872      78451.98       42.808956      42.808956      42.808956      1.1244542      11.028639     -1706.7341     -2114.7131    
     63000   63000          498.77968      1068.9698      23595.877      22377.421      9662.5019      12714.919      4418.9806      4258.9097      3011.0666      367.11507      122.14571      4907.214      -4370.5124     -503.9126       78157.129      42.755258      42.755258      42.755258      1.1286963     -40.714596      2576.5649      671.0592     
     64000   64000          498.31638     -293.70052      21979.291      22315.772      9653.5267      12662.245      4205.9864      4220.1626      3189.4887      365.29876      137.13888      4912.256      -4368.0865     -501.35445      78555.926      42.827854      42.827854      42.827854      1.1229664      636.90071     -512.20635     -1005.7959    
     65000   65000          495.16031     -1105.4018      20841.518      22107.698      9592.3863      12515.312      4184.7737      4196.8973      3131.2346      356.82378      114.02837      4902.3692     -4370.8152     -501.44609      78541.569      42.825245      42.825245      42.825245      1.1231716      198.07079     -1638.8112     -1875.4651    
     66000   66000          499.51118     -684.80232      21443.677      22221.14       9676.6727      12544.467      4326.2782      4142.0433      3125.7859      360.70731      68.450731      4893.9991     -4372.7972     -505.92368      77846.451      42.698532      42.698532      42.698532      1.1332008     -101.86304     -369.98432     -1582.5596    
     67000   67000          498.39596      908.62407      23401.931      22359.884      9655.0684      12704.815      4273.8398      4147.115       3149.5812      367.29857      228.03089      4909.4468     -4370.497      -500.83704      78637.08       42.842597      42.842597      42.842597      1.1218074      374.34203      2079.3626      272.16757    
     68000   68000          485.36787     -1088.0236      20769.735      22003.335      9402.6845      12600.65       4257.1693      4073.6651      3282.7947      372.71255      94.751198      4896.8447     -4377.2874     -506.59822      77742.797      42.679572      42.679572      42.679572      1.1347117     -2597.5515     -346.04491     -320.47433    
     69000   69000          493.80555     -830.38817      21365.501      22311.205      9566.1416      12745.064      4459.3295      4171.2717      3124.0458      359.14075      82.351427      4918.0182     -4369.0938     -504.34241      78090.523      42.743109      42.743109      42.743109      1.129659       129.76187      507.11809     -3128.0445    
     70000   70000          488.83495      879.37966      23092.375      22095.525      9469.8497      12625.676      4360.1301      4097.7219      3121.9085      374.93132      118.45151      4920.025      -4367.4928     -506.69464      77728.004      42.676865      42.676865      42.676865      1.1349277      85.026512      388.12449      2164.988     
     71000   71000          494.42285      1781.7795      24264.72       22238.283      9578.1001      12660.183      4468.2865      4158.0153      2987.427       351.87565      163.83936      4900.0363     -4369.2971     -505.03388      77983.605      42.723593      42.723593      42.723593      1.1312078      2231.2792      1968.9288      1145.1306    
     72000   72000          488.14148      1944.0669      24333.173      22117.546      9456.4157      12661.13       4322.6128      4107.3741      3112.2887      375.6583       207.1007       4906.6125     -4370.5171     -503.98099      78146.523      42.753324      42.753324      42.753324      1.1288495     -444.00794      2847.2798      3428.9287    
     73000   73000          493.51683      1236.2525      23701.147      22285.56       9560.5484      12725.011      4218.8129      4241.4957      3126.7177      365.93616      227.10187      4913.0902     -4368.1431     -501.61475      78515.16       42.820445      42.820445      42.820445      1.1235494      1228.2041      553.91731      1926.6362    
     74000   74000          494.34257      616.62613      22861.047      22155.454      9576.545       12578.909      4384.7978      4057.495       3116.0239      349.45235      132.59289      4904.6182     -4366.0713     -501.95796      78461.476      42.810683      42.810683      42.810683      1.1243182     -920.01701      1601.2539      1168.6415    
     75000   75000          490.506        285.83985      22608.828      22287.174      9502.2218      12784.953      4516.038       4018.3539      3248.7441      388.34287      80.694871      4903.2837     -4370.5048     -510.4276       77159.547      42.572572      42.572572      42.572572      1.143289       387.75334      358.29755      111.46866    
     76000   76000          499.04039     -728.57203      21467.455      22300.04       9667.5524      12632.488      4261.8728      4137.4564      3202.4588      393.25388      91.653075      4910.3554     -4364.5627     -502.62424      78357.467      42.791758      42.791758      42.791758      1.1258105     -910.03907     -1050.2474     -225.42961    
     77000   77000          486.84055     -545.66175      21335.219      21958.28       9431.2136      12527.067      4243.3404      4065.5807      3171.8609      366.12749      141.40666      4905.0925     -4366.3418     -503.02854      78294.489      42.780291      42.780291      42.780291      1.1267161     -1189.7604     -28.939713     -418.28517    
     78000   78000          491.04393      756.52569      23063.698      22195.121      9512.6427      12682.478      4357.2173      4187.5015      3042.7601      381.16833      178.30575      4901.5586     -4366.0333     -500.2823       78724.278      42.858427      42.858427      42.858427      1.1205649      372.93375      671.70399      1224.9393    
     79000   79000          501.68192      994.59179      23408.691      22284.953      9718.7249      12566.228      4262.2582      4173.333       3139.8079      364.05783      79.547182      4915.6094     -4368.3857     -508.36943      77471.933      42.629947      42.629947      42.629947      1.138679      -556.90893      4439.1316     -898.44729    
     80000   80000          492.82042     -2208.4006      19569.284      22066.12       9547.0574      12519.063      4210.9666      4113.2045      3200.9293      366.6414       96.022121      4902.993      -4371.6941     -508.02788      77524.017      42.639499      42.639499      42.639499      1.137914      -1804.5509     -3282.3371     -1538.3137    
     81000   81000          492.61618      968.54868      23398.137      22298.595      9543.1008      12755.494      4365.1802      4134.6098      3147.9142      404.08936      150.60832      4924.7564     -4371.6646     -505.95182      77842.121      42.69774       42.69774       42.69774       1.1332639      439.94863      1862.3373      603.36011    
     82000   82000          491.94921      1308.3725      23941.82       22451.37       9530.1801      12921.19       4437.0122      4202.4642      3154.4357      390.57441      201.01352      4907.5319     -4371.8418     -504.21283      78110.592      42.74677       42.74677       42.74677       1.1293688      1963.9038      342.85473      1618.3588    
     83000   83000          491.51961      1707.2286      24047.83       22123.881      9521.8578      12602.023      4357.6014      4136.8924      3081.597       371.18588      108.66074      4916.4045     -4370.3186     -509.68036      77272.671      42.593367      42.593367      42.593367      1.1416153      1710.5825      1311.3836      2099.7197    
     84000   84000          488.1183      -412.07395      21631.057      22100.434      9455.9665      12644.467      4307.0137      4118.4205      3227.75        373.58998      85.774551      4903.485      -4371.5664     -504.25824      78103.558      42.745487      42.745487      42.745487      1.1294705     -691.30166     -108.55436     -436.36583    
     85000   85000          486.56824     -1585.1887      20091.057      21898.482      9425.9384      12472.544      4266.3816      4126.5768      3132.3699      361.10934      36.060174      4920.033      -4369.9869     -503.75602      78181.424      42.759688      42.759688      42.759688      1.1283456     -2125.9425     -2691.1199      61.496365    
     86000   86000          491.23236      283.20149      22583.323      22262.059      9516.2931      12745.766      4501.8043      4124.6632      3117.6246      367.76179      91.336314      4910.4145     -4367.8391     -506.32947      77784.061      42.687122      42.687122      42.687122      1.1341098     -741.97524      1502.3906      89.189106    
     87000   87000          492.41243     -52.126961      22115.04       22174.236      9539.1537      12635.083      4369.5403      4123.5378      3140.4948      373.74282      90.943581      4907.442      -4370.6186     -505.7829       77868.119      42.702493      42.702493      42.702493      1.1328855     -562.07848     -2429.0967      2834.7943    
     88000   88000          483.96402     -401.34237      21477.881      21935.802      9375.4887      12560.313      4303.7268      4139.6355      3052.408       356.51981      170.17485      4907.9754     -4370.127      -503.41284      78234.72       42.769402      42.769402      42.769402      1.1275769     -233.31064      773.0449      -1743.7614    
     89000   89000          490.28322      235.76741      22526.302      22258.653      9497.9061      12760.747      4352.9726      4269.6725      3140.509       370.41056      93.111759      4904.9763     -4370.906      -505.96204      77840.548      42.697452      42.697452      42.697452      1.1332868      1609.0684     -498.08604     -403.68019    
     90000   90000          487.83579     -1044.6595      20792.971      21987.32       9450.4937      12536.827      4356.4944      4029.9371      3114.4495      363.33022      138.99106      4904.7968     -4371.1726     -502.39226      78393.649      42.798343      42.798343      42.798343      1.1252909     -1141.7459     -382.7751      -1609.4575    
     91000   91000          493.01341      657.13591      22743.357      21996.601      9550.7961      12445.805      4300.3246      4084.0942      3099.2974      371.98021      62.343922      4897.7351     -4369.9705     -505.44773      77919.753      42.711929      42.711929      42.711929      1.1321348      427.91801     -353.0077       1896.4974    
     92000   92000          495.43427     -738.5412       21445.345      22281.247      9597.6937      12683.554      4326.9078      4146.4381      3207.1051      364.53787      98.33786       4910.4237     -4370.1969     -507.47995      77607.722      42.654839      42.654839      42.654839      1.1366867     -2289.2899      38.262445      35.403868    
     93000   93000          489.16848     -817.29932      21239.348      22173.044      9476.3109      12696.733      4319.6419      4089.3213      3245.6444      379.87816      130.53318      4904.1686     -4372.4548     -502.77709      78333.646      42.787421      42.787421      42.787421      1.1261529      506.90413     -2672.8052     -285.99684    
     94000   94000          483.74423      559.93726      22635.794      21991.666      9371.2309      12620.435      4363.0413      4122.6001      3080.2596      376.62043      142.78147      4904.1763     -4369.0438     -499.30668      78878.101      42.886323      42.886323      42.886323      1.1183796     -44.671525      461.02073      1263.4626    
     95000   95000          497.52151      1677.8855      23930.295      22036.174      9638.1283      12398.045      4272.6405      4082.9917      3001.8421      359.17322      142.0645       4907.4577     -4368.1243     -508.80836      77405.101      42.617686      42.617686      42.617686      1.1396621      2031.4542      364.29569      2637.9066    
     96000   96000          491.50259     -708.95843      21325.368      22131.505      9521.528       12609.977      4348.201       4084.0953      3185.8675      383.35039      67.826703      4908.9741     -4368.3378     -505.13943      77967.31       42.720617      42.720617      42.720617      1.1314442     -1701.5814      1277.3601     -1702.654     
     97000   97000          490.24023      635.28575      22734.07       22014.896      9497.0732      12517.823      4337.0496      4161.2779      3037.3938      377.41376      68.150036      4900.8432     -4364.3054     -507.38216      77622.679      42.65758       42.65758       42.65758       1.1364676      647.70412      562.25382      695.89933    
     98000   98000          486.30815     -732.61807      21138.281      21976.259      9420.8999      12555.359      4330.7473      4118.7726      3082.0486      377.54391      109.41125      4903.9421     -4367.1065     -502.16301      78429.437      42.804855      42.804855      42.804855      1.1247775      449.97101     -1142.8043     -1505.021     
     99000   99000          489.99328      861.33122      23228.709      22249.244      9492.2893      12756.954      4346.1878      4210.6829      3099.036       372.03081      202.18814      4898.8624     -4372.0337     -505.10415      77972.756      42.721612      42.721612      42.721612      1.1313652      2672.2161      173.2487      -261.47116    
    100000   100000         488.91023     -874.09566      21174.789      22178.64       9471.3081      12707.332      4296.8221      4232.138       3141.6442      377.21852      119.70757      4906.8857     -4367.0846     -500.13762      78747.051      42.862559      42.862559      42.862559      1.1202408     -388.44885     -666.15347     -1567.6847    
    101000   101000         481.53069      598.20411      22656.256      21976.789      9328.3496      12648.439      4407.1642      4098.3351      3092.9378      364.70091      151.52495      4900.8458     -4367.0697     -505.68593      77883.051      42.705222      42.705222      42.705222      1.1326683      1094.7476      248.5365       451.32822    
    102000   102000         498.25697     -668.30697      21479.889      22240.856      9652.3757      12588.48       4226.3916      4278.4296      3063.2437      345.65828      126.69464      4914.9364     -4366.8739     -504.44057      78075.326      42.740336      42.740336      42.740336      1.1298789     -418.41721      572.16481     -2158.6685    
    103000   103000         487.05902     -2934.5117      18687.604      22037.736      9435.4459      12602.29       4302.5762      4085.6952      3236.2403      380.04773      57.939967      4906.6791     -4366.8887     -503.12236      78279.889      42.777631      42.777631      42.777631      1.1269263     -3571.7746     -3467.0969     -1764.6635    
    104000   104000         489.83835      1753.1263      23887.825      21889.969      9489.2879      12400.682      4188.4161      4043.2898      3054.6028      369.46374      208.04663      4902.1856     -4365.3232     -504.02116      78140.295      42.752188      42.752188      42.752188      1.1289395      1638.7378      937.24813      2683.393     
    105000   105000         489.5931       818.82465      23092.955      22153.695      9484.5369      12669.158      4211.3182      4230.9644      3103.0421      383.89594      186.29121      4918.5841     -4364.9382     -500.73111      78653.716      42.845618      42.845618      42.845618      1.1215702      1805.756       835.24735     -184.52944    
    106000   106000         495.93503     -727.47712      21575.02       22404.001      9607.3944      12796.606      4365.2544      4261.9739      3125.8655      359.59724      149.27686      4902.8604     -4368.222      -504.05137      78135.613      42.751334      42.751334      42.751334      1.1290071     -183.70687     -3245.3484      1246.6239    
    107000   107000         487.25507      72.997198      22147.513      22063.351      9439.2438      12624.107      4267.0585      4132.024       3185.6537      366.08369      140.56762      4899.7876     -4367.0677     -498.18347      79055.94       42.91853       42.91853       42.91853       1.1158638      384.77481      308.9991      -474.78232    
    108000   108000         483.61281     -411.71135      21512.802      21985.437      9368.685       12616.752      4267.9681      4155.2517      3168.8646      365.03316      114.70801      4910.9059     -4365.9793     -500.3417       78714.931      42.856731      42.856731      42.856731      1.120698      -161.47633     -819.77974     -253.87798    
    109000   109000         484.5368      -1044.197       20670.839      21859.041      9386.5848      12472.457      4269.8947      3981.8936      3198.8661      373.43841      119.37635      4897.6549     -4368.6675     -504.76799      78024.683      42.731093      42.731093      42.731093      1.1306123     -1104.4738     -3535.6433      1507.5262    
    110000   110000         482.55091     -242.79743      21845.309      22124.833      9348.1135      12776.72       4410.348       4164.5571      3124.1962      371.11261      159.70468      4914.7361     -4367.9353     -498.91272      78940.386      42.897609      42.897609      42.897609      1.1174972     -961.46433     -321.71604      554.78807    
    111000   111000         490.1823       306.76671      22446.158      22097.661      9495.9509      12601.71       4318.2609      3993.7006      3224.957       363.66442      156.80135      4911.7254     -4367.3994     -505.60275      77895.863      42.707564      42.707564      42.707564      1.132482       427.06787      747.42615     -254.19389    
    112000   112000         483.94638      1537.1401      23640.264      21891.047      9375.147       12515.9        4311.4561      4130.1936      3045.3822      347.0472       145.25761      4905.777      -4369.2133     -504.74208      78028.688      42.731824      42.731824      42.731824      1.1305542      634.74536      2983.382       993.29289    
    113000   113000         484.76756     -81.315803      21929.744      22022.662      9391.0552      12631.607      4269.7589      4073.3024      3195.6629      376.07864      191.45515      4898.2067     -4372.8581     -502.66395      78351.278      42.790631      42.790631      42.790631      1.1258995      443.18935     -1914.2788      1227.1421    
    114000   114000         490.90704     -2021.6093      19643.531      21941.414      9509.9908      12431.423      4113.5874      4087.4756      3229.9514      377.2553       75.331355      4914.9193     -4367.0975     -505.32309      77938.973      42.715441      42.715441      42.715441      1.1318556     -3207.0287     -1196.7215     -1661.0775    
    115000   115000         481.21586     -911.64716      20965.304      22009.441      9322.2506      12687.191      4280.1833      4118.29        3219.1837      381.43406      150.19847      4903.5588     -4365.6575     -501.49742      78533.53       42.823784      42.823784      42.823784      1.1232866      230.18496     -2161.8292     -803.29726    
    116000   116000         485.85082     -2062.441       19713.086      22091.567      9412.0403      12679.526      4232.3927      4139.9448      3252.9311      374.42291      171.47367      4878.2856     -4369.9245     -498.06         79075.539      42.922076      42.922076      42.922076      1.1155872     -2393.8613     -2053.1144     -1740.3473    
    117000   117000         490.48921     -1243.7221      20784.51       22220.844      9501.8965      12718.948      4268.3083      4227.4596      3156.5914      357.15727      179.43624      4902.0007     -4372.0058     -497.35612      79187.45       42.942315      42.942315      42.942315      1.1140107     -1996.5503     -2320.5842      585.96817    
    118000   118000         477.11397      364.67253      22285.362      21868.278      9242.7875      12625.491      4370.3799      4155.8553      3069.3368      370.76599      137.93369      4894.3767     -4373.1574     -502.20317      78423.167      42.803714      42.803714      42.803714      1.1248674     -1826.5051      2269.1169      651.40583    
    119000   119000         485.11668     -1191.0104      20730.817      22079.145      9397.8183      12681.327      4272.8349      4146.6834      3257.308       385.6689       72.3813        4918.2463     -4371.7959     -507.36417      77625.431      42.658084      42.658084      42.658084      1.1364273     -1871.8286     -258.7488      -1442.4538    
    120000   120000         487.60159     -3425.5885      18311.263      22258.341      9445.9567      12812.385      4312.6799      4190.6124      3290.4547      382.00646      111.589        4896.3883     -4371.3461     -498.49314      79006.83       42.909641      42.909641      42.909641      1.1165574     -5190.3375     -4875.3564     -211.07163    
    121000   121000         486.10506     -1406.0351      20478.052      22077.286      9416.9656      12660.32       4254.6635      4115.6736      3228.2059      371.88919      155.07915      4904.4746     -4369.6659     -504.99128      77990.183      42.724794      42.724794      42.724794      1.1311124      417.29722     -702.8913      -3932.5113    
    122000   122000         479.9039      -1099.8617      20641.426      21886.606      9296.8349      12589.771      4187.4573      4174.2125      3241.1241      371.81104      78.685723      4909.0656     -4372.5854     -507.34752      77627.979      42.65855       42.65855       42.65855       1.13639       -1708.3716     -1236.6748     -354.53861    
    123000   123000         493.47421     -225.28162      22009.904      22267.806      9559.7228      12708.083      4406.6216      4138.8856      3099.7038      379.40195      141.32573      4912.1781     -4370.0336     -501.73157      78496.879      42.817121      42.817121      42.817121      1.1238111     -333.39212     -278.74945     -63.7033      
    124000   124000         488.51318      1393.8369      23579.635      22000.29       9463.6164      12536.674      4261.1784      4246.2682      2972.9903      369.5055       158.97464      4900.1346     -4372.3781     -506.9145       77694.29       42.670693      42.670693      42.670693      1.1354201      1756.2759      1682.0456      743.18925    
    125000   125000         493.66247      280.51197      22394.544      22074.811      9563.3699      12511.442      4311.4483      4188.477       3023.4603      350.93467      104.21962      4904.5337     -4371.632      -503.92222      78155.637      42.754986      42.754986      42.754986      1.1287178     -650.05229      1084.7505      406.8377     
    126000   126000         484.27643     -1636.6531      20145.517      22024.129      9381.5407      12642.589      4303.8226      4064.3799      3221.8054      382.05282      147.6343       4895.1985     -4372.3048     -500.40223      78705.41       42.855003      42.855003      42.855003      1.1208335     -1239.4898     -3948.9746      278.50518    
    127000   127000         478.9734      -432.60696      21387.699      21880.829      9278.8089      12602.02       4314.3572      4132.7482      3088.5874      369.02838      173.42514      4897.0271     -4373.1533     -503.8849       78161.427      42.756042      42.756042      42.756042      1.1286342     -685.44126     -1183.0582      570.67863    
    128000   128000         495.7304      -410.21691      21625.652      22094.319      9603.4303      12490.889      4268.938       4138.3914      3132.1716      350.44668      61.581406      4909.925      -4370.5651     -502.74559      78338.554      42.788315      42.788315      42.788315      1.1260823      740.90857     -1184.5959     -786.96342    
    129000   129000         492.20098     -286.55303      21807.163      22133.242      9535.0575      12598.184      4293.7413      4096.0065      3152.9026      372.58289      143.08359      4913.235      -4373.3676     -504.75616      78026.511      42.731427      42.731427      42.731427      1.1305858     -1663.9955      1176.4542     -372.11775    
    130000   130000         489.22399     -2009.6902      19693.716      21994.988      9477.3863      12517.601      4246.6502      3955.5249      3271.4347      363.89438      157.001        4896.9545     -4373.8583     -501.604        78516.843      42.820751      42.820751      42.820751      1.1235253     -2508.132      -2314.1134     -1206.8252    
    131000   131000         491.49342      222.43973      22366.573      22110.985      9521.3504      12589.634      4332.6388      4088.3964      3094.3967      390.35773      153.32193      4901.9128     -4371.39       -499.88654      78786.603      42.869734      42.869734      42.869734      1.1196785      489.01056      2073.7555     -1895.4469    
    132000   132000         485.46612      732.40019      22924.774      22087.527      9404.5878      12682.939      4385.3234      4108.8355      3116.7285      378.71904      161.70479      4903.4575     -4371.8299     -502.45154      78384.4        42.79666       42.79666       42.79666       1.1254237      1868.9294      613.9154      -285.64425    
    133000   133000         487.7098      -671.71016      21189.04       21959.116      9448.0531      12511.063      4189.628       4142.2391      3132.275       371.71897      145.96477      4901.0451     -4371.8079     -501.01166      78609.673      42.83762       42.83762       42.83762       1.1221986     -481.77528     -25.89053      -1507.4647    
    134000   134000         488.47575     -1143.5341      20810.806      22128.449      9462.8912      12665.558      4362.7105      4095.7632      3191.1012      372.31383      123.06284      4893.4912     -4372.8847     -498.48368      79008.329      42.909912      42.909912      42.909912      1.1165362     -1165.6504     -2924.0129      659.06109    
    135000   135000         488.3656       757.54726      23071.987      22208.449      9460.7573      12747.692      4362.6487      4160.8742      3175.4952      379.90112      136.46929      4901.7099     -4369.4063     -503.88124      78161.994      42.756145      42.756145      42.756145      1.1286261      2220.8744     -755.65783      807.42522    
    136000   136000         481.76752     -273.06395      21625.806      21935.189      9332.9374      12602.251      4347.2489      4027.0707      3183.8142      371.14888      146.19179      4899.6051     -4372.8284     -506.95348      77688.317      42.6696        42.6696        42.6696        1.1355074     -308.43138     -993.21041      482.44995    
    137000   137000         482.93108      1415.164       23417.401      21800.358      9355.4782      12444.879      4140.7329      4129.8931      3092.3602      370.44636      169.84525      4909.1854     -4367.5839     -502.67197      78350.028      42.790404      42.790404      42.790404      1.1259174      1260.2977      506.20154      2478.9927    
    138000   138000         486.08049     -1556.1663      20275.609      22055.996      9416.4895      12639.507      4367.2791      4067.3765      3182.7028      371.32151      127.50169      4893.8652     -4370.5398     -502.04334      78448.132      42.808256      42.808256      42.808256      1.1245094     -2215.8453     -1176.6735     -1275.98      
    139000   139000         481.57009     -899.69386      20936.242      21954.575      9329.1128      12625.462      4279.9334      4154.4082      3131.9997      372.6867       146.20126      4906.4488     -4366.2163     -507.46368      77610.21       42.655295      42.655295      42.655295      1.1366502     -1133.007      -130.41084     -1435.6637    
    140000   140000         484.90359      602.8657       22537.621      21850.387      9393.6903      12456.697      4182.7104      4194.1689      3127.2172      344.8725       77.585831      4903.3063     -4373.1644     -503.86657      78164.27       42.75656       42.75656       42.75656       1.1285932      483.64847      1178.7994      146.14919    
    141000   141000         491.07502      928.67675      23213.252      22159.893      9513.2451      12646.648      4356.4305      4118.3106      3172.6304      349.45459      116.02945      4903.4982     -4369.7061     -506.39322      77774.27       42.68533       42.68533       42.68533       1.1342525      1255.4098      2069.9641     -539.34371    
    142000   142000         488.64275     -183.61811      21801.435      22009.904      9466.1265      12543.777      4302.9532      4173.6587      3078.8416      366.42616      90.543256      4903.6543     -4372.2997     -505.91148      77848.328      42.698875      42.698875      42.698875      1.1331735      565.7519      -511.4018      -605.20443    
    143000   143000         490.37832     -814.31405      21083.371      22018.237      9499.7484      12518.488      4260.6674      4027.738       3242.7767      369.08128      88.491315      4901.6371     -4371.9033     -500.31353      78719.363      42.857535      42.857535      42.857535      1.1206349     -504.79534      236.01188     -2174.1587    
    144000   144000         488.7577      -1123.0681      20833.315      22106.204      9468.3533      12637.85       4283.2501      4194.5866      3132.2572      355.58638      140.37718      4900.2123     -4368.4193     -506.77531      77715.63       42.6746        42.6746        42.6746        1.1351084     -176.80028     -2119.7447     -1072.6593    
    145000   145000         475.44472     -830.83553      20873.179      21825.106      9210.4504      12614.656      4253.4685      4222.6024      3129.1546      382.47787      82.328026      4911.5069     -4366.8824     -501.31536      78562.05       42.828967      42.828967      42.828967      1.1228788     -1972.1655      372.5432      -892.88426    
    146000   146000         478.37118     -2220.1035      19493.459      22024.067      9267.1425      12756.925      4370.5679      4086.6243      3313.2122      374.68441      84.623039      4898.9423     -4371.7297     -503.90424      78158.426      42.755495      42.755495      42.755495      1.1286776     -794.45944     -4553.8741     -1311.9771    
    147000   147000         474.27816      981.92809      22794.748      21675.14       9187.8515      12487.289      4333.8159      4030.5309      3081.9875      373.79949      132.38173      4904.215      -4369.4414     -503.74834      78182.615      42.759905      42.759905      42.759905      1.1283284      1174.2657     -306.28847      2077.8071    
    148000   148000         493.54164     -331.27144      21704.792      22082.255      9561.0291      12521.226      4322.7414      4035.6152      3146.7354      364.85269      131.75157      4891.1026     -4371.5725     -504.09128      78129.426      42.750206      42.750206      42.750206      1.1290965      147.99351     -1704.6112      562.80334    
    149000   149000         483.71773      366.1433       22277.015      21859.847      9370.7175      12489.129      4311.1647      4060.6556      3118.6118      358.40125      97.686234      4912.9022     -4370.2924     -504.12698      78123.894      42.749197      42.749197      42.749197      1.1291765     -929.03369      1069.2823      958.18124    
    150000   150000         494.596        121.80714      22110.225      21971.624      9581.4544      12390.17       4236.0401      4049.8841      3129.6831      368.98247      85.016066      4893.5555     -4372.9915     -504.78527      78022.012      42.730606      42.730606      42.730606      1.130651      -962.75135      823.81041      504.36238    
    151000   151000         479.50514     -320.19585      21605.345      21970.818      9289.11        12681.708      4320.8454      4189.0657      3158.1063      378.91422      101.71566      4900.4779     -4367.4171     -503.2227       78264.28       42.774788      42.774788      42.774788      1.127151       551.14418     -1664.679       152.94724    
    152000   152000         481.18898      295.6914       22295.146      21957.283      9321.7298      12635.553      4294.8289      4214.0219      3115.3995      367.4041       97.874893      4914.4066     -4368.3825     -502.68772      78347.572      42.789957      42.789957      42.789957      1.1259527      623.58202      849.08865     -585.59647    
    153000   153000         482.09543      1633.5979      23842.273      21975.102      9339.2897      12635.812      4322.7555      4238.2968      2997.0292      369.22652      166.08238      4908.6653     -4366.2436     -502.52849      78372.398      42.794476      42.794476      42.794476      1.1255961      1647.2349      1018.7006      2234.8581    
    154000   154000         477.86749      752.45727      22380.64       21522.37       9257.385       12264.985      4240.796       4021.0677      2956.8765      357.99447      151.04953      4903.2854     -4366.0847     -503.56733      78210.718      42.765028      42.765028      42.765028      1.1279229      1381.8863     -717.95753      1593.443     
    155000   155000         487.05174      925.11747      23125.671      22071.838      9435.3049      12636.533      4342.6565      4157.3351      3096.6516      359.58704      141.47749      4910.2699     -4371.4442     -504.22566      78108.605      42.746408      42.746408      42.746408      1.1293975      1255.131       659.84234      860.37905    
    156000   156000         482.02218     -556.65071      21240.29       21881.276      9337.8708      12543.405      4269.5298      4021.0718      3212.6192      367.67599      145.44192      4898.2282     -4371.1621     -498.80934      78956.747      42.900572      42.900572      42.900572      1.1172657     -337.44395      132.92867     -1465.4369    
    157000   157000         485.15862      704.03935      22591.874      21788.324      9398.6308      12389.694      4272.9461      3973.8757      3161.6502      362.62567      94.392201      4896.0833     -4371.8796     -503.25009      78260.02       42.774012      42.774012      42.774012      1.1272124     -542.20925      17.350801      2636.9765    
    158000   158000         481.82738      53.396601      21972.073      21910.862      9334.097       12576.765      4359.8791      4018.3048      3168.6512      358.94724      139.53616      4899.5433     -4368.0968     -501.05496      78602.88       42.836386      42.836386      42.836386      1.1222956      952.92526     -267.83691     -524.89854    
    159000   159000         490.31227      112.18742      22309.869      22181.846      9498.4687      12683.377      4416.1384      4129.1863      3096.795       354.71473      155.5289       4898.9708     -4367.9567     -503.33351      78247.05       42.771649      42.771649      42.771649      1.1273992      130.91942      452.01356     -246.37072    
    160000   160000         479.44528      1209.0977      23183.329      21799.984      9287.9504      12512.034      4209.8036      4033.0018      3209.1263      386.1456       146.22856      4895.3486     -4367.6209     -502.03115      78450.038      42.808603      42.808603      42.808603      1.1244821      82.473851      1993.3196      1551.4998    
    161000   161000         475.4631       2446.0558      24397.847      21609.849      9210.8065      12399.043      4245.578       4039.9201      3068.2528      373.76046      125.45942      4909.4216     -4363.3498     -503.93399      78153.812      42.754653      42.754653      42.754653      1.1287442      2441.6305      1934.0851      2962.4518    
    162000   162000         482.31852     -948.79203      20839.053      21927.124      9343.6115      12583.512      4301.5711      4042.4926      3194.4014      374.18543      151.22731      4889.2        -4369.5659     -500.85686      78633.969      42.842032      42.842032      42.842032      1.1218518     -932.86551     -1307.1689     -606.34172    
    163000   163000         479.15919     -646.74374      21059.204      21799.968      9282.4082      12517.559      4194.8279      4088.2373      3173.8441      367.34268      175.29788      4888.5206     -4370.5111     -501.47823      78536.536      42.82433       42.82433       42.82433       1.1232436     -839.53856     -710.22642     -390.46625    
    164000   164000         489.29069      529.11752      22618.581      22018.088      9478.6785      12539.409      4257.5184      4146.429       3076.9662      368.15164      153.52342      4903.725      -4366.9042     -506.10903      77817.94       42.693318      42.693318      42.693318      1.133616      -1101.5737      2102.8361      586.09017    
    165000   165000         480.28406     -423.26067      21268.263      21749.467      9304.1996      12445.268      4148.1071      4120.7303      3161.3926      360.31522      134.82303      4890.5237     -4370.6242     -505.21741      77955.275      42.718419      42.718419      42.718419      1.1316189      1116.7316     -38.600933     -2347.9127    
    166000   166000         486.33173     -610.98005      21469.619      22173.007      9421.3567      12751.65       4274.873       4116.926       3259.6585      371.60861      200.48703      4893.5578     -4365.4609     -498.92151      78938.995      42.897357      42.897357      42.897357      1.1175169      23.280226     -2633.2194      776.99906    
    167000   167000         483.19043     -2086.6013      19509.39       21889.111      9360.5025      12528.608      4129.5521      4140.0965      3278.203       365.19505      79.571146      4904.4075     -4368.417      -503.63175      78200.715      42.763204      42.763204      42.763204      1.1280672     -2105.145      -1217.1717     -2937.4871    
    168000   168000         476.41379     -2293.7691      19133.691      21752.306      9229.2235      12523.082      4229.1413      4025.9125      3265.054       361.53791      100.39001      4905.4527     -4364.4064     -503.12719      78279.138      42.777495      42.777495      42.777495      1.1269371     -747.63011     -1348.1921     -4785.4852    
    169000   169000         479.44136      589.56674      22563.034      21887.665      9287.8745      12599.79       4217.3542      4085.4757      3136.0593      374.7745       244.44421      4908.3615     -4366.6788     -501.40859      78547.442      42.826313      42.826313      42.826313      1.1230877      773.11337      771.47149      224.11536    
    170000   170000         486.79619      172.63569      22090.563      21892.106      9430.3543      12461.751      4249.6686      4081.9697      3094.6362      368.81565      131.68987      4903.0156     -4368.0443     -499.64591      78824.547      42.876615      42.876615      42.876615      1.1191395     -1208.5972      1344.8933      381.61102    
    171000   171000         491.88176      1759.9362      23974.106      21956.325      9528.8733      12427.452      4321.3695      3998.2001      3056.5024      375.00204      127.12673      4919.1709     -4369.9197     -500.9827       78614.217      42.838445      42.838445      42.838445      1.1221337      4118.2765      330.90281      830.62924    
    172000   172000         482.11216      1319.3595      23238.844      21750.704      9339.6138      12411.09       4324.536       4021.6319      3052.0234      356.5531       126.8649       4899.9547     -4370.4739     -509.23585      77340.122      42.605757      42.605757      42.605757      1.1406196      2244.2313      444.19884      1269.6485    
    173000   173000         480.49936     -91.973592      21689.233      21794.239      9308.3704      12485.868      4178.6603      4126.4411      3112.7948      371.61431      160.67168      4902.8216     -4367.1356     -503.09339      78284.397      42.778453      42.778453      42.778453      1.1268614      1977.8037     -294.22815     -1959.4963    
    174000   174000         489.88201     -1082.4834      20838.482      22072.908      9490.1337      12582.775      4384.9122      4046.1561      3152.8544      368.10157      100.36834      4897.105      -4366.723      -503.6814       78193.006      42.761799      42.761799      42.761799      1.1281784      672.30402     -2387.106      -1532.6484    
    175000   175000         479.25985     -642.92827      20998.07       21735.967      9284.3582      12451.608      4233.1781      4189.3619      3080.6959      362.95968      38.849286      4914.8749     -4368.3113     -500.45727      78696.753      42.853432      42.853432      42.853432      1.1209568     -1689.202      -1520.5666      1280.9837    
    176000   176000         479.50776     -697.47276      21108.192      21905.167      9289.1607      12616.006      4239.9595      4101.638       3205.4913      392.8655       119.76778      4923.5495     -4367.2652     -502.66914      78350.469      42.790484      42.790484      42.790484      1.1259111     -504.10673     -37.820979     -1550.4906    
    177000   177000         486.11989     -2131.9053      19595.446      22039.438      9417.2528      12622.185      4299.3357      4118.0192      3223.4538      360.37541      84.781279      4904.8927     -4368.6731     -501.03469      78606.059      42.836963      42.836963      42.836963      1.1222502     -599.26133     -2179.3466     -3617.108     
    178000   178000         476.20351      130.19233      21812.881      21664.423      9225.15        12439.273      4186.8376      4073.1192      3183.6981      355.7585       103.45879      4907.3513     -4370.9503     -503.71085      78188.433      42.760966      42.760966      42.760966      1.1282444      19.05083       1022.5361     -651.00996    
    179000   179000         483.90557     -2242.5582      19271.739      21838.212      9374.3565      12463.855      4228.9253      4102.2743      3171.5398      358.54239      64.131391      4906.6854     -4368.2436     -501.88792      78472.426      42.812675      42.812675      42.812675      1.1241613     -2634.4522     -1391.5216     -2701.7009    
    180000   180000         481.29342     -842.26318      21057.884      22020.92       9323.753       12697.167      4326.6171      4119.1914      3182.9205      358.89007      171.60965      4905.0723     -4367.1337     -502.34836      78400.5        42.79959       42.79959       42.79959       1.1251926      732.98598     -2151.9369     -1107.8386    
    181000   181000         487.15578      704.76068      22761.518      21962.278      9437.3204      12524.957      4288.7273      4092.2117      3188.1713      374.34231      48.899331      4901.8835     -4369.2782     -506.48192      77760.649      42.682838      42.682838      42.682838      1.1344512     -280.14766      856.87751      1537.5522    
    182000   182000         489.38648      407.39468      22369.691      21903.374      9480.5341      12422.84       4275.8803      4039.5848      3045.9113      351.48666      173.52032      4905.1846     -4368.7276     -501.80465      78485.447      42.815042      42.815042      42.815042      1.1239748      1936.8219     -1484.9951      770.35719    
    183000   183000         477.05892     -559.69003      21104.825      21746.8        9241.7211      12505.079      4384.5282      4007.4544      3146.0646      365.09113      64.9863        4905.5271     -4368.573      -500.75973      78649.22       42.844802      42.844802      42.844802      1.1216343     -302.71869     -509.18066     -867.17075    
    184000   184000         482.89216     -2541.4771      18984.986      21896.689      9354.7244      12541.965      4235.1044      4032.6508      3257.0063      375.88337      106.91812      4902.4878     -4368.0857     -501.34742      78557.026      42.828054      42.828054      42.828054      1.1229506     -3022.9371     -1759.2369     -2842.2573    
    185000   185000         478.49706     -855.59221      20761.249      21737.7        9269.5813      12468.119      4175.7568      4094.2693      3178.1424      363.67253      105.46845      4921.7231     -4370.9137     -503.2875       78254.203      42.772952      42.772952      42.772952      1.1272961     -1493.8745     -808.54637     -264.35578    
    186000   186000         483.15287     -290.18794      21469.817      21803.856      9359.7748      12444.081      4280.4061      4076.4994      3050.3585      349.95606      147.98293      4909.7265     -4370.8487     -498.97854      78929.973      42.895722      42.895722      42.895722      1.1176446     -2006.2361      1051.2331      84.439202    
    187000   187000         483.26312     -90.837792      21627.12       21730.103      9361.9107      12368.193      4355.0037      4022.3181      3055.0435      357.94117      32.331589      4914.8581     -4369.3034     -506.6393       77736.493      42.678418      42.678418      42.678418      1.1348037     -332.28902      971.30641     -911.53076    
    188000   188000         484.67371     -243.0587       21645.755      21922.03       9389.2369      12532.794      4266.2855      4067.0616      3202.4862      360.70726      101.28452      4907.202      -4372.2336     -505.32225      77939.103      42.715465      42.715465      42.715465      1.1318537      713.52197     -2097.2052      654.50716    
    189000   189000         482.6189      -131.64484      21665.022      21814.933      9349.4307      12465.503      4240.3803      4043.51        3091.3951      361.27056      183.82782      4913.1185     -4367.9997     -504.39376      78082.572      42.741659      42.741659      42.741659      1.129774       1355.5073     -128.85263     -1621.5892    
    190000   190000         488.52796      2602.7235      24806.491      21867.228      9463.9027      12403.325      4312.4257      4075.3165      2993.7944      365.62373      131.57159      4896.4629     -4371.8696     -508.61519      77434.499      42.62308       42.62308       42.62308       1.1392295      1946.1224      3390.7781      2471.27      
    191000   191000         474.76651     -79.870142      21421.272      21511.683      9197.3118      12314.372      4096.8804      4016.5197      3136.1146      366.43914      167.87353      4901.9111     -4371.3669     -507.41276      77617.999      42.656722      42.656722      42.656722      1.1365362      652.08937      844.10953     -1735.8093    
    192000   192000         478.26072      794.69664      22560.538      21656.253      9265.0028      12391.25       4237.8584      3937.8522      3173.1086      358.83681      151.00043      4903.3305     -4370.7366     -504.77238      78024.005      42.73097       42.73097       42.73097       1.1306221     -59.173981      1141.9014      1301.3625    
    193000   193000         482.74549      517.46502      22292.512      21704.031      9351.883       12352.148      4232.3006      4014.1286      3108.3193      356.84606      104.23919      4907.1714     -4370.8568     -505.06639      77978.585      42.722676      42.722676      42.722676      1.1312806      3269.3376     -1172.2828     -544.65968    
    194000   194000         476.53414     -1843.0904      19457.804      21554.02       9231.555       12322.465      4153.6813      4005.7015      3147.8885      355.04196      124.77274      4902.3393     -4366.9603     -505.02202      77985.436      42.723927      42.723927      42.723927      1.1311812     -3750.4685     -1351.2286     -427.57419    
    195000   195000         483.99842     -2010.3669      19561.526      21855.666      9376.1551      12479.511      4157.9276      4054.623       3323.8658      373.16223      36.261495      4899.3307     -4365.6599     -503.33261      78247.19       42.771674      42.771674      42.771674      1.1273972     -1968.9018     -2083.9058     -1978.293     
    196000   196000         470.38405      371.22542      22018.955      21599.311      9112.4137      12486.897      4294.466       4061.3362      3158.8854      369.9134       63.680955      4907.7236     -4369.1082     -508.10866      77511.693      42.637239      42.637239      42.637239      1.1380949      244.89351      202.18935      666.59339    
    197000   197000         480.21475     -167.57513      21315.146      21503.529      9302.8567      12200.672      4132.5025      4015.3842      3166.3886      365.00979     -28.309436      4917.3708     -4367.6746     -510.93909      77082.305      42.558361      42.558361      42.558361      1.1444347      1965.9662     -1682.942      -785.74964    
    198000   198000         482.76557     -1015.1164      20560.124      21709.448      9352.2721      12357.176      4146.0163      4041.6031      3169.1666      366.55393      102.23896      4900.8745     -4369.2777     -507.30968      77633.769      42.659611      42.659611      42.659611      1.1363053     -1738.57       -279.84994     -1026.9294    
    199000   199000         484.37882     -546.71946      21145.125      21763.435      9383.5244      12379.911      4188.2796      4047.0607      3184.7751      356.10592      57.76948       4913.7908     -4367.8709     -507.87601      77547.2        42.643749      42.643749      42.643749      1.1375738      343.66376     -891.25497     -1092.5672    
    200000   200000         475.80521      200.57303      21678.729      21451.85       9217.4338      12234.417      4150.4967      4119.8012      2992.6892      341.6802       79.967538      4917.666      -4367.8842     -507.78309      77561.391      42.64635       42.64635       42.64635       1.1373657      1821.5627      805.65296     -2025.4965    
    201000   201000         482.18547      1798.1392      23674.987      21645.955      9341.0341      12304.92       4286.8726      4104.5501      2940.2684      366.67709      49.430603      4925.6913     -4368.5695     -509.01906      77373.06       42.611804      42.611804      42.611804      1.1401341      1127.9955      3645.9009      620.52108    
    202000   202000         480.39679      847.21648      22478.709      21515.462      9306.3832      12209.079      4176.8559      4000.6194      3092.2347      376.16712      21.031986      4908.7834     -4366.6141     -505.19161      77959.257      42.719146      42.719146      42.719146      1.1315611      2517.8258     -1637.1971      1661.0207    
    203000   203000         479.04833      982.22485      22770.443      21664.09       9280.2605      12383.829      4223.197       4108.9377      3154.652       367.78722     -19.467723      4916.6595     -4367.9365     -509.93753      77233.7        42.586206      42.586206      42.586206      1.1421913      554.21517      2001.3977      391.06163    
    204000   204000         477.61254     -517.56133      20968.9        21554.228      9252.4459      12301.782      4173.3813      4092.5723      3042.4156      348.9447       102.43864      4906.802      -4364.7722     -507.88113      77546.418      42.643605      42.643605      42.643605      1.1375853     -1139.0944      1061.6613     -1475.2509    
    205000   205000         481.27351      518.5978       22264.491      21681.995      9323.3673      12358.628      4263.7495      3969.3335      3154.8613      353.2704       81.890163      4905.93       -4370.4072     -511.37257      77016.964      42.546333      42.546333      42.546333      1.1454056     -190.89123      1026.6749      720.00968    
    206000   206000         474.88432      327.98354      21784.67       21412.587      9199.5941      12212.993      4160.4352      4022.1335      3073.9365      339.67313      94.118039      4896.2992     -4373.6029     -506.30462      77787.879      42.68782       42.68782       42.68782       1.1340541     -110.26815     -674.71109      1768.9299    
    207000   207000         478.54528      447.63055      22103.242      21600.749      9270.5153      12330.233      4307.0965      4055.8157      3087.349       362.95918     -29.830312      4915.7695     -4368.9261     -511.66861      76972.403      42.538125      42.538125      42.538125      1.1460687      1245.1685      1221.486      -1123.7629    
    208000   208000         485.88286     -1838.9834      19616.896      21708.404      9412.6611      12295.742      4293.8307      3909.0399      3179.026       353.78607      40.49048       4889.0315     -4369.4621     -505.03098      77984.052      42.723675      42.723675      42.723675      1.1312013     -1463.3468     -2282.0343     -1771.5692    
    209000   209000         481.13699      1322.1986      23151.259      21646.52       9320.7227      12325.797      4248.1095      4039.2179      3053.4805      356.82168      76.268386      4913.8668     -4361.9674     -504.70227      78034.844      42.732948      42.732948      42.732948      1.130465       464.30778      1721.5645      1780.7235    
    210000   210000         478.76267      461.32041      22367.366      21850.058      9274.7267      12575.331      4339.7358      4095.8343      3213.6294      391.52652     -3.4508717      4907.5148     -4369.4591     -512.2159       76890.16       42.52297       42.52297       42.52297       1.1472946      190.66669     -126.02761      1319.3222    
    211000   211000         483.93562      208.26297      21999.654      21763.363      9374.9384      12388.424      4281.5252      4075.1909      3103.2519      365.9014       38.651947      4894.6387     -4370.7359     -506.24815      77796.556      42.689407      42.689407      42.689407      1.1339276      808.01149     -2117.0639      1933.8413    
    212000   212000         483.29743      1015.74        22943.812      21797.788      9362.5753      12435.213      4272.4132      4056.9938      3162.7376      362.13857      61.437375      4893.7482     -4374.256      -509.08307      77363.332      42.610018      42.610018      42.610018      1.1402774     -40.082618      1958.251       1129.0517    
    213000   213000         479.86083      719.25753      22456.212      21643.198      9296.0006      12347.197      4317.4038      3927.0376      3081.0446      362.55755      134.50686      4896.5334     -4371.8868     -508.14302      77506.452      42.636278      42.636278      42.636278      1.1381718      251.54976      520.18204      1386.0408    
    214000   214000         479.28061     -307.68002      21201.386      21549.634      9284.7603      12264.874      4310.2619      4017.8838      3033.3715      362.80119      7.89242        4901.2441     -4368.5808     -507.47009      77609.229      42.655116      42.655116      42.655116      1.1366646     -355.27622     -447.27215     -120.49171    
    215000   215000         483.93403     -184.47744      21659.517      21867.103      9374.9076      12492.196      4273.3856      4056.5959      3177.4372      370.70891      79.058804      4902.7056     -4367.6962     -510.44035      77157.62       42.572218      42.572218      42.572218      1.1433176     -955.70168     -194.17445      596.4438     
    216000   216000         479.16585     -229.89069      21357.861      21617.336      9282.5371      12334.799      4222.108       4052.07        3129.5842      367.37606      35.496819      4899.159      -4370.9952     -508.89092      77392.543      42.615381      42.615381      42.615381      1.139847       671.59667     -1638.6605      277.3917     
    217000   217000         479.02732      470.70673      21964.023      21431.71       9279.8536      12151.857      4225.6325      3953.1661      3048.0762      365.29592      41.360121      4891.224      -4372.8982     -507.90602      77542.619      42.642909      42.642909      42.642909      1.137641       1429.039      -71.33982       54.421012    
    218000   218000         480.85253      1719.8337      23564.512      21625.045      9315.212       12309.833      4136.6305      4071.2019      3053.2164      357.27509      151.44549      4908.4218     -4368.3584     -509.33535      77325.013      42.602982      42.602982      42.602982      1.1408425      1592.5279      2889.469       677.50425    
    219000   219000         477.4745      -447.1575       21057.684      21557.888      9249.7718      12308.116      4157.8011      4050.2825      3160.5234      375.72388      22.665736      4909.2559     -4368.1362     -513.46767      76702.712      42.488387      42.488387      42.488387      1.1500983     -402.34572     -1572.6308      633.50399    
    220000   220000         475.7028       725.46945      22303.52       21483.253      9215.45        12267.803      4230.9095      3965.7818      3093.6181      373.34718      69.847083      4906.6995     -4372.4001     -507.99991      77528.287      42.640281      42.640281      42.640281      1.1378513      162.40222     -94.369129      2108.3753    
    221000   221000         478.41288      338.11949      21977.006      21595.369      9267.9505      12327.418      4249.3726      4128.8471      3022.3223      362.56011      31.187049      4903.3498     -4370.2209     -508.88419      77393.567      42.615569      42.615569      42.615569      1.139832      -1016.5875      955.42808      1075.5179    
    222000   222000         476.47631     -718.64912      20799.522      21617.369      9230.4347      12386.934      4162.8853      4073.4442      3187.1793      360.03707      61.870274      4910.0311     -4368.5133     -504.71342      78033.12       42.732633      42.732633      42.732633      1.13049       -1365.4375     -90.065493     -700.44436    
    223000   223000         471.13296      414.16343      21655.216      21191.914      9126.9217      12064.992      4162.2874      3987.9692      3063.4233      348.57953     -7.2348425      4887.8935     -4377.9261     -513.46031      76703.81       42.488589      42.488589      42.488589      1.1500819      310.26677      1200.7055     -268.48197    
    224000   224000         481.61652     -931.57449      20633.516      21691.068      9330.0122      12361.056      4169.9663      4159.0011      3100.0909      362.50776      37.15862       4903.1479     -4370.8169     -505.95927      77840.975      42.69753       42.69753       42.69753       1.1332805     -566.62507     -1700.1674     -527.93102    
    225000   225000         476.13375      723.73932      22405.519      21593.292      9223.7985      12369.493      4296.7479      4109.7391      3011.9546      352.48408      88.835355      4884.3517     -4374.6193     -511.80489      76951.908      42.53435       42.53435       42.53435       1.1463739      1585.542      -1148.5727      1734.2487    
    226000   226000         468.09403      628.815        22076.77       21371.052      9068.0506      12303.001      4308.4239      3937.645       3048.564       356.39964      127.83109      4898.6966     -4374.5591     -511.78969      76954.193      42.534771      42.534771      42.534771      1.1463399      1738.1535      25.224248      123.06727    
    227000   227000         479.31104      474.0417       22156.319      21626.017      9285.3499      12340.667      4277.694       4069.2381      3105.3034      342.23153      1.8652308      4914.0925     -4369.7574     -513.4436       76706.307      42.48905       42.48905       42.48905       1.1500444     -638.24457      1318.7334      741.63629    
    228000   228000         473.47847      301.74599      21646.991      21306.199      9172.3596      12133.84       4205.9969      4013.0741      3006.686       357.68526      11.405155      4908.6474     -4369.6553     -508.57191      77441.089      42.624289      42.624289      42.624289      1.1391325      1755.801       725.4517      -1576.0148    
    229000   229000         481.93903     -607.6954       20971.55       21651.96       9336.2599      12315.701      4167.1954      4108.4146      3141.3757      342.19212      26.37902       4903.3115     -4373.1677     -512.99677      76773.12       42.501383      42.501383      42.501383      1.1490436     -2063.701       2121.6532     -1881.0384    
    230000   230000         466.01401     -26.405026      21319.558      21349.13       9027.756       12321.374      4193.9914      4100.1597      3122.1687      346.04236      18.730864      4913.2315     -4372.9504     -512.87274      76791.686      42.504809      42.504809      42.504809      1.1487658     -397.01391      1357.2966     -1039.4978    
    231000   231000         478.78668     -570.94441      20967.267      21610.617      9275.1918      12335.425      4291.8827      4000.7213      3139.0098      373.16687      4.6918977      4899.3271     -4373.3745     -509.73686      77264.106      42.591793      42.591793      42.591793      1.1417418     -401.02559      193.3512      -1505.1588    
    232000   232000         473.2933       965.54715      22538.036      21459.145      9168.7725      12290.372      4264.0515      4053.3142      3025.8573      355.52218      54.64826       4909.9009     -4372.9223     -514.03806      76617.6        42.472665      42.472665      42.472665      1.151376       2876.6183     -0.2382671      20.261418    
    233000   233000         483.24241      255.79915      22064.716      21777.911      9361.5094      12416.401      4205.2731      4088.1232      3195.2792      371.46179      33.892585      4895.2448     -4372.8735     -512.28568      76879.687      42.521039      42.521039      42.521039      1.1474509     -360.58734      14.810372      1113.1744    
    234000   234000         466.86198     -2828.6908      18259.403      21452.53       9044.1831      12408.347      4268.421       4001.9775      3299.2105      371.55049     -55.900523      4894.2593     -4371.1717     -508.82574      77402.458      42.6172        42.6172        42.6172        1.1397011     -4025.2569     -2395.4662     -2065.3492    
    235000   235000         470.92866      354.19064      21870.061      21470.345      9122.9639      12347.381      4263.404       4037.886       3027.8958      359.77777      115.25142      4910.891      -4367.7246     -508.96242      77381.672      42.613385      42.613385      42.613385      1.1400072     -1820.4862      1770.2231      1112.835     
    236000   236000         480.04279     -1270.7208      20146.973      21589.401      9299.5256      12289.875      4149.1138      4105.8333      3128.3467      355.81177      6.6255107      4917.4457     -4373.3013     -506.00604      77833.779      42.696215      42.696215      42.696215      1.1333853     -858.31081     -1093.1595     -1860.692     
    237000   237000         483.70831      1911.019       23604.108      21453.767      9370.5351      12083.232      4116.5136      3992.7413      3022.4936      349.76389      52.533996      4917.9997     -4368.8143     -510.45497      77155.409      42.571811      42.571811      42.571811      1.1433503      515.88351      3522.0253      1695.1482    
    238000   238000         477.16008      419.83622      22100.449      21625.672      9243.6809      12381.991      4298.6704      3995.4943      3159.6554      363.91491      24.291164      4909.9743     -4370.0092     -507.91376      77541.436      42.642692      42.642692      42.642692      1.1376584      520.49817     -1486.6706      2225.681     
    239000   239000         479.88187     -718.27026      20914.616      21730.116      9296.4081      12433.708      4170.6243      4034.5398      3184.0388      375.31976      124.57823      4912.9953     -4368.3882     -505.89861      77850.308      42.699237      42.699237      42.699237      1.1331447     -1313.2843     -3016.5466      2175.0201    
    240000   240000         481.56951      830.54397      22375.89       21434.327      9329.1016      12105.225      4062.4199      4059.1913      3024.8103      357.96585      87.701915      4887.8279     -4374.6917     -506.65546      77734.013      42.677964      42.677964      42.677964      1.1348399      1969.6594      551.20665     -29.23414     
    241000   241000         466.92578     -253.33506      20937.203      21224.681      9045.4191      12179.262      4208.2381      3929.1597      3081.5204      361.93783      87.973624      4885.5142     -4375.0815     -506.16221      77809.765      42.691823      42.691823      42.691823      1.1337351     -248.51683     -507.73068     -3.7576633    
    242000   242000         479.28129     -301.68759      21263.938      21608.477      9284.7735      12323.704      4297.5318      3983.6225      3056.1291      352.88737      99.521498      4907.2866     -4373.2752     -502.94291      78307.819      42.782718      42.782718      42.782718      1.1265243      297.66877      41.217927     -1243.9495    
    243000   243000         477.59299     -1537.7242      19915.943      21646.171      9252.0673      12394.104      4232.7927      4030.4843      3216.9585      377.46886     -7.1267705      4917.2012     -4373.6752     -510.47555      77152.3        42.571239      42.571239      42.571239      1.1433964     -1561.4953     -1257.005      -1794.6724    
    244000   244000         470.59842     -347.32281      21017.809      21409.957      9116.5666      12293.39       4140.362       4058.6496      3133.4336      358.60531      78.334856      4899.1523     -4375.1475     -508.72572      77417.675      42.619993      42.619993      42.619993      1.139477       53.809022     -512.46313     -583.31433    
    245000   245000         475.42625      922.77575      22621.213      21584.106      9210.0927      12374.013      4282.3754      4115.4157      3085.988       367.19264      14.542381      4886.7132     -4378.2142     -511.06022      77064.035      42.554999      42.554999      42.554999      1.144706      -736.6414       622.2406       2882.7281    
    246000   246000         473.30272      994.08857      22382.035      21265.352      9168.9549      12096.397      4214.1029      3955.009       3080.9399      352.60911     -44.899926      4912.301      -4373.665      -511.32267      77024.48       42.547717      42.547717      42.547717      1.1452938      1039.4544     -359.74833      2302.5596    
    247000   247000         474.30695      572.75007      22152.81       21511.879      9188.4091      12323.469      4253.2152      4004.9899      3147.4536      357.70143      32.62261       4901.9078     -4374.4212     -513.27841      76730.994      42.493608      42.493608      42.493608      1.1496744     -788.92556      1390.9486      1116.2271    
    248000   248000         472.76662      809.82008      22361.411      21448.71       9158.5694      12290.141      4188.5438      4083.8896      3045.3482      346.42101      106.19103      4896.619      -4376.8717     -509.63554      77279.466      42.594616      42.594616      42.594616      1.1415149      1997.7085      1091.9946     -660.24294    
    249000   249000         478.61553      243.22663      21690.04       21416.783      9271.8762      12144.907      4165.0282      4030.5656      3094.0269      356.28388     -27.341554      4902.5722     -4376.2284     -511.25678      77034.406      42.549544      42.549544      42.549544      1.1451463      343.74634      2167.7752     -1781.8417    
    250000   250000         465.34823      559.78726      21757.403      21127.807      9014.8583      12112.948      4158.4497      3848.9956      3127.5896      348.84272      89.16078       4912.3525     -4372.4425     -510.69347      77119.377      42.565183      42.565183      42.565183      1.1438845      400.00877      572.79707      706.55593    
Loop time of 515.394 on 1 procs for 250000 steps with 6500 atoms

Performance: 41.910 ns/day, 0.573 hours/ns, 485.066 timesteps/s, 3.153 Matom-step/s
100.0% CPU use with 1 MPI tasks x 1 OpenMP threads

MPI task timing breakdown:
Section |  min time  |  avg time  |  max time  |%varavg| %total
---------------------------------------------------------------
Pair    | 52.236     | 52.236     | 52.236     |   0.0 | 10.14
Bond    | 67.073     | 67.073     | 67.073     |   0.0 | 13.01
Kspace  | 229.42     | 229.42     | 229.42     |   0.0 | 44.51
Neigh   | 68.427     | 68.427     | 68.427     |   0.0 | 13.28
Comm    | 9.8911     | 9.8911     | 9.8911     |   0.0 |  1.92
Output  | 2.2948     | 2.2948     | 2.2948     |   0.0 |  0.45
Modify  | 75.985     | 75.985     | 75.985     |   0.0 | 14.74
Other   |            | 10.07      |            |       |  1.95

Nlocal:           6500 ave        6500 max        6500 min
Histogram: 1 0 0 0 0 0 0 0 0 0
Nghost:          17258 ave       17258 max       17258 min
Histogram: 1 0 0 0 0 0 0 0 0 0
Neighs:              0 ave           0 max           0 min
Histogram: 1 0 0 0 0 0 0 0 0 0
FullNghs:  3.48447e+06 ave 3.48447e+06 max 3.48447e+06 min
Histogram: 1 0 0 0 0 0 0 0 0 0

Total # of neighbors = 3484468
Ave neighs/atom = 536.072
Ave special neighs/atom = 5.7630769
Neighbor list builds = 12977
Dangerous builds = 0
System init for write_data ...
PPPM Kokkos initialization ...
  using 12-bit tables for long-range coulomb
  G vector (1/distance) = 0.30004166
  grid = 30 30 30
  stencil order = 5
  estimated absolute RMS force accuracy = 0.00032307736
  estimated relative force accuracy = 9.7293787e-07
  using double precision cuFFT
  3d grid and FFT values/proc = 50653 27000
Generated 28 of 28 mixed pair_coeff terms from sixthpower/sixthpower mixing rule
System init for write_restart ...
PPPM Kokkos initialization ...
  using 12-bit tables for long-range coulomb
  G vector (1/distance) = 0.30004166
  grid = 30 30 30
  stencil order = 5
  estimated absolute RMS force accuracy = 0.00032307736
  estimated relative force accuracy = 9.7293787e-07
  using double precision cuFFT
  3d grid and FFT values/proc = 50653 27000
Generated 28 of 28 mixed pair_coeff terms from sixthpower/sixthpower mixing rule
STAGE COMPLETE: NPT T=500.0->475.0K P=1.0->1.0atm steps=250000
