Authorization required, but no authorization protocol specified

Authorization required, but no authorization protocol specified

Authorization required, but no authorization protocol specified

Authorization required, but no authorization protocol specified

LAMMPS (22 Jul 2025 - Update 3)
KOKKOS mode with Kokkos version 4.6.2 is enabled
  will use up to 1 GPU(s) per node
  using 1 OpenMP thread(s) per MPI task
Reading data file ...
  orthogonal box = (6.9558427 6.9558427 6.9558427) to (46.73685 46.73685 46.73685)
  1 by 1 by 1 MPI processor grid
  reading atoms ...
  4940 atoms
  reading velocities ...
  4940 velocities
  scanning bonds ...
  4 = max bonds/atom
  scanning angles ...
  12 = max angles/atom
  scanning dihedrals ...
  24 = max dihedrals/atom
  scanning impropers ...
  10 = max impropers/atom
  orthogonal box = (6.9558427 6.9558427 6.9558427) to (46.73685 46.73685 46.73685)
  1 by 1 by 1 MPI processor grid
  reading bonds ...
  4930 bonds
  reading angles ...
  9840 angles
  reading dihedrals ...
  14670 dihedrals
  reading impropers ...
  6560 impropers
Finding 1-2 1-3 1-4 neighbors ...
  special bond factors lj:    0        0        1       
  special bond factors coul:  0        0        1       
     4 = max # of 1-2 neighbors
     6 = max # of 1-3 neighbors
    10 = max # of special neighbors
  special bonds CPU = 0.003 seconds
  read_data CPU = 0.191 seconds
PPPM Kokkos initialization ...
  using 12-bit tables for long-range coulomb
  G vector (1/distance) = 0.29644941
  grid = 27 27 27
  stencil order = 5
  estimated absolute RMS force accuracy = 0.00035440589
  estimated relative force accuracy = 1.0672828e-06
  using double precision cuFFT
  3d grid and FFT values/proc = 39304 19683
Generated 6 of 6 mixed pair_coeff terms from sixthpower/sixthpower mixing rule
Neighbor list info ...
  update: every = 1 steps, delay = 0 steps, check = yes
  max neighbors/atom: 4000, page size: 100000
  master list distance cutoff = 11.5
  ghost atom cutoff = 11.5
  binsize = 11.5, bins = 4 4 4
  1 neighbor lists, perpetual/occasional/extra = 1 0 0
  (1) pair lj/class2/coul/long/kk, perpetual
      attributes: full, newton off, kokkos_device
      pair build: full/bin/kk/device
      stencil: full/bin/3d
      bin: kk/device
Setting up Verlet run ...
  Unit style    : real
  Current step  : 0
  Time step     : 1
Per MPI rank memory allocation (min/avg/max) = 28.8 | 28.8 | 28.8 Mbytes
   Step          Time           Temp          Press         Enthalpy        TotEng         KinEng         PotEng         E_bond        E_angle        E_dihed        E_impro         E_vdwl         E_coul         E_long         E_tail         Volume           Lx             Ly             Lz          Density          Pxx            Pyy            Pzz      
         0   0              300.52491      725.60843      313.36911     -352.83229      4424.3941     -4777.2264      1772.3749      2784.5658     -2794.8491      23.410493     -1286.8068     -2194.5578     -3081.3638     -375.08949      62954.58       39.781007      39.781007      39.781007      1.3523245     -48.428022      1686.3322      538.92105    
      1000   1000           291.4609       527.2308      -44.203188     -528.26854      4290.9517     -4819.2203      1770.8006      2798.7335     -2806.433       23.845331     -1337.1218     -2192.8644     -3076.1806     -375.08949      62954.58       39.781007      39.781007      39.781007      1.3523245      1772.3243     -462.61201      271.98014    
      2000   2000           299.31609      811.2335       355.99906     -388.81711      4406.5976     -4795.4147      1783.3426      2789.7715     -2814.6248      23.361213     -1316.2112     -2189.6791     -3071.375      -375.08949      62954.58       39.781007      39.781007      39.781007      1.3523245      1697.4265      893.71928     -157.44523    
      3000   3000           303.51825      1035.572       537.39138     -413.39626      4468.4627     -4881.859       1716.887       2745.0917     -2820.1161      22.04421      -1283.1252     -2187.8185     -3074.822      -375.08949      62954.58       39.781007      39.781007      39.781007      1.3523245      396.3214       2177.0155      533.3791     
      4000   4000           304.35152      371.46653      75.640278     -265.41354      4480.7302     -4746.1438      1784.265       2784.2086     -2774.2679      23.399922     -1293.6601     -2195.7296     -3074.3597     -375.08949      62954.58       39.781007      39.781007      39.781007      1.3523245      985.95195      1151.7709     -1023.3233    
      5000   5000           300.49757      273.03105     -126.50878     -377.18622      4423.9916     -4801.1778      1763.0748      2805.7198     -2803.9609      23.238496     -1326.3228     -2185.1785     -3077.7487     -375.08949      62954.58       39.781007      39.781007      39.781007      1.3523245     -435.97907      1964.4453     -709.3731     
      6000   6000           307.89439     -482.73689     -654.71273     -211.49848      4532.8892     -4744.3877      1836.277       2822.0464     -2814.635       24.328084     -1346.6        -2187.358      -3078.4462     -375.08949      62954.58       39.781007      39.781007      39.781007      1.3523245     -496.15949      400.53817     -1352.5894    
      7000   7000           300.93535      741.82154      380.40913     -300.67798      4430.4366     -4731.1146      1778.1223      2810.195      -2799.1647      23.802472     -1299.0301     -2178.3473     -3066.6923     -375.08949      62954.58       39.781007      39.781007      39.781007      1.3523245      1331.9106      1605.6718     -712.11772    
      8000   8000           299.79321     -299.07038     -566.39392     -291.80903      4413.6219     -4705.4309      1797.9024      2809.2063     -2804.8305      23.314298     -1273.8147     -2183.5821     -3073.6265     -375.08949      62954.58       39.781007      39.781007      39.781007      1.3523245      265.19262     -35.366082     -1127.0377    
      9000   9000           308.39855      1115.6169      873.41522     -150.86391      4540.3116     -4691.1755      1782.0341      2823.7109     -2802.6298      22.446098     -1270.006      -2178.0318     -3068.6991     -375.08949      62954.58       39.781007      39.781007      39.781007      1.3523245      1559.5796      830.05184      957.21935    
     10000   10000          307.89005      1450.5257      1205.7345     -126.03375      4532.8254     -4658.8591      1776.1144      2883.7321     -2795.1525      23.292044     -1286.4829     -2185.9148     -3074.4475     -375.08949      62954.58       39.781007      39.781007      39.781007      1.3523245      1913.0153      1766.1214      672.4404     
     11000   11000          302.9579       1417.0291      1076.8851     -224.12902      4460.2131     -4684.3421      1768.3565      2908.6044     -2846.242       24.411377     -1270.0313     -2191.8631     -3077.578      -375.08949      62954.58       39.781007      39.781007      39.781007      1.3523245      783.38762      2107.0093      1360.6904    
     12000   12000          310.57801      121.31021      13.46243      -97.915865      4572.398      -4670.3139      1802.3958      2865.0325     -2813.8597      23.339998     -1287.7818     -2186.4903     -3072.9503     -375.08949      62954.58       39.781007      39.781007      39.781007      1.3523245     -476.21215      1247.0082     -406.86546    
     13000   13000          304.33213      552.55255      362.24029     -145.07367      4480.4448     -4625.5185      1829.8794      2854.2062     -2801.1816      22.472453     -1274.4087     -2186.3618     -3070.1244     -375.08949      62954.58       39.781007      39.781007      39.781007      1.3523245      1863.0212      584.33324     -789.69678    
     14000   14000          308.35587      889.31131      642.2675      -174.23409      4539.6833     -4713.9174      1842.1531      2809.0855     -2802.8812      23.36598      -1310.5216     -2196.818      -3078.3012     -375.08949      62954.58       39.781007      39.781007      39.781007      1.3523245      1102.8865      871.28421      693.76323    
     15000   15000          308.7933       651.16638      560.22609     -37.627988      4546.1231     -4583.7511      1834.5267      2879.1628     -2779.9349      23.599492     -1276.061      -2190.2487     -3074.7956     -375.08949      62954.58       39.781007      39.781007      39.781007      1.3523245      246.50017      1024.6359      682.36307    
     16000   16000          318.9081      -518.04524     -402.30435      73.327476      4695.0355     -4621.7081      1839.6298      2857.2119     -2764.4589      23.724491     -1320.4583     -2184.6817     -3072.6753     -375.08949      62954.58       39.781007      39.781007      39.781007      1.3523245     -1312.2616     -1228.5632      986.68906    
     17000   17000          311.87276      1121.1507      1003.5531     -25.806773      4591.4597     -4617.2665      1760.7665      2872.928      -2807.2678      23.028382     -1205.1678     -2191.0535     -3070.5002     -375.08949      62954.58       39.781007      39.781007      39.781007      1.3523245      269.13182      1293.6375      1800.6828    
     18000   18000          307.06186     -411.43243     -558.83915     -181.09152      4520.6325     -4701.724       1822.3049      2800.2345     -2777.6286      24.401974     -1315.4213     -2183.4922     -3072.1235     -375.08949      62954.58       39.781007      39.781007      39.781007      1.3523245      386.51012     -1053.1189     -567.68854    
     19000   19000          309.01509      325.87989      227.51758     -71.681863      4549.3884     -4621.0703      1815.6662      2888.3085     -2819.4423      24.306856     -1262.6147     -2191.3118     -3075.9831     -375.08949      62954.58       39.781007      39.781007      39.781007      1.3523245      1539.3325      729.50648     -1291.1993    
     20000   20000          314.5929       642.95453      590.51207      0.19752187     4631.5061     -4631.3086      1830.848       2838.0468     -2801.7819      23.993491     -1256.0154     -2191.9852     -3074.4143     -375.08949      62954.58       39.781007      39.781007      39.781007      1.3523245      783.48248      1119.7807      25.600454    
     21000   21000          314.38995      788.11699      735.07812      11.485857      4628.5183     -4617.0324      1809.7667      2873.9633     -2800.7057      23.803289     -1275.6339     -2178.5801     -3069.646      -375.08949      62954.58       39.781007      39.781007      39.781007      1.3523245      914.47548      687.63472      762.24078    
     22000   22000          318.12743     -342.28264     -291.08134      23.177931      4683.5422     -4660.3643      1837.2336      2819.8441     -2805.773       23.383883     -1271.8145     -2189.9292     -3073.3092     -375.08949      62954.58       39.781007      39.781007      39.781007      1.3523245      1197.7076     -647.44725     -1577.1083    
     23000   23000          309.77786     -368.54918     -447.03104     -108.65572      4560.6181     -4669.2738      1818.8519      2827.8081     -2807.5007      23.429781     -1256.2759     -2197.7624     -3077.8245     -375.08949      62954.58       39.781007      39.781007      39.781007      1.3523245     -231.7887      -98.897735     -774.96112    
     24000   24000          315.72186      1179.9418      1195.9946      112.65696      4648.127      -4535.47        1815.4536      2917.9063     -2801.5115      23.960712     -1233.2148     -2185.286      -3072.7783     -375.08949      62954.58       39.781007      39.781007      39.781007      1.3523245      84.423888      1520.467       1934.9346    
     25000   25000          316.57147     -409.65177     -213.62858      162.48417      4660.635      -4498.1509      1917.014       2902.587      -2801.3331      24.069298     -1281.7587     -2184.4856     -3074.2437     -375.08949      62954.58       39.781007      39.781007      39.781007      1.3523245      1122.8266     -467.77781     -1884.0041    
     26000   26000          318.35236      894.63486      986.46539      165.07609      4686.8538     -4521.7777      1885.3485      2839.5199     -2802.3698      22.662585     -1217.8335     -2177.6502     -3071.4552     -375.08949      62954.58       39.781007      39.781007      39.781007      1.3523245      948.40887      1131.8856      603.61015    
     27000   27000          313.17346     -1109.8591     -994.67736      24.315329      4610.6088     -4586.2935      1851.0871      2876.6082     -2782.7077      24.657481     -1306.1967     -2177.4416     -3072.3003     -375.08949      62954.58       39.781007      39.781007      39.781007      1.3523245     -1285.0868     -1611.6877     -432.80279    
     28000   28000          315.7679       899.94313      954.8375       128.57453      4648.8047     -4520.2302      1847.787       2948.3624     -2818.2004      24.040465     -1260.335      -2183.5663     -3078.3183     -375.08949      62954.58       39.781007      39.781007      39.781007      1.3523245      1203.5061      1105.3772      390.94608    
     29000   29000          315.05948      723.27075      873.92522      209.87011      4638.3752     -4428.5051      1912.8756      2918.0347     -2778.4411      23.00116      -1243.6954     -2185.7299     -3074.5501     -375.08949      62954.58       39.781007      39.781007      39.781007      1.3523245     -389.97405      744.67181      1815.1145    
     30000   30000          320.75379     -330.63274     -106.61095      196.95222      4722.2081     -4525.2559      1873.8011      2908.5909     -2816.0432      24.386544     -1259.1427     -2185.1293     -3071.7193     -375.08949      62954.58       39.781007      39.781007      39.781007      1.3523245     -1154.5473     -801.62211      964.27118    
     31000   31000          322.6658       984.79056      1136.8344      232.67066      4750.3572     -4517.6865      1877.8377      2871.1544     -2800.3928      24.667326     -1235.3376     -2188.6025     -3067.013      -375.08949      62954.58       39.781007      39.781007      39.781007      1.3523245      836.35738     -758.19568      2876.21      
     32000   32000          323.37576     -140.8015       80.100367      209.37416      4760.8094     -4551.4352      1861.2591      2886.9337     -2795.8853      23.944807     -1259.5061     -2191.2795     -3076.9019     -375.08949      62954.58       39.781007      39.781007      39.781007      1.3523245     -371.75412     -522.56344      471.91306    
     33000   33000          320.27017      1686.9792      1654.9993      106.13649      4715.0882     -4608.9517      1773.9072      2903.5155     -2800.047       24.149835     -1246.1555     -2190.7581     -3073.5638     -375.08949      62954.58       39.781007      39.781007      39.781007      1.3523245      2305.9646      1854.3056      900.66736    
     34000   34000          322.33324      1209.2937      1442.2546      331.96825      4745.4612     -4413.4929      1846.323       2954.0077     -2783.0951      24.047135     -1198.2969     -2186.2507     -3070.2281     -375.08949      62954.58       39.781007      39.781007      39.781007      1.3523245     -328.8659       2719.3872      1237.3597    
     35000   35000          318.32561      160.43422      366.75555      219.4564       4686.4599     -4467.0035      1841.5383      2946.0121     -2789.79        24.541953     -1255.7667     -2165.5962     -3067.9429     -375.08949      62954.58       39.781007      39.781007      39.781007      1.3523245     -1841.4034      1262.3113      1060.3948    
     36000   36000          329.62829      467.45168      845.73278      416.55231      4852.8605     -4436.3082      1842.9774      2972.9238     -2788.1022      23.610668     -1230.2683     -2185.1386     -3072.311      -375.08949      62954.58       39.781007      39.781007      39.781007      1.3523245      437.22588      941.49332      23.635835    
     37000   37000          316.76693     -344.27531     -102.68061      213.40819      4663.5127     -4450.1045      1876.6452      2908.2049     -2770.7951      23.055352     -1241.9467     -2174.6424     -3070.6258     -375.08949      62954.58       39.781007      39.781007      39.781007      1.3523245     -659.4453       404.16422     -777.54486    
     38000   38000          330.57034      907.72643      1133.945       300.53598      4866.7296     -4566.1936      1823.2138      2881.87       -2805.3325      23.955392     -1233.4233     -2182.4488     -3074.0281     -375.08949      62954.58       39.781007      39.781007      39.781007      1.3523245      784.96002      227.96417      1710.2551    
     39000   39000          330.10777      749.59527      1173.3753      485.15092      4859.9195     -4374.7685      1885.7274      2954.0928     -2760.0243      23.461923     -1225.1712     -2177.6785     -3075.1767     -375.08949      62954.58       39.781007      39.781007      39.781007      1.3523245     -324.78971      2222.3214      351.25416    
     40000   40000          331.12878      1789.6148      2028.2275      385.13213      4874.951      -4489.8189      1828.403       2914.5909     -2784.0798      23.722025     -1218.4045     -2181.7891     -3072.2615     -375.08949      62954.58       39.781007      39.781007      39.781007      1.3523245      1613.3633      3640.7056      114.77542    
     41000   41000          326.58563      973.68144      1249.1488      355.18462      4808.0657     -4452.8811      1845.0191      2902.4536     -2786.3993      22.847244     -1164.3881     -2196.5032     -3075.9105     -375.08949      62954.58       39.781007      39.781007      39.781007      1.3523245     -1027.7574      2438.4706      1510.3311    
     42000   42000          330.01157      805.78834      1141.4325      401.61567      4858.5032     -4456.8875      1891.8131      2864.3344     -2776.4975      23.878313     -1202.728      -2185.5476     -3072.1403     -375.08949      62954.58       39.781007      39.781007      39.781007      1.3523245     -973.2047       1299.5951      2090.9746    
     43000   43000          326.2142       624.35274      917.76116      344.52544      4802.5975     -4458.0721      1875.6058      2914.8728     -2779.5972      23.571986     -1225.157      -2189.6047     -3077.7638     -375.08949      62954.58       39.781007      39.781007      39.781007      1.3523245      1301.1611     -113.59195      685.48907    
     44000   44000          328.5774       1406.5262      1691.1571      399.78607      4837.3891     -4437.603       1870.623       2957.3442     -2812.726       23.744295     -1219.9264     -2181.6383     -3075.0239     -375.08949      62954.58       39.781007      39.781007      39.781007      1.3523245      1236.3803      1091.8248      1891.3735    
     45000   45000          325.70172      1759.4297      2011.8245      396.44284      4795.0527     -4398.6099      1876.5698      3013.5887     -2822.6108      23.753497     -1221.3915     -2194.7843     -3073.7353     -375.08949      62954.58       39.781007      39.781007      39.781007      1.3523245      1934.1029      1904.5785      1439.6079    
     46000   46000          331.29739      712.07767      1187.7044      533.92599      4877.4334     -4343.5074      1907.3098      3028.142      -2791.9305      24.693173     -1236.2941     -2199.2705     -3076.1573     -375.08949      62954.58       39.781007      39.781007      39.781007      1.3523245      354.80233      818.70078      962.72992    
     47000   47000          329.56993      1128.8836      1498.258       461.79836      4852.0012     -4390.2029      1919.4574      2961.181      -2794.1237      25.266231     -1255.4425     -2177.6851     -3068.8562     -375.08949      62954.58       39.781007      39.781007      39.781007      1.3523245      1428.0979      856.77734      1101.7757    
     48000   48000          338.82146      1169.5505      1716.1731      642.37608      4988.2044     -4345.8283      1907.9507      3028.0193     -2821.4125      24.865005     -1236.8595     -2177.3421     -3071.0492     -375.08949      62954.58       39.781007      39.781007      39.781007      1.3523245      836.83046      2329.6772      342.14382    
     49000   49000          336.65211      1575.2248      2178.0449      731.78691      4956.2666     -4224.4797      1985.8286      3001.6705     -2779.0312      23.995733     -1194.567      -2187.8307     -3074.5457     -375.08949      62954.58       39.781007      39.781007      39.781007      1.3523245      3596.0783      512.66784      616.92829    
     50000   50000          335.05296      1458.506       2001.4247      662.3295       4932.7237     -4270.3942      1956.351       3019.6464     -2777.9089      23.771159     -1225.8769     -2191.6833     -3074.6937     -375.08949      62954.58       39.781007      39.781007      39.781007      1.3523245      3375.2933     -96.745864      1096.9705    
     51000   51000          334.17333      654.1732       1102.3863      501.77159      4919.7736     -4418.002       1910.6128      2943.9895     -2822.4216      24.217838     -1212.854      -2187.1702     -3074.3764     -375.08949      62954.58       39.781007      39.781007      39.781007      1.3523245      187.20734      2247.2649     -471.95261    
     52000   52000          335.89834      752.42924      1304.242       613.41562      4945.1696     -4331.754       1939.5149      3013.3043     -2827.4139      25.189534     -1218.4956     -2193.3478     -3070.5054     -375.08949      62954.58       39.781007      39.781007      39.781007      1.3523245      856.91426      1030.0317      370.34179    
     53000   53000          336.09839      1447.4093      1838.9839      510.07692      4948.1148     -4438.0379      1826.9209      2992.9972     -2802.3777      23.602061     -1231.2654     -2181.1879     -3066.7269     -375.08949      62954.58       39.781007      39.781007      39.781007      1.3523245      2102.7457      990.93182      1248.5502    
     54000   54000          339.34153      1563.097       2098.9912      663.86815      4995.861      -4331.9929      1940.728       3006.6191     -2827.4257      23.747727     -1215.346      -2189.0958     -3071.2202     -375.08949      62954.58       39.781007      39.781007      39.781007      1.3523245      1511.534       1703.6245      1474.1324    
     55000   55000          332.72555      1948.6871      2340.0918      550.94767      4898.4591     -4347.5114      1927.4444      2989.7661     -2801.3425      24.192872     -1214.9127     -2196.2375     -3076.4221     -375.08949      62954.58       39.781007      39.781007      39.781007      1.3523245      1681.636       2214.2823      1950.1428    
     56000   56000          333.57557      1519.6728      2001.4601      606.20597      4910.9732     -4304.7672      1923.9358      3004.5565     -2780.3398      23.741447     -1214.9035     -2183.6391     -3078.1186     -375.08949      62954.58       39.781007      39.781007      39.781007      1.3523245      1430.9635      550.00497      2578.0498    
     57000   57000          336.17021      726.42934      1413.4853      746.53023      4949.1721     -4202.6419      1936.0785      3183.3855     -2834.2092      27.013305     -1249.0962     -2187.6116     -3078.2023     -375.08949      62954.58       39.781007      39.781007      39.781007      1.3523245      591.77228      1112.8355      474.68027    
     58000   58000          333.87174     -892.00604     -220.32508      598.65062      4915.3335     -4316.6828      1962.6037      3035.2832     -2801.5705      25.231151     -1274.1379     -2187.6655     -3076.4269     -375.08949      62954.58       39.781007      39.781007      39.781007      1.3523245     -1273.7051     -200.16685     -1202.1462    
     59000   59000          336.86109      86.380778      823.75334      744.44473      4959.3433     -4214.8986      2003.0274      3044.0741     -2797.9738      25.206897     -1227.865      -2184.7583     -3076.6099     -375.08949      62954.58       39.781007      39.781007      39.781007      1.3523245      414.62982     -967.35789      811.8704     
     60000   60000          340.75895      1133.3898      1851.0333      810.43639      5016.7285     -4206.2921      1961.6877      3075.0782     -2786.6456      23.814154     -1239.7149     -2170.9903     -3069.5214     -375.08949      62954.58       39.781007      39.781007      39.781007      1.3523245      1555.566       960.90211      883.70119    
     61000   61000          340.2287       1045.0698      1746.4818      786.97402      5008.9221     -4221.948       1977.6169      3062.3365     -2795.9981      24.878909     -1230.1232     -2182.8953     -3077.7638     -375.08949      62954.58       39.781007      39.781007      39.781007      1.3523245      836.9066       1083.7558      1214.5469    
     62000   62000          345.86         1583.4604      2350.0003      896.18101      5091.8273     -4195.6463      1995.4083      3034.987      -2809.1502      25.088491     -1178.1056     -2189.5095     -3074.3647     -375.08949      62954.58       39.781007      39.781007      39.781007      1.3523245      140.22401      2726.1066      1884.0506    
     63000   63000          343.77682      919.30919      1595.8125      751.76905      5061.1583     -4309.3892      1943.8211      3020.1161     -2810.1155      25.332311     -1240.9009     -2174.8417     -3072.8006     -375.08949      62954.58       39.781007      39.781007      39.781007      1.3523245      924.11887      698.65354      1135.1552    
     64000   64000          342.1079       1922.3994      2559.0162      794.0075       5036.588      -4242.5805      1937.3698      3122.7352     -2824.6793      25.775466     -1243.9369     -2188.2466     -3071.5982     -375.08949      62954.58       39.781007      39.781007      39.781007      1.3523245      2270.6422      2873.8403      622.71571    
     65000   65000          340.49936      337.51397      1189.571       879.68998      5012.9068     -4133.2168      2069.6848      3062.2286     -2786.902       24.227538     -1239.5879     -2186.5653     -3076.3025     -375.08949      62954.58       39.781007      39.781007      39.781007      1.3523245     -516.26912      1961.8906     -433.07958    
     66000   66000          340.05916     -245.65565      618.06896      843.61229      5006.4261     -4162.8138      2057.4149      3060.8706     -2781.5648      25.148731     -1255.3444     -2193.6411     -3075.6977     -375.08949      62954.58       39.781007      39.781007      39.781007      1.3523245      355.45198      709.06483     -1801.4838    
     67000   67000          344.49118      1239.6197      1942.523       804.39346      5071.6753     -4267.2818      1985.8159      3020.5919     -2793.7771      23.547699     -1231.5239     -2196.8112     -3075.1251     -375.08949      62954.58       39.781007      39.781007      39.781007      1.3523245      2337.9775      1436.9656     -56.083975    
     68000   68000          341.08        -252.34238      682.4381       914.1207       5021.4551     -4107.3344      1983.597       3123.7986     -2767.0176      22.908832     -1209.3144     -2188.9513     -3072.3556     -375.08949      62954.58       39.781007      39.781007      39.781007      1.3523245      1110.061       137.63506     -2004.7232    
     69000   69000          342.94736     -33.653193      984.85588      1015.7538      5048.9468     -4033.1929      2130.7593      3046.5522     -2766.1767      23.588312     -1202.6418     -2189.9259     -3075.3485     -375.08949      62954.58       39.781007      39.781007      39.781007      1.3523245     -786.79513     -41.732443      727.568      
     70000   70000          345.71226      749.81682      1625.4976      937.06983      5089.6522     -4152.5824      2033.2385      3062.8091     -2779.2219      23.784212     -1235.3103     -2184.3312     -3073.5507     -375.08949      62954.58       39.781007      39.781007      39.781007      1.3523245      854.56516      141.74673      1253.1386    
     71000   71000          343.79243      1044.7161      1922.7448      963.56171      5061.3881     -4097.8264      2024.6754      3062.4655     -2778.9973      24.052474     -1160.9948     -2190.6743     -3078.3533     -375.08949      62954.58       39.781007      39.781007      39.781007      1.3523245      1608.3746     -28.174358      1553.9481    
     72000   72000          352.10351      676.31364      1586.748       965.80548      5183.7457     -4217.9402      1985.3596      2999.8763     -2750.7221      23.049238     -1228.4563     -2176.4891     -3070.5578     -375.08949      62954.58       39.781007      39.781007      39.781007      1.3523245      2785.9905      521.44865     -1278.4982    
     73000   73000          350.75172     -10.361406      1081.9966      1091.5097      5163.8443     -4072.3346      2026.4696      3139.4091     -2789.7637      25.38169      -1228.7873     -2177.3482     -3067.6959     -375.08949      62954.58       39.781007      39.781007      39.781007      1.3523245     -368.72459     -886.85636      1224.4967    
     74000   74000          344.53092      765.83736      1704.4793      1001.3426      5072.2603     -4070.9176      1966.3654      3108.7657     -2757.243       24.409541     -1166.7717     -2174.7812     -3071.6623     -375.08949      62954.58       39.781007      39.781007      39.781007      1.3523245      1102.1505     -598.32989      1793.6915    
     75000   75000          342.72373      508.06394      1457.9843      991.51658      5045.6545     -4054.1379      2040.1706      3131.0985     -2798.6231      25.154415     -1194.0089     -2181.0594     -3076.8699     -375.08949      62954.58       39.781007      39.781007      39.781007      1.3523245      878.52752      681.1826      -35.518286    
     76000   76000          353.78678      879.52946      1972.7499      1165.2293      5208.5271     -4043.2978      2062.649       3102.7352     -2800.9724      25.005378     -1186.3422     -2177.6235     -3068.7492     -375.08949      62954.58       39.781007      39.781007      39.781007      1.3523245      582.16091      1056.6205      999.80702    
     77000   77000          345.02103      840.63358      1764.3185      992.50928      5079.4758     -4086.9665      1997.9102      3041.958      -2793.4757      22.855014     -1105.3221     -2181.2117     -3069.6803     -375.08949      62954.58       39.781007      39.781007      39.781007      1.3523245      779.81873      1977.4849     -235.40285    
     78000   78000          346.65118      393.43273      1416.1764      1054.9548      5103.4752     -4048.5204      2013.0591      3131.0872     -2775.1052      24.889388     -1181.3847     -2184.398      -3076.6682     -375.08949      62954.58       39.781007      39.781007      39.781007      1.3523245     -719.99131      989.25514      911.03436    
     79000   79000          349.09344     -686.1778       437.50633      1067.5054      5139.4308     -4071.9254      2072.1575      3090.8662     -2778.0959      25.146296     -1222.0081     -2183.6132     -3076.3782     -375.08949      62954.58       39.781007      39.781007      39.781007      1.3523245      160.33603     -595.36003     -1623.5094    
     80000   80000          359.62653      646.68719      1946.8861      1353.1445      5294.5012     -3941.3567      2113.8042      3146.4488     -2783.4082      24.913686     -1187.1092     -2182.4979     -3073.5082     -375.08949      62954.58       39.781007      39.781007      39.781007      1.3523245      1364.7868      874.74566     -299.47087    
     81000   81000          352.32257      2688.9526      3636.7223      1167.9197      5186.9707     -4019.0511      1994.1533      3155.4517     -2797.074       23.945804     -1143.3347     -2178.517      -3073.6762     -375.08949      62954.58       39.781007      39.781007      39.781007      1.3523245      2088.9703      2571.3506      3406.537     
     82000   82000          347.3279       1218.9884      2248.5913      1129.4039      5113.4381     -3984.0342      2017.0205      3146.9664     -2764.3713      24.640543     -1151.6388     -2183.4168     -3073.2348     -375.08949      62954.58       39.781007      39.781007      39.781007      1.3523245      1366.6379      276.14036      2014.1869    
     83000   83000          356.54679      819.196        2058.2306      1306.1038      5249.1606     -3943.0568      2073.7153      3168.686      -2780.335       25.03182      -1173.8733     -2181.8278     -3074.4538     -375.08949      62954.58       39.781007      39.781007      39.781007      1.3523245     -136.83085      2456.5848      137.83406    
     84000   84000          351.12504      234.99804      1586.9456      1371.1873      5169.3404     -3798.1531      2088.7728      3268.4607     -2760.3315      25.698112     -1184.9328     -2167.7438     -3068.0767     -375.08949      62954.58       39.781007      39.781007      39.781007      1.3523245     -2101.4527      2623.9565      182.49034    
     85000   85000          359.30371      787.48301      2039.7875      1316.7773      5289.7485     -3972.9712      2016.7616      3209.702      -2766.1911      24.199315     -1205.2789     -2182.1827     -3069.9814     -375.08949      62954.58       39.781007      39.781007      39.781007      1.3523245      875.57572     -242.91874      1729.792     
     86000   86000          360.79047      302.0663       1635.732       1358.3965      5311.637      -3953.2406      2041.1445      3155.2809     -2757.9924      25.101425     -1162.9409     -2180.6546     -3073.1796     -375.08949      62954.58       39.781007      39.781007      39.781007      1.3523245      877.89014     -271.93007      300.23883    
     87000   87000          355.72639      1224.3573      2517.4949      1393.3782      5237.0825     -3843.7043      2114.0133      3194.5571     -2763.2871      25.237603     -1157.7583     -2182.1622     -3074.3046     -375.08949      62954.58       39.781007      39.781007      39.781007      1.3523245      2382.6976      80.157548      1210.2167    
     88000   88000          360.77772      1404.6386      2627.2672      1337.6293      5311.4493     -3973.82        2096.2213      3120.2813     -2781.7357      24.475197     -1182.2871     -2177.5504     -3073.2245     -375.08949      62954.58       39.781007      39.781007      39.781007      1.3523245      1566.2288      1913.3631      734.32379    
     89000   89000          357.22321      1543.0447      2865.3953      1448.6828      5259.119      -3810.4362      2130.7693      3186.8125     -2771.3263      24.433691     -1136.3707     -2177.1009     -3067.6538     -375.08949      62954.58       39.781007      39.781007      39.781007      1.3523245      2254.8826      707.63424      1666.6174    
     90000   90000          360.85345      1442.5442      2698.3811      1373.9409      5312.5641     -3938.6232      2069.5322      3166.9977     -2785.8862      24.439619     -1148.1098     -2194.3643     -3071.2324     -375.08949      62954.58       39.781007      39.781007      39.781007      1.3523245      2279.8305      1366.2327      681.56931    
     91000   91000          359.85846      55.189466      1355.0588      1304.3878      5297.9157     -3993.5279      2083.5106      3124.5361     -2774.4073      24.565377     -1197.5639     -2181.419      -3072.7496     -375.08949      62954.58       39.781007      39.781007      39.781007      1.3523245      799.78114      295.8548      -930.06755    
     92000   92000          356.13876      1294.4791      2518.8147      1330.3172      5243.1535     -3912.8363      2025.6617      3279.9991     -2789.364       25.958887     -1212.9742     -2175.3438     -3066.774      -375.08949      62954.58       39.781007      39.781007      39.781007      1.3523245      181.52221      1919.7363      1782.1789    
     93000   93000          365.19306      1516.0478      2851.7213      1459.7955      5376.4529     -3916.6574      2017.7827      3203.3257     -2780.5393      25.211967     -1142.966      -2175.4745     -3063.998      -375.08949      62954.58       39.781007      39.781007      39.781007      1.3523245      783.43321      1055.2012      2709.5088    
     94000   94000          355.36091      1932.273       3137.8413      1363.7674      5231.7018     -3867.9344      2137.8834      3151.5811     -2771.6436      24.071093     -1168.3291     -2173.7543     -3067.7431     -375.08949      62954.58       39.781007      39.781007      39.781007      1.3523245      1072.8563      1315.1055      3408.8572    
     95000   95000          365.09751      301.52373      1809.2733      1532.4359      5375.0461     -3842.6102      2134.9447      3208.4708     -2798.3637      26.075005     -1175.8318     -2172.074      -3065.8312     -375.08949      62954.58       39.781007      39.781007      39.781007      1.3523245      822.49505      528.83469     -446.75854    
     96000   96000          359.40112      878.23869      2156.4051      1350.0696      5291.1827     -3941.1132      2046.1275      3186.8082     -2778.5754      24.905384     -1186.8682     -2169.5995     -3063.9112     -375.08949      62954.58       39.781007      39.781007      39.781007      1.3523245     -144.16632      1838.3865      940.49588    
     97000   97000          361.46652      385.01391      1911.2393      1557.7473      5321.59       -3763.8427      2106.2016      3274.3703     -2767.0431      25.100825     -1149.4556     -2181.5914     -3071.4253     -375.08949      62954.58       39.781007      39.781007      39.781007      1.3523245     -605.89232     -155.36346      1916.2975    
     98000   98000          356.16164      925.93234      2233.9745      1383.8501      5243.4904     -3859.6402      2075.0661      3197.4495     -2773.8623      23.345494     -1127.1748     -2186.9601     -3067.5042     -375.08949      62954.58       39.781007      39.781007      39.781007      1.3523245      1384.4428      982.96359      410.39064    
     99000   99000          366.41174      749.75694      2227.2285      1538.8557      5394.3946     -3855.539       2154.7085      3181.0843     -2764.5602      24.577709     -1209.153      -2175.6974     -3066.499      -375.08949      62954.58       39.781007      39.781007      39.781007      1.3523245      503.5381       1846.3333     -100.60059    
    100000   100000         365.82714      476.13995      1987.7475      1550.5901      5385.788      -3835.1979      2110.3858      3229.0435     -2747.9012      25.066905     -1203.9391     -2178.777      -3069.0767     -375.08949      62954.58       39.781007      39.781007      39.781007      1.3523245      1377.3154      250.9463      -199.84184    
    101000   101000         357.98758      624.01137      2026.6725      1453.7502      5270.3722     -3816.622       2156.6045      3154.2799     -2748.3656      23.81315      -1155.9621     -2176.3563     -3070.6355     -375.08949      62954.58       39.781007      39.781007      39.781007      1.3523245      926.08821      411.33671      534.6092     
    102000   102000         367.40521      200.01354      1789.8292      1606.1911      5409.0207     -3802.8296      2093.8115      3258.1026     -2736.8048      24.04679      -1190.5119     -2179.8305     -3071.6432     -375.08949      62954.58       39.781007      39.781007      39.781007      1.3523245      145.81536     -623.99017      1078.2154    
    103000   103000         373.31462      1088.6181      2759.4041      1759.9134      5496.0203     -3736.1069      2141.5022      3288.3318     -2765.3742      24.116432     -1172.9484     -2181.247      -3070.4877     -375.08949      62954.58       39.781007      39.781007      39.781007      1.3523245      775.87115      1545.2528      944.73027    
    104000   104000         368.22805      316.29564      1885.5551      1595.1552      5421.1347     -3825.9796      2083.7123      3295.6402     -2762.3767      24.376447     -1211.8712     -2181.4541     -3074.0066     -375.08949      62954.58       39.781007      39.781007      39.781007      1.3523245     -480.66045     -51.135897      1480.6833    
    105000   105000         375.20911      495.39205      2204.3775      1749.5442      5523.9114     -3774.3672      2123.8546      3291.6905     -2770.1434      25.17805      -1201.5273     -2174.2324     -3069.1873     -375.08949      62954.58       39.781007      39.781007      39.781007      1.3523245      1118.1293      98.958309      269.08859    
    106000   106000         369.33893      289.03437      1987.911       1722.5404      5437.4893     -3714.9488      2184.0226      3265.8627     -2782.1911      25.555581     -1137.7339     -2193.809      -3076.6555     -375.08949      62954.58       39.781007      39.781007      39.781007      1.3523245      1270.5544      214.62231     -618.07356    
    107000   107000         368.94283      496.79949      2102.0674      1645.9419      5431.6579     -3785.716       2122.5856      3226.7969     -2747.0028      24.033844     -1148.0186     -2190.4767     -3073.6342     -375.08949      62954.58       39.781007      39.781007      39.781007      1.3523245      1647.6854     -936.59626      779.30928    
    108000   108000         371.2168       2141.4292      3781.1703      1815.0642      5465.1357     -3650.0715      2176.6445      3232.4832     -2747.748       21.521162     -1060.8971     -2196.2731     -3075.8022     -375.08949      62954.58       39.781007      39.781007      39.781007      1.3523245      2280.1213      817.63753      3326.5287    
    109000   109000         371.6734       1867.2834      3412.9727      1698.5675      5471.8578     -3773.2903      2088.4024      3273.3854     -2776.4273      25.420248     -1125.478      -2184.9135     -3073.6796     -375.08949      62954.58       39.781007      39.781007      39.781007      1.3523245      1868.0495      869.97811      2863.8227    
    110000   110000         374.67703      705.56597      2585.4588      1937.6589      5516.0781     -3578.4191      2229.6337      3289.7721     -2762.433       24.405295     -1120.5473     -2171.4356     -3067.8142     -375.08949      62954.58       39.781007      39.781007      39.781007      1.3523245     -53.084634     -360.57831      2530.3608    
    111000   111000         378.26519      1121.5385      2849.1424      1819.4265      5568.9037     -3749.4773      2115.684       3253.1653     -2734.3261      23.775555     -1155.4783     -2185.3908     -3066.9069     -375.08949      62954.58       39.781007      39.781007      39.781007      1.3523245      3051.3544      880.07211     -566.81099    
    112000   112000         371.02109      1002.0131      2704.9942      1785.018       5462.2544     -3677.2364      2121.6627      3284.7788     -2725.2748      25.21346      -1128.8898     -2185.7299     -3068.9968     -375.08949      62954.58       39.781007      39.781007      39.781007      1.3523245      934.97349      2023.3186      47.747262    
    113000   113000         372.04364      707.22885      2355.3129      1705.9863      5477.3087     -3771.3224      2167.9262      3210.4138     -2769.6161      25.670175     -1172.279      -2173.0657     -3060.3717     -375.08949      62954.58       39.781007      39.781007      39.781007      1.3523245      2395.8664     -578.7067       304.52687    
    114000   114000         372.89771      887.98333      2699.1595      1883.8772      5489.8824     -3606.0052      2234.4811      3269.7507     -2729.7824      24.161149     -1141.3229     -2190.771      -3072.5218     -375.08949      62954.58       39.781007      39.781007      39.781007      1.3523245      1240.6027      1028.4462      394.90113    
    115000   115000         379.26044      1669.9677      3294.6282      1761.3842      5583.556      -3822.1718      2108.0812      3186.0795     -2743.3757      23.327055     -1150.6374     -2177.2663     -3068.3801     -375.08949      62954.58       39.781007      39.781007      39.781007      1.3523245      1514.493       2044.0041      1451.406     
    116000   116000         380.73252      1147.2875      2970.3826      1917.0259      5605.2282     -3688.2023      2114.8435      3257.5338     -2745.7156      24.344998     -1091.9111     -2180.4249     -3066.8731     -375.08949      62954.58       39.781007      39.781007      39.781007      1.3523245      1429.6275      1785.635       226.59993    
    117000   117000         378.8393       461.39964      2309.8228      1886.1989      5577.3559     -3691.157       2148.9645      3277.9792     -2764.0575      25.165825     -1132.627      -2178.8791     -3067.703      -375.08949      62954.58       39.781007      39.781007      39.781007      1.3523245     -781.68953      275.97785      1889.9106    
    118000   118000         383.91231     -633.05974      1414.4333      1995.6631      5652.0417     -3656.3786      2163.0441      3265.0015     -2734.8654      24.160919     -1123.6166     -2183.6444     -3066.4587     -375.08949      62954.58       39.781007      39.781007      39.781007      1.3523245     -319.28856     -1535.2678     -44.62281     
    119000   119000         377.3935       1416.8199      3122.8915      1822.0696      5556.0705     -3734.001       2144.2277      3256.534      -2758.1017      24.824019     -1155.7849     -2175.1156     -3070.5845     -375.08949      62954.58       39.781007      39.781007      39.781007      1.3523245      1053.3414      1384.6482      1812.47      
    120000   120000         384.7831       1452.3257      3356.3152      2022.8943      5664.8617     -3641.9674      2204.9557      3291.4368     -2771.0544      24.275615     -1145.292      -2180.1395     -3066.1496     -375.08949      62954.58       39.781007      39.781007      39.781007      1.3523245      1363.6801      2228.1368      765.16019    
    121000   121000         386.13223      1721.7523      3722.656       2141.8671      5684.724      -3542.8569      2190.7114      3379.7619     -2742.0466      25.287053     -1143.5306     -2179.9231     -3073.1169     -375.08949      62954.58       39.781007      39.781007      39.781007      1.3523245      1965.8006      2540.3774      659.07873    
    122000   122000         380.26781      906.33388      2753.4483      1921.3178      5598.3867     -3677.0688      2173.0898      3279.0369     -2747.3681      24.805379     -1167.8906     -2169.6437     -3069.0985     -375.08949      62954.58       39.781007      39.781007      39.781007      1.3523245      919.1441       1030.2697      769.58785    
    123000   123000         388.95239      1326.6014      3413.7718      2195.7819      5726.2429     -3530.461       2248.527       3321.4444     -2773.497       24.176222     -1104.9277     -2178.7207     -3067.4632     -375.08949      62954.58       39.781007      39.781007      39.781007      1.3523245      957.23088      773.29832      2249.275     
    124000   124000         381.87069      184.20464      2246.7871      2077.6636      5621.9847     -3544.321       2210.6085      3326.8946     -2743.3375      23.239725     -1103.1538     -2188.0818     -3070.4907     -375.08949      62954.58       39.781007      39.781007      39.781007      1.3523245      1399.0016      576.75928     -1423.147     
    125000   125000         384.11023      1021.6309      3064.6643      2126.6764      5654.9557     -3528.2793      2229.5098      3410.6524     -2768.8319      26.235987     -1174.7643     -2178.6695     -3072.4118     -375.08949      62954.58       39.781007      39.781007      39.781007      1.3523245      441.42604      1534.3547      1089.1119    
    126000   126000         382.93449      743.09407      2689.49        2007.2346      5637.6461     -3630.4115      2189.9313      3325.5182     -2770.8889      24.605683     -1141.2109     -2186.9842     -3071.3826     -375.08949      62954.58       39.781007      39.781007      39.781007      1.3523245      564.8162       868.7343       795.73171    
    127000   127000         386.08404      392.19068      2495.4605      2135.3793      5684.0145     -3548.6352      2223.9129      3315.0622     -2721.6185      23.986056     -1131.7345     -2186.9178     -3071.3255     -375.08949      62954.58       39.781007      39.781007      39.781007      1.3523245     -670.22472      1224.0952      622.70156    
    128000   128000         382.69412      1869.9615      3779.9519      2063.088       5634.1073     -3571.0193      2235.8665      3277.7808     -2762.0005      24.746202     -1086.1295     -2188.7422     -3072.5407     -375.08949      62954.58       39.781007      39.781007      39.781007      1.3523245      2708.7544      1400.6969      1500.4331    
    129000   129000         388.50278      1250.0678      3309.0061      2161.2839      5719.6237     -3558.3398      2162.6054      3376.2279     -2741.6269      24.771307     -1122.1962     -2185.7401     -3072.3812     -375.08949      62954.58       39.781007      39.781007      39.781007      1.3523245      1585.6435      944.35084      1220.2091    
    130000   130000         386.01604      911.85043      2948.6391      2111.4437      5683.0134     -3571.5696      2256.7062      3292.191      -2772.3453      24.178665     -1113.3954     -2184.5396     -3074.3651     -375.08949      62954.58       39.781007      39.781007      39.781007      1.3523245     -59.827263      1249.9243      1545.4542    
    131000   131000         384.28999      1634.2601      3560.6391      2060.1791      5657.6021     -3597.423       2208.8087      3288.2765     -2758.9987      24.773626     -1109.4299     -2181.9101     -3068.9432     -375.08949      62954.58       39.781007      39.781007      39.781007      1.3523245      2828.6114      1697.9665      376.20237    
    132000   132000         385.27536      2026.4474      4179.8011      2319.263       5672.109      -3352.8459      2281.6559      3427.7045     -2758.7551      23.75981      -1074.7467     -2182.6473     -3069.8171     -375.08949      62954.58       39.781007      39.781007      39.781007      1.3523245      1796.4478      1570.206       2712.6883    
    133000   133000         398.48528      1255.395       3420.702       2268.0887      5866.5883     -3598.4996      2226.5517      3295.1835     -2745.7179      25.643568     -1163.6719     -2172.731      -3063.7576     -375.08949      62954.58       39.781007      39.781007      39.781007      1.3523245      260.97116      3005.5664      499.64753    
    134000   134000         384.52743      1325.5028      3450.8411      2233.8599      5661.0978     -3427.2379      2228.9442      3411.9104     -2763.8016      25.073581     -1084.7492     -2178.1817     -3066.4337     -375.08949      62954.58       39.781007      39.781007      39.781007      1.3523245      2902.5432     -21.854242      1095.8195    
    135000   135000         394.81609      2583.7494      4712.3256      2340.113       5812.5697     -3472.4567      2182.8739      3429.0281     -2742.4224      25.654959     -1118.0991     -2185.4475     -3064.0446     -375.08949      62954.58       39.781007      39.781007      39.781007      1.3523245      2222.8207      3032.0323      2496.3953    
    136000   136000         390.8515       1107.6149      3345.617       2328.6847      5754.2021     -3425.5174      2296.3549      3354.3391     -2745.2807      24.511942     -1109.5906     -2177.7175     -3068.1346     -375.08949      62954.58       39.781007      39.781007      39.781007      1.3523245      1706.1037     -439.19831      2055.9395    
    137000   137000         394.51327      1564.3334      3901.6098      2465.3516      5808.1115     -3342.7599      2301.2154      3428.7145     -2729.0498      25.771761     -1115.6101     -2182.7529     -3071.0488     -375.08949      62954.58       39.781007      39.781007      39.781007      1.3523245      2613.7247      1938.0616      141.21378    
    138000   138000         396.15778      1200.0421      3525.5237      2423.7315      5832.3224     -3408.5909      2287.9244      3386.7262     -2758.8127      25.932947     -1105.0317     -2178.0776     -3067.2525     -375.08949      62954.58       39.781007      39.781007      39.781007      1.3523245      1746.6372      1004.7566      848.73234    
    139000   139000         391.22913      570.22184      2804.5296      2280.993       5759.7617     -3478.7687      2236.8522      3388.837      -2749.3028      25.595096     -1141.8239     -2174.0008     -3064.9254     -375.08949      62954.58       39.781007      39.781007      39.781007      1.3523245     -10.146841      442.30712      1278.5052    
    140000   140000         394.22963      2126.3035      4360.2826      2408.0638      5803.9357     -3395.8719      2255.6582      3397.7784     -2763.42        24.392386     -1065.8579     -2179.3211     -3065.1019     -375.08949      62954.58       39.781007      39.781007      39.781007      1.3523245      2383.9472      1838.45        2156.5134    
    141000   141000         394.66133      1158.9963      3638.1413      2574.0344      5810.2912     -3236.2568      2344.5715      3458.0826     -2768.7329      25.221054     -1061.2202     -2171.2832     -3062.8957     -375.08949      62954.58       39.781007      39.781007      39.781007      1.3523245      998.38743      1545.1912      933.41038    
    142000   142000         398.15401      696.58935      3031.2492      2391.6911      5861.7112     -3470.0201      2161.1354      3389.5514     -2724.4605      24.495162     -1087.1814     -2171.075      -3062.4852     -375.08949      62954.58       39.781007      39.781007      39.781007      1.3523245      89.755914     -35.916771      2035.9289    
    143000   143000         391.05181      1296.1027      3622.106       2432.1178      5757.1511     -3325.0333      2351.1253      3392.9369     -2740.2941      25.056958     -1129.042      -2168.7687     -3056.0475     -375.08949      62954.58       39.781007      39.781007      39.781007      1.3523245      657.62609      795.53777      2435.1444    
    144000   144000         394.70198      1513.2093      3906.5776      2517.2578      5810.8897     -3293.6319      2291.6523      3474.2873     -2736.2515      25.778778     -1113.7224     -2169.906      -3065.4703     -375.08949      62954.58       39.781007      39.781007      39.781007      1.3523245      983.72011      2546.4497      1009.458     
    145000   145000         402.08047      1136.8934      3617.9863      2574.1726      5919.5175     -3345.3449      2288.5775      3377.6776     -2745.0415      25.081459     -1056.9445     -2170.6495     -3064.0458     -375.08949      62954.58       39.781007      39.781007      39.781007      1.3523245      732.89234      2028.3092      649.47856    
    146000   146000         397.18065      116.71998      2627.6592      2520.4953      5847.3812     -3326.8858      2320.6213      3394.0375     -2753.882       24.894104     -1077.7836     -2171.796      -3062.9772     -375.08949      62954.58       39.781007      39.781007      39.781007      1.3523245      2012.2978     -347.59367     -1314.5442    
    147000   147000         397.05263      766.36402      3267.8856      2564.2654      5845.4965     -3281.2311      2256.4421      3473.0939     -2736.4783      26.609219     -1068.7518     -2166.7938     -3065.3523     -375.08949      62954.58       39.781007      39.781007      39.781007      1.3523245      717.49567      2133.2713     -551.67489    
    148000   148000         396.12329      2327.6188      4751.5677      2614.5158      5831.8145     -3217.2987      2362.3378      3414.2001     -2756.2744      25.046286     -1033.6713     -2165.442      -3063.4952     -375.08949      62954.58       39.781007      39.781007      39.781007      1.3523245      1534.4929      2287.7855      3160.5779    
    149000   149000         389.42347      1451.2651      3749.3786      2416.9315      5733.1783     -3316.2468      2269.3039      3484.91       -2771.7475      26.89311      -1074.6101     -2186.2277     -3064.7685     -375.08949      62954.58       39.781007      39.781007      39.781007      1.3523245      1824.778       1972.1513      556.86607    
    150000   150000         400.55381      2307.8643      4666.3144      2547.3996      5897.0417     -3349.6421      2231.8076      3413.8061     -2737.6917      26.004014     -1055.974      -2166.8005     -3060.7936     -375.08949      62954.58       39.781007      39.781007      39.781007      1.3523245      3276.5095      2685.1985      961.88506    
    151000   151000         401.89618      452.64209      3159.0621      2743.4787      5916.8043     -3173.3255      2277.7275      3542.1386     -2732.2159      25.695769     -1047.3452     -2171.5291     -3067.7972     -375.08949      62954.58       39.781007      39.781007      39.781007      1.3523245      965.14727      921.74746     -528.96845    
    152000   152000         400.14019      785.64801      3423.9022      2702.5767      5890.9523     -3188.3755      2323.6549      3473.9431     -2746.9309      25.259824     -1032.7995     -2168.5864     -3062.9165     -375.08949      62954.58       39.781007      39.781007      39.781007      1.3523245      610.77084     -169.50741      1915.6806    
    153000   153000         395.2258       484.88226      2962.1557      2516.9717      5818.6014     -3301.6297      2241.2408      3525.1128     -2728.118       27.352264     -1129.6144     -2169.8176     -3067.7855     -375.08949      62954.58       39.781007      39.781007      39.781007      1.3523245      112.71525     -30.99722       1372.9288    
    154000   154000         403.17216      2644.1972      5035.4608      2607.7494      5935.5895     -3327.8401      2259.3036      3400.5606     -2749.8185      24.814751     -1023.7075     -2174.3322     -3064.6609     -375.08949      62954.58       39.781007      39.781007      39.781007      1.3523245      3866.4757      2340.6104      1725.5054    
    155000   155000         412.92419      2551.8965      5173.0869      2830.1192      6079.1611     -3249.0419      2330.0258      3427.7541     -2744.9337      25.739698     -1051.4792     -2171.1033     -3065.0453     -375.08949      62954.58       39.781007      39.781007      39.781007      1.3523245      2209.6022      1807.6026      3638.4849    
    156000   156000         394.86684      744.75734      3173.8593      2490.0767      5813.3168     -3323.2401      2295.596       3476.7802     -2760.4598      25.967119     -1142.5214     -2163.323      -3055.2792     -375.08949      62954.58       39.781007      39.781007      39.781007      1.3523245      1924.0766     -402.29116      712.48664    
    157000   157000         400.96653      244.17064      2862.3837      2638.2038      5903.1179     -3264.9141      2350.3223      3469.9428     -2768.8676      27.968078     -1122.0731     -2160.7356     -3061.471      -375.08949      62954.58       39.781007      39.781007      39.781007      1.3523245      246.8365       324.22068      161.45473    
    158000   158000         397.10024      522.59645      3085.1564      2605.3459      5846.1974     -3240.8515      2366.1603      3430.4311     -2732.6679      25.45272      -1106.2841     -2160.6397     -3063.3038     -375.08949      62954.58       39.781007      39.781007      39.781007      1.3523245      1950.4957     -225.11951     -157.58688    
    159000   159000         407.4846       353.6681       3135.5487      2810.8361      5999.0783     -3188.2422      2298.0849      3534.8322     -2738.3961      24.819792     -1066.6107     -2172.6192     -3068.3531     -375.08949      62954.58       39.781007      39.781007      39.781007      1.3523245     -249.85849      1458.2506     -147.38785    
    160000   160000         406.25509      1617.2194      4162.3327      2677.5184      5980.9771     -3303.4588      2259.0623      3449.6837     -2724.3804      24.283288     -1080.2223     -2165.5149     -3066.3704     -375.08949      62954.58       39.781007      39.781007      39.781007      1.3523245      1685.0644      1287.1413      1879.4525    
    161000   161000         402.58198      155.33953      2943.9184      2801.2968      5926.9008     -3125.604       2403.6698      3465.1923     -2696.0973      25.642655     -1107.3271     -2159.3622     -3057.3221     -375.08949      62954.58       39.781007      39.781007      39.781007      1.3523245      7.3860937      337.90623      120.72625    
    162000   162000         407.2204       1178.4569      3915.2458      2833.2715      5995.1886     -3161.9171      2341.6817      3445.2245     -2710.5256      25.458338     -1033.1202     -2173.8632     -3056.7726     -375.08949      62954.58       39.781007      39.781007      39.781007      1.3523245      2299.1308      1608.6179     -372.37802    
    163000   163000         406.13143      1885.9194      4540.8466      2809.3312      5979.1566     -3169.8253      2331.4075      3468.5721     -2730.0322      24.709834     -1026.8399     -2167.149      -3070.4936     -375.08949      62954.58       39.781007      39.781007      39.781007      1.3523245      1278.4561      1772.6638      2606.6383    
    164000   164000         410.90472     -203.61083      2646.9865      2833.9273      6049.43       -3215.5027      2322.7571      3484.1095     -2726.7454      24.523113     -1109.7464     -2153.3433     -3057.0575     -375.08949      62954.58       39.781007      39.781007      39.781007      1.3523245      437.56449      246.68788     -1295.0849    
    165000   165000         408.75828      566.88955      3286.3924      2765.9152      6017.8297     -3251.9144      2373.4159      3407.1733     -2747.0458      25.734154     -1077.1918     -2170.723      -3063.2773     -375.08949      62954.58       39.781007      39.781007      39.781007      1.3523245      105.8123       888.11414      706.74222    
    166000   166000         413.78349      1725.281       4644.2211      3060.1923      6091.8119     -3031.6196      2445.69        3587.6527     -2751.8333      27.760636     -1106.6771     -2169.5813     -3064.6313     -375.08949      62954.58       39.781007      39.781007      39.781007      1.3523245      2364.8406      3024.2153     -213.21275    
    167000   167000         417.43872      1899.423       4754.9523      3011.0388      6145.625      -3134.5862      2318.1058      3517.9318     -2716.3502      26.374018     -1038.2025     -2179.7534     -3062.6917     -375.08949      62954.58       39.781007      39.781007      39.781007      1.3523245      1976.9074      2022.7046      1698.6571    
    168000   168000         418.83998      1955.1758      4808.943       3013.8414      6166.2547     -3152.4133      2337.7644      3565.6231     -2759.5672      25.778464     -1083.7625     -2169.818      -3068.4315     -375.08949      62954.58       39.781007      39.781007      39.781007      1.3523245      3072.3584      2005.5875      787.58152    
    169000   169000         421.5416       877.88684      3941.8849      3135.8724      6206.0285     -3070.1561      2389.8024      3596.2077     -2739.1914      26.884668     -1118.04       -2162.0128     -3063.8066     -375.08949      62954.58       39.781007      39.781007      39.781007      1.3523245      1847.7904     -112.95019      898.82031    
    170000   170000         414.65792      1908.6589      4802.5101      3050.117       6104.6855     -3054.5685      2364.3344      3572.6093     -2715.8718      27.68203      -1075.2707     -2167.04       -3061.0117     -375.08949      62954.58       39.781007      39.781007      39.781007      1.3523245      1623.4602      2338.9022      1763.6141    
    171000   171000         414.41638     -572.12281      2557.9784      3083.2603      6101.1294     -3017.8691      2409.7592      3604.8491     -2730.182       25.834897     -1097.4293     -2167.5798     -3063.1213     -375.08949      62954.58       39.781007      39.781007      39.781007      1.3523245     -1830.4308      1102.5456     -988.48328    
    172000   172000         409.51647      314.92371      3273.8596      2984.7193      6028.992      -3044.2726      2373.551       3576.1126     -2720.62        25.586553     -1070.2819     -2166.1762     -3062.4447     -375.08949      62954.58       39.781007      39.781007      39.781007      1.3523245      1580.5844     -386.05963     -249.7536     
    173000   173000         412.18363      1590.6997      4488.0229      3027.557       6068.2584     -3040.7015      2408.6206      3538.3088     -2721.5184      25.412015     -1056.6109     -2167.3249     -3067.5887     -375.08949      62954.58       39.781007      39.781007      39.781007      1.3523245      2062.385       3022.2576     -312.54354    
    174000   174000         416.43433      1462.1968      4387.0659      3044.5821      6130.8382     -3086.2561      2386.3527      3501.8782     -2751.0601      26.985124     -1020.0264     -2170.514      -3059.8716     -375.08949      62954.58       39.781007      39.781007      39.781007      1.3523245      3010.3475     -54.10126       1430.3442    
    175000   175000         415.77643      1071.8252      4108.8597      3124.787       6121.1524     -2996.3654      2347.0131      3644.6833     -2720.0215      27.106825     -1056.1194     -2171.2548     -3067.773      -375.08949      62954.58       39.781007      39.781007      39.781007      1.3523245     -48.480537      2736.4681      527.488      
    176000   176000         416.48878      922.75504      4126.9648      3279.7575      6131.6398     -2851.8823      2473.2812      3640.9994     -2707.2572      25.790239     -1055.4505     -2163.4861     -3065.7593     -375.08949      62954.58       39.781007      39.781007      39.781007      1.3523245      862.98604      958.60476      946.67434    
    177000   177000         413.91813      1406.4675      4276.8208      2985.5037      6093.7941     -3108.2904      2364.889       3529.6529     -2721.0809      26.963211     -1084.6697     -2164.0433     -3060.0016     -375.08949      62954.58       39.781007      39.781007      39.781007      1.3523245      290.83692      2176.5104      1752.0551    
    178000   178000         422.88064      1091.6032      4311.7769      3309.5454      6225.7422     -2916.1968      2409.8685      3655.054      -2715.5388      26.721818     -1070.1747     -2160.6323     -3061.4953     -375.08949      62954.58       39.781007      39.781007      39.781007      1.3523245      858.20539      1064.4768      1352.1274    
    179000   179000         415.4707       1501.4526      4678.4581      3299.9325      6116.6514     -2816.7189      2434.5715      3662.4857     -2683.1678      25.68054      -1018.8246     -2175.906      -3061.5582     -375.08949      62954.58       39.781007      39.781007      39.781007      1.3523245     -354.10544      2221.1173      2637.3458    
    180000   180000         418.79492      1925.0992      5033.8614      3266.3739      6165.5913     -2899.2173      2414.7685      3562.1156     -2675.8325      26.543913     -1004.9529     -2157.5324     -3064.3276     -375.08949      62954.58       39.781007      39.781007      39.781007      1.3523245      536.94063      2333.0055      2905.3515    
    181000   181000         414.97113      1592.1763      4677.9594      3216.1378      6109.2966     -2893.1589      2393.8414      3656.901      -2691.1565      27.61005      -1032.0975     -2179.6905     -3068.5669     -375.08949      62954.58       39.781007      39.781007      39.781007      1.3523245      1339.9965      1239.2044      2197.3281    
    182000   182000         418.66736      1482.9516      4595.2316      3233.6923      6163.7133     -2930.0211      2360.9256      3638.6363     -2706.7241      26.510238     -1018.7735     -2166.1225     -3064.4732     -375.08949      62954.58       39.781007      39.781007      39.781007      1.3523245      1957.3171      1554.075       937.46271    
    183000   183000         417.74669      1364.8062      4389.4028      3136.336       6150.1591     -3013.823       2348.8451      3642.0554     -2716.0119      26.312262     -1073.5074     -2177.2175     -3064.299      -375.08949      62954.58       39.781007      39.781007      39.781007      1.3523245      1811.4895      1400.592       882.33726    
    184000   184000         429.86211     -630.34153      2730.0108      3308.745       6328.5249     -3019.7799      2343.0499      3663.614      -2709.7526      25.822256     -1111.3783     -2163.634      -3067.5012     -375.08949      62954.58       39.781007      39.781007      39.781007      1.3523245      248.6387      -261.49004     -1878.1732    
    185000   185000         417.56606      894.22805      4154.2291      3333.2133      6147.4998     -2814.2864      2486.0915      3649.8704     -2710.1014      26.917564     -1055.6464     -2148.2841     -3063.134      -375.08949      62954.58       39.781007      39.781007      39.781007      1.3523245      152.96177      1594.3496      935.37283    
    186000   186000         427.30599      1975.8969      5096.3275      3282.2013      6290.8932     -3008.6919      2375.3457      3584.9692     -2730.8805      26.997935     -1045.8181     -2156.0211     -3063.285      -375.08949      62954.58       39.781007      39.781007      39.781007      1.3523245      767.8754       1889.8929      3269.9223    
    187000   187000         422.54914      2350.7113      5616.6979      3458.4442      6220.8617     -2762.4176      2492.2789      3653.0816     -2695.0658      26.541073     -1010.4835     -2163.6099     -3065.1601     -375.08949      62954.58       39.781007      39.781007      39.781007      1.3523245      2236.8058      1367.3664      3447.9616    
    188000   188000         424.82518      725.16394      3880.7853      3214.992       6254.3701     -3039.3781      2459.6263      3520.0104     -2700.7158      26.579757     -1113.3657     -2166.3582     -3065.1549     -375.08949      62954.58       39.781007      39.781007      39.781007      1.3523245     -280.09516      2196.1002      259.48674    
    189000   189000         424.83518      834.92124      4107.0998      3340.5352      6254.5173     -2913.9821      2405.5086      3671.9118     -2741.3087      26.484027     -1062.6027     -2157.2326     -3056.7425     -375.08949      62954.58       39.781007      39.781007      39.781007      1.3523245      1671.5123      109.49655      723.75482    
    190000   190000         426.23425      2800.56        5927.8627      3356.5902      6275.1147     -2918.5246      2407.4956      3579.6381     -2707.5742      27.544522     -1001.019      -2166.3681     -3058.2415     -375.08949      62954.58       39.781007      39.781007      39.781007      1.3523245      728.16648      5174.2508      2499.2628    
    191000   191000         416.44924      894.92814      4064.6073      3242.9487      6131.0577     -2888.109       2462.9932      3588.6542     -2692.4642      26.203094     -1050.5269     -2163.2496     -3059.7188     -375.08949      62954.58       39.781007      39.781007      39.781007      1.3523245      1475.1153      1860.3824     -650.71321    
    192000   192000         423.06791      1178.3316      4424.6429      3342.7837      6228.4992     -2885.7155      2495.2395      3557.8704     -2721.1289      24.77162      -1028.6859     -2157.8106     -3055.9717     -375.08949      62954.58       39.781007      39.781007      39.781007      1.3523245      1319.0033      124.73471      2091.2567    
    193000   193000         425.95357      709.11875      4182.3255      3531.2638      6270.9825     -2739.7188      2466.2117      3690.0309     -2673.8559      27.135888     -1036.1632     -2154.1433     -3058.9348     -375.08949      62954.58       39.781007      39.781007      39.781007      1.3523245      1062.473      -1202.8912      2267.7745    
    194000   194000         430.95458      232.15367      3668.5909      3455.4442      6344.6085     -2889.1643      2412.408       3632.7413     -2726.4807      25.490199     -1023.5416     -2154.7614     -3055.0201     -375.08949      62954.58       39.781007      39.781007      39.781007      1.3523245     -854.71065      549.00437      1002.1673    
    195000   195000         428.19626      1640.2234      5148.3196      3642.3847      6304          -2661.6153      2504.8342      3713.1376     -2709.971       25.434973     -960.25098     -2170.6359     -3064.1641     -375.08949      62954.58       39.781007      39.781007      39.781007      1.3523245      3642.9753      676.18929      601.50555    
    196000   196000         425.88033      1732.9831      5095.7176      3504.6173      6269.9042     -2765.2869      2464.6178      3686.0795     -2671.0087      26.052569     -1034.4397     -2166.0778     -3070.5106     -375.08949      62954.58       39.781007      39.781007      39.781007      1.3523245      2271.7917      1010.6976      1916.46      
    197000   197000         427.86604      1234.5751      4751.2407      3617.7427      6299.1384     -2681.3957      2479.3768      3812.6575     -2725.1118      29.07619      -1062.2907     -2156.2149     -3058.8887     -375.08949      62954.58       39.781007      39.781007      39.781007      1.3523245      2584.1488      1119.3321      0.24455592   
    198000   198000         434.5305       1841.0842      5140.2318      3449.8809      6397.2539     -2947.373       2385.7838      3633.8905     -2716.2833      27.356153     -1047.0307     -2168.3876     -3062.702      -375.08949      62954.58       39.781007      39.781007      39.781007      1.3523245      2343.3734      2132.4056      1047.4735    
    199000   199000         436.34118      854.25061      4531.1807      3746.8693      6423.9112     -2677.0419      2515.8789      3772.2826     -2728.541       27.587295     -1047.3969     -2159.9109     -3056.9418     -375.08949      62954.58       39.781007      39.781007      39.781007      1.3523245     -178.29794     -365.03261      3106.0824    
    200000   200000         434.79458      1717.2968      5286.7157      3710.0174      6401.1419     -2691.1245      2523.1238      3682.8855     -2697.5777      26.658421     -999.06583     -2165.1241     -3062.0246     -375.08949      62954.58       39.781007      39.781007      39.781007      1.3523245      3123.6003      1224.718       803.57217    
    201000   201000         431.34916      1291.8701      4836.2862      3650.1841      6350.4176     -2700.2335      2492.6629      3745.349      -2700.1565      27.346196     -1045.7781     -2156.1649     -3063.4922     -375.08949      62954.58       39.781007      39.781007      39.781007      1.3523245      1860.833       1021.657       993.1203     
    202000   202000         434.92231      2237.4336      5834.3706      3780.1202      6403.0223     -2622.9021      2557.726       3752.6233     -2697.406       28.131819     -1045.7095     -2161.4098     -3056.858      -375.08949      62954.58       39.781007      39.781007      39.781007      1.3523245      2684.3092      2290.8562      1737.1355    
    203000   203000         436.37053      1328.9908      4841.8417      3621.6581      6424.3432     -2802.6851      2438.5377      3716.0618     -2736.1826      27.52867      -1020.5457     -2165.3636     -3062.7214     -375.08949      62954.58       39.781007      39.781007      39.781007      1.3523245      957.47505      881.86587      2147.6314    
    204000   204000         442.00403      650.59246      4466.6091      3869.2819      6507.281      -2637.999       2561.3973      3744.0058     -2714.0659      28.538781     -1036.1191     -2163.4739     -3058.282      -375.08949      62954.58       39.781007      39.781007      39.781007      1.3523245     -1073.5422      1837.0731      1188.2465    
    205000   205000         441.59151      930.76144      4754.7312      3900.1731      6501.2078     -2601.0347      2531.4984      3808.9431     -2743.6376      28.092609     -994.36292     -2172.2773     -3059.291      -375.08949      62954.58       39.781007      39.781007      39.781007      1.3523245      3113.7699      85.307944     -406.79356    
    206000   206000         433.95635      1651.786       5135.9794      3619.4285      6388.8013     -2769.3727      2488.3888      3704.5311     -2748.6813      26.666456     -1005.4262     -2175.199      -3059.6525     -375.08949      62954.58       39.781007      39.781007      39.781007      1.3523245      1055.8326      1274.5679      2624.9573    
    207000   207000         439.3001       1105.3225      4756.4335      3741.606       6467.4731     -2725.8671      2511.1868      3768.8449     -2747.5392      28.767663     -1062.5099     -2158.7191     -3065.8982     -375.08949      62954.58       39.781007      39.781007      39.781007      1.3523245      3252.866      -471.89346      534.99504    
    208000   208000         440.54712     -380.76218      3470.4029      3819.9913      6485.832      -2665.8407      2638.7012      3678.8318     -2670.498       27.283402     -1120.9719     -2157.3906     -3061.7967     -375.08949      62954.58       39.781007      39.781007      39.781007      1.3523245     -244.00267     -1018.5574      120.27351    
    209000   209000         443.15803      2573.6146      5995.4398      3632.5323      6524.2704     -2891.7381      2413.9913      3611.6451     -2730.5858      26.277106     -996.02541     -2154.942      -3062.0984     -375.08949      62954.58       39.781007      39.781007      39.781007      1.3523245      2219.4168      3048.2844      2453.1424    
    210000   210000         440.46205      2966.6927      6533.1975      3809.394       6484.5795     -2675.1856      2464.287       3753.4464     -2725.1801      26.638348     -962.15751     -2170.5425     -3061.6772     -375.08949      62954.58       39.781007      39.781007      39.781007      1.3523245      2691.2334      3320.9872      2887.8574    
    211000   211000         436.05402      1916.6122      5495.0903      3735.3951      6419.6836     -2684.2885      2467.4543      3757.8875     -2690.7747      26.159459     -1025.7084     -2158.3044     -3061.0023     -375.08949      62954.58       39.781007      39.781007      39.781007      1.3523245      2759.0778      1665.0758      1325.683     
    212000   212000         431.65465      1923.2772      5383.6834      3617.8688      6354.9151     -2737.0464      2411.5385      3754.8908     -2730.8762      27.025893     -983.99648     -2158.0231     -3057.6058     -375.08949      62954.58       39.781007      39.781007      39.781007      1.3523245      1432.9416      3496.7031      840.18687    
    213000   213000         441.19563      1266.2138      5104.6654      3942.1191      6495.3795     -2553.2604      2571.3372      3855.1659     -2706.736       28.530441     -1082.8301     -2158.2876     -3060.4404     -375.08949      62954.58       39.781007      39.781007      39.781007      1.3523245      2296.1429     -518.02484      2020.5234    
    214000   214000         434.64009      893.25466      4607.1785      3787.0564      6398.8673     -2611.811       2552.2277      3722.1734     -2678.9146      26.006509     -991.45754     -2179.2176     -3062.6288     -375.08949      62954.58       39.781007      39.781007      39.781007      1.3523245      1149.6265      779.93931      750.19814    
    215000   215000         434.29864      958.62543      4872.0811      3991.9403      6393.8405     -2401.9002      2685.6781      3822.4599     -2719.8375      27.225204     -980.50403     -2171.01       -3065.9119     -375.08949      62954.58       39.781007      39.781007      39.781007      1.3523245      1970.9957     -282.27365      1187.1542    
    216000   216000         442.92643      3045.5857      6690.6183      3894.3809      6520.8607     -2626.4798      2454.8983      3794.5783     -2742.324       27.567486     -946.155       -2161.437      -3053.6079     -375.08949      62954.58       39.781007      39.781007      39.781007      1.3523245      2642.9764      3052.6629      3441.1178    
    217000   217000         436.284        245.21622      4029.6228      3804.4829      6423.0695     -2618.5866      2575.9507      3729.2008     -2692.4676      26.920948     -1025.8787     -2167.7842     -3064.5285     -375.08949      62954.58       39.781007      39.781007      39.781007      1.3523245      339.19591     -147.436        543.88874    
    218000   218000         449.01406      2273.1771      6043.2329      3956.1654      6610.4842     -2654.3188      2510.837       3702.1884     -2671.7284      25.531971     -982.54767     -2169.4814     -3069.1187     -375.08949      62954.58       39.781007      39.781007      39.781007      1.3523245      2167.2744      3194.023       1458.2339    
    219000   219000         450.21057      1678.5201      5600.4299      4059.3336      6628.0995     -2568.7658      2574.956       3683.5257     -2684.8314      26.098985     -935.87886     -2167.5179     -3065.1183     -375.08949      62954.58       39.781007      39.781007      39.781007      1.3523245      2975.1098      819.99484      1240.4558    
    220000   220000         442.55105      2032.0368      5838.6928      3973.023       6515.3343     -2542.3113      2513.5007      3844.187      -2700.9675      26.949393     -993.53474     -2166.3287     -3066.1174     -375.08949      62954.58       39.781007      39.781007      39.781007      1.3523245      1804.4717      1861.847       2429.7916    
    221000   221000         440.65201      2326.7003      5999.103       3862.8943      6487.3761     -2624.4818      2561.8089      3718.7786     -2679.0539      26.922593     -1021.8243     -2163.4007     -3067.713      -375.08949      62954.58       39.781007      39.781007      39.781007      1.3523245      1271.5175      1130.1626      4578.421     
    222000   222000         443.27395      745.26097      4660.2991      3976.0542      6525.977      -2549.9228      2578.9748      3715.3594     -2685.1117      25.673102     -974.18392     -2151.6004     -3059.0341     -375.08949      62954.58       39.781007      39.781007      39.781007      1.3523245      1952.0413      870.40143     -586.65987    
    223000   223000         457.20967      1575.072       5597.1295      4151.0118      6731.1418     -2580.13        2585.8106      3715.1862     -2658.971       26.255193     -1015.2113     -2169.5766     -3063.6232     -375.08949      62954.58       39.781007      39.781007      39.781007      1.3523245      3176.7506      921.37538      627.09008    
    224000   224000         438.80464      1057.1911      4891.3915      3920.7548      6460.1788     -2539.424       2587.0126      3723.5402     -2691.2758      26.062711     -956.84538     -2164.2826     -3063.6356     -375.08949      62954.58       39.781007      39.781007      39.781007      1.3523245      790.60844      2400.9713     -20.006413    
    225000   225000         445.91578      2431.7139      6252.3823      4019.7578      6564.8706     -2545.1128      2497.5485      3861.389      -2713.5534      27.951455     -997.15254     -2157.1768     -3064.1191     -375.08949      62954.58       39.781007      39.781007      39.781007      1.3523245      819.8753       2534.7741      3940.4924    
    226000   226000         450.16855      294.71877      4552.1339      4281.5443      6627.4809     -2345.9365      2677.6741      3936.5241     -2717.3283      27.36554      -1034.929      -2168.17       -3067.073      -375.08949      62954.58       39.781007      39.781007      39.781007      1.3523245     -1430.0742      1411.1071      903.12341    
    227000   227000         449.35676      1099.0611      5065.2803      4056.2016      6615.5294     -2559.3278      2502.7651      3845.6175     -2685.3738      26.507966     -1008.658      -2168.7701     -3071.4164     -375.08949      62954.58       39.781007      39.781007      39.781007      1.3523245      2087.1597      1260.9001     -50.876672    
    228000   228000         445.85558      1617.5275      5498.2018      4013.1045      6563.9843     -2550.8798      2606.3774      3757.1835     -2727.5564      26.703915     -977.47638     -2169.6212     -3066.4905     -375.08949      62954.58       39.781007      39.781007      39.781007      1.3523245      708.01348      1651.8087      2492.7605    
    229000   229000         450.6686       2123.7107      6140.0177      4190.1795      6634.8427     -2444.6632      2549.8479      3831.8672     -2685.8531      26.374401     -930.99607     -2170.5374     -3065.3661     -375.08949      62954.58       39.781007      39.781007      39.781007      1.3523245      1398.4797      2800.8464      2171.8059    
    230000   230000         451.28575      893.40418      5004.0879      4183.8285      6643.9285     -2460.1         2645.3258      3731.214      -2671.8552      25.925456     -968.82131     -2158.5396     -3063.3492     -375.08949      62954.58       39.781007      39.781007      39.781007      1.3523245      1140.8188     -758.94718      2298.341     
    231000   231000         468.20976      972.60763      5283.082       4390.1037      6893.0874     -2502.9837      2608.1232      3763.5409     -2673.5916      27.413788     -993.30243     -2173.4912     -3061.6763     -375.08949      62954.58       39.781007      39.781007      39.781007      1.3523245      236.32965      1546.0541      1135.4391    
    232000   232000         444.13319      790.3482       4911.3078      4185.667       6538.6269     -2352.9599      2595.198       3902.0245     -2667.4708      26.634807     -989.6934      -2161.5914     -3058.0616     -375.08949      62954.58       39.781007      39.781007      39.781007      1.3523245      203.98336      1715.9497      451.11157    
    233000   233000         454.63117      1370.5227      5646.048       4387.7328      6693.1804     -2305.4476      2642.9777      3838.3501     -2668.3747      25.150885     -920.66118     -2160.5782     -3062.3122     -375.08949      62954.58       39.781007      39.781007      39.781007      1.3523245      1858.0782      352.86518      1900.6246    
    234000   234000         453.92909      2991.6547      6932.4397      4185.7178      6682.8443     -2497.1264      2603.2402      3734.118      -2709.8522      26.096446     -932.99679     -2162.077      -3055.6551     -375.08949      62954.58       39.781007      39.781007      39.781007      1.3523245      3272.5276      3669.4367      2032.9999    
    235000   235000         458.4833       1196.859       5473.2613      4374.3915      6749.8924     -2375.5008      2610.1588      3881.5381     -2704.1314      26.330959     -962.85138     -2166.4065     -3060.1394     -375.08949      62954.58       39.781007      39.781007      39.781007      1.3523245      1056.9491      442.44643      2091.1814    
    236000   236000         455.96682      199.64562      4412.4132      4229.113       6712.8443     -2483.7313      2647.2845      3738.779      -2673.0234      26.779251     -1013.0508     -2155.4055     -3055.0944     -375.08949      62954.58       39.781007      39.781007      39.781007      1.3523245      280.40873      90.763564      227.76458    
    237000   237000         462.01184      967.81985      5405.9945      4517.4121      6801.8403     -2284.4283      2695.4651      3877.8875     -2682.0373      26.109209     -983.98432     -2159.0616     -3058.807      -375.08949      62954.58       39.781007      39.781007      39.781007      1.3523245      682.2598       711.46125      1509.7385    
    238000   238000         459.19367      906.91586      5329.4697      4496.8048      6760.3507     -2263.5458      2681.0089      3883.7515     -2666.1742      25.966513     -968.81502     -2163.0726     -3056.2108     -375.08949      62954.58       39.781007      39.781007      39.781007      1.3523245      168.25758      1560.6011      991.8889     
    239000   239000         462.02732      1141.8598      5433.7042      4385.3307      6802.0682     -2416.7375      2669.2421      3816.793      -2692.6593      26.059012     -1022.155      -2156.5885     -3057.4287     -375.08949      62954.58       39.781007      39.781007      39.781007      1.3523245      915.02963      2126.2456      384.30418    
    240000   240000         451.68335      2038.4403      6076.9865      4205.4374      6649.782      -2444.3446      2520.509       3828.3211     -2671.2625      25.253689     -917.55569     -2166.1829     -3063.4274     -375.08949      62954.58       39.781007      39.781007      39.781007      1.3523245      1309.0272      1565.0457      3241.248     
    241000   241000         464.73845      1011.486       5397.0663      4468.3927      6841.9821     -2373.5894      2618.0427      3891.5499     -2708.5112      26.443691     -979.84638     -2157.1472     -3064.1208     -375.08949      62954.58       39.781007      39.781007      39.781007      1.3523245      1088.7388      946.79266      998.92644    
    242000   242000         461.14886      2415.9174      6732.0504      4513.929       6789.1353     -2275.2063      2629.7548      3950.286      -2693.9534      27.573532     -972.33839     -2154.1108     -3062.4181     -375.08949      62954.58       39.781007      39.781007      39.781007      1.3523245      1443.6529      1579.7424      4224.3569    
    243000   243000         462.53841      2105.9987      6337.3116      4403.7352      6809.5926     -2405.8574      2657.6848      3819.6514     -2698.9217      25.900782     -987.99987     -2158.2978     -3063.875      -375.08949      62954.58       39.781007      39.781007      39.781007      1.3523245      2292.1297      2375.8186      1650.0479    
    244000   244000         456.56787      2403.6091      6604.747       4397.9262      6721.6931     -2323.7669      2609.3592      3885.3187     -2697.2347      25.846815     -933.1256      -2153.3553     -3060.576      -375.08949      62954.58       39.781007      39.781007      39.781007      1.3523245      4157.86        3306.7185     -253.75126    
    245000   245000         458.22745      553.19412      4905.7418      4397.8388      6746.1258     -2348.287       2671.9983      3831.9003     -2694.6035      27.560771     -975.89737     -2155.7992     -3053.4463     -375.08949      62954.58       39.781007      39.781007      39.781007      1.3523245     -42.702092      1184.5147      517.76974    
    246000   246000         457.92634      1829.4787      6101.2144      4421.5189      6741.6928     -2320.1739      2678.1821      3860.8069     -2682.1006      25.595917     -988.85306     -2157.6032     -3056.2019     -375.08949      62954.58       39.781007      39.781007      39.781007      1.3523245      2109.7879      1601.4202      1777.2279    
    247000   247000         472.51028      3237.8158      7617.3145      4644.5852      6956.4007     -2311.8154      2666.92        3875.3453     -2704.2032      27.361251     -945.60324     -2168.4927     -3063.1428     -375.08949      62954.58       39.781007      39.781007      39.781007      1.3523245      3292.6285      4618.7089      1802.1099    
    248000   248000         481.54532      1608.7163      6123.2755      4646.268       7089.4165     -2443.1485      2617.7682      3829.1297     -2694.4755      26.394535     -990.99949     -2166.808      -3064.158      -375.08949      62954.58       39.781007      39.781007      39.781007      1.3523245     -124.24616      3245.8133      1704.5818    
    249000   249000         467.17311      1944.5443      6346.0112      4560.6707      6877.8257     -2317.155       2646.4011      3886.8485     -2660.4065      27.378402     -999.97101     -2159.8898     -3057.5157     -375.08949      62954.58       39.781007      39.781007      39.781007      1.3523245      1410.0243      2981.645       1441.9635    
    250000   250000         469.91493      1753.0051      6267.6598      4658.1768      6918.1914     -2260.0146      2660.0053      3940.3342     -2689.0675      28.27303      -983.71827     -2159.0627     -3056.7788     -375.08949      62954.58       39.781007      39.781007      39.781007      1.3523245      860.72302      3381.9424      1016.3497    
    251000   251000         461.96156      1790.3975      6088.1138      4444.2997      6801.1001     -2356.8004      2486.2103      3951.3322     -2706.2852      26.215433     -886.91438     -2166.0687     -3061.29       -375.08949      62954.58       39.781007      39.781007      39.781007      1.3523245      2058.1695      1515.0338      1797.9892    
    252000   252000         462.16117      1596.6331      5946.3359      4480.4223      6804.0388     -2323.6164      2672.2532      3856.1393     -2697.3344      27.454717     -964.71008     -2157.7859     -3059.6333     -375.08949      62954.58       39.781007      39.781007      39.781007      1.3523245      2437.1958      2359.1974     -6.4938401    
    253000   253000         472.26779     -116.09745      4584.5578      4691.1502      6952.8307     -2261.6806      2687.7447      3911.2364     -2695.1761      26.510189     -966.44746     -2167.3184     -3058.23       -375.08949      62954.58       39.781007      39.781007      39.781007      1.3523245     -3356.2556      1861.2461      1146.7172    
    254000   254000         462.92595      420.79198      5014.7333      4628.3924      6815.2981     -2186.9057      2650.5581      3988.1418     -2689.4689      27.355192     -953.56609     -2153.4573     -3056.4685     -375.08949      62954.58       39.781007      39.781007      39.781007      1.3523245     -62.740537      1889.6328     -564.51629    
    255000   255000         484.51657      2331.1636      7119.3975      4979.091       7133.16       -2154.069       2688.1986      3893.1016     -2645.0796      26.58566      -902.2796      -2153.0521     -3061.5436     -375.08949      62954.58       39.781007      39.781007      39.781007      1.3523245      2848.6982      2104.6297      2040.1631    
    256000   256000         461.86194      598.15918      5183.415       4634.2283      6799.6334     -2165.4051      2781.5799      3902.7944     -2677.3949      27.594783     -975.84633     -2163.0583     -3061.0746     -375.08949      62954.58       39.781007      39.781007      39.781007      1.3523245      223.05244      3201.0997     -1629.6746    
    257000   257000         481.74474      3005.2832      7656.2518      4897.0172      7092.3524     -2195.3352      2677.3983      3994.6768     -2704.8745      27.241029     -968.19505     -2160.2351     -3061.3467     -375.08949      62954.58       39.781007      39.781007      39.781007      1.3523245      4047.0823      2911.1265      2057.641     
    258000   258000         461.47822      700.46021      5176.8815      4533.7694      6793.9843     -2260.2149      2740.2917      3870.7163     -2701.6741      26.946809     -962.51259     -2173.4709     -3060.5121     -375.08949      62954.58       39.781007      39.781007      39.781007      1.3523245      1919.2549      879.82484     -697.69907    
    259000   259000         476.78773      377.58228      5238.9224      4892.2535      7019.3743     -2127.1207      2697.5309      4011.962      -2665.8151      27.793483     -943.90873     -2183.2054     -3071.4779     -375.08949      62954.58       39.781007      39.781007      39.781007      1.3523245      318.87262     -1246.8156      2060.6899    
    260000   260000         473.41363      2200.3664      6685.6408      4665.4228      6969.6999     -2304.2771      2615.8726      3941.8918     -2667.0225      26.893606     -981.43452     -2168.3843     -3072.0937     -375.08949      62954.58       39.781007      39.781007      39.781007      1.3523245      1954.6407      2369.3847      2277.0739    
    261000   261000         482.80216      2026.471       6841.1464      4980.5867      7107.92       -2127.3333      2715.1392      3942.9879     -2668.4938      26.712711     -931.16135     -2155.316      -3057.2019     -375.08949      62954.58       39.781007      39.781007      39.781007      1.3523245      1897.2439      2458.8499      1723.3191    
    262000   262000         468.71195      2869.2368      7452.9909      4818.6643      6900.4809     -2081.8166      2717.0759      3976.9145     -2666.9945      26.376207     -899.42972     -2169.4558     -3066.3033     -375.08949      62954.58       39.781007      39.781007      39.781007      1.3523245      4527.1022      3040.9701      1039.6381    
    263000   263000         474.7416       2720.725       7290.2628      4792.289       6989.2507     -2196.9617      2671.5894      3945.8115     -2701.398       25.311471     -910.96632     -2166.4792     -3060.8305     -375.08949      62954.58       39.781007      39.781007      39.781007      1.3523245      2135.3611      4101.8856      1924.9284    
    264000   264000         479.74759      1493.4819      6245.922       4874.7145      7062.9499     -2188.2354      2723.0108      3925.6946     -2669.8347      27.731505     -955.53756     -2172.5941     -3066.706      -375.08949      62954.58       39.781007      39.781007      39.781007      1.3523245      2697.9131      1206.7526      575.77991    
    265000   265000         467.41255      2403.192       6825.9774      4619.5396      6881.3508     -2261.8112      2648.7669      3913.8601     -2652.105       26.714041     -975.0972      -2159.6202     -3064.33       -375.08949      62954.58       39.781007      39.781007      39.781007      1.3523245      2256.7649      2766.5562      2186.255     
    266000   266000         477.16745      1660.5632      6470.865       4946.2555      7024.9645     -2078.7091      2711.651       4034.9932     -2667.497       26.881061     -948.43548     -2168.4731     -3067.8288     -375.08949      62954.58       39.781007      39.781007      39.781007      1.3523245      955.81066      1903.5895      2122.2895    
    267000   267000         478.7824       2790.4655      7511.2451      4949.2407      7048.7402     -2099.4994      2677.6199      4008.3609     -2682.5904      27.375709     -916.24676     -2160.3565     -3053.6622     -375.08949      62954.58       39.781007      39.781007      39.781007      1.3523245      2285.9834      4369.0477      1716.3652    
    268000   268000         477.21532      2495.4297      7228.0601      4936.9363      7025.6694     -2088.7331      2799.8824      3969.1206     -2684.1689      27.766334     -978.90123     -2158.8485     -3063.5838     -375.08949      62954.58       39.781007      39.781007      39.781007      1.3523245      3574.4672      2722.8861      1188.9357    
    269000   269000         485.66478      588.69634      5646.4817      5105.9831      7150.0641     -2044.081       2731.7002      4024.7862     -2657.9248      27.971787     -956.99348     -2155.5424     -3058.0785     -375.08949      62954.58       39.781007      39.781007      39.781007      1.3523245      321.60919     -86.868669      1531.3485    
    270000   270000         469.92673      1004.718       5905.6635      4983.2038      6918.3651     -1935.1613      2828.3959      4022.317      -2677.9085      28.263094     -929.4573      -2150.5869     -3056.1846     -375.08949      62954.58       39.781007      39.781007      39.781007      1.3523245      210.10845      1671.2658      1132.7797    
    271000   271000         474.14121      2880.8698      7559.5651      4914.558       6980.4116     -2065.8536      2699.0229      4025.7934     -2681.476       26.889776     -917.76779     -2161.7288     -3056.5871     -375.08949      62954.58       39.781007      39.781007      39.781007      1.3523245      3336.1164      1532.6898      3773.8032    
    272000   272000         484.39902      3469.1131      8242.8712      5057.7814      7131.4293     -2073.6479      2676.4886      3971.1039     -2666.8944      27.228988     -870.00754     -2157.124      -3054.4435     -375.08949      62954.58       39.781007      39.781007      39.781007      1.3523245      4112.8822      3251.0356      3043.4215    
    273000   273000         472.77212      2522.1138      7110.3267      4794.7034      6960.2556     -2165.5522      2626.477       3957.3765     -2651.2407      26.618174     -922.8082      -2152.5743     -3049.4006     -375.08949      62954.58       39.781007      39.781007      39.781007      1.3523245      1724.9431      1354.5806      4486.8178    
    274000   274000         481.53286      2268.2151      7206.4706      5123.9588      7089.2332     -1965.2744      2640.473       4122.026      -2675.7725      28.181497     -890.10939     -2137.0977     -3052.9753     -375.08949      62954.58       39.781007      39.781007      39.781007      1.3523245      253.33872      4938.8497      1612.457     
    275000   275000         486.55436      3552.7601      8467.7235      5205.835       7163.1607     -1957.3257      2685.0016      4016.1787     -2668.9372      26.659201     -817.21831     -2151.7702     -3047.2395     -375.08949      62954.58       39.781007      39.781007      39.781007      1.3523245      3709.1596      4687.8558      2261.265     
    276000   276000         478.77421      3514.5429      8219.95        4993.1498      7048.6196     -2055.4698      2662.0066      3987.1604     -2657.3292      25.96112      -862.93811     -2158.9687     -3051.3618     -375.08949      62954.58       39.781007      39.781007      39.781007      1.3523245      3603.7888      3152.0127      3787.8272    
    277000   277000         476.62839      1712.3675      6612.9795      5040.807       7017.0285     -1976.2214      2694.7433      4006.7189     -2629.8755      26.524715     -857.99025     -2160.2335     -3056.109      -375.08949      62954.58       39.781007      39.781007      39.781007      1.3523245      3241.2551      1832.7094      63.137952    
    278000   278000         480.69844      1445.4449      6421.3646      5094.2612      7076.9487     -1982.6875      2724.5278      4003.7558     -2650.6141      25.588029     -878.05941     -2154.3858     -3053.4998     -375.08949      62954.58       39.781007      39.781007      39.781007      1.3523245      2722.1422      390.67342      1223.519     
    279000   279000         491.53849      664.36525      5939.9745      5330.0022      7236.5382     -1906.536       2815.9146      4026.2329     -2656.9749      26.382772     -889.1929      -2166.7029     -3062.1956     -375.08949      62954.58       39.781007      39.781007      39.781007      1.3523245      1124.055      -619.72851      1488.7693    
    280000   280000         483.29871      2966.7695      7774.5739      5050.6998      7115.2303     -2064.5305      2650.188       4047.0197     -2677.6836      27.156219     -907.82616     -2150.9884     -3052.3963     -375.08949      62954.58       39.781007      39.781007      39.781007      1.3523245      3689.9965      2417.5356      2792.7765    
    281000   281000         489.52922      2926.0224      7787.1751      5100.7121      7206.9572     -2106.2452      2609.647       4040.1709     -2687.5027      29.001961     -881.85671     -2161.523      -3054.1826     -375.08949      62954.58       39.781007      39.781007      39.781007      1.3523245      1438.3724      4353.4709      2986.2239    
    282000   282000         489.93931      3185.0209      8178.2292      5253.9724      7212.9947     -1959.0223      2708.2971      4062.6276     -2689.6755      27.282269     -848.4356      -2168.6076     -3050.5106     -375.08949      62954.58       39.781007      39.781007      39.781007      1.3523245      2131.1537      6104.2819      1319.6269    
    283000   283000         493.5909       332.53616      5563.9991      5258.6884      7266.7542     -2008.0659      2700.9285      4051.9992     -2675.5609      28.835568     -906.90551     -2154.3479     -3053.0148     -375.08949      62954.58       39.781007      39.781007      39.781007      1.3523245      230.82273     -189.61596      956.4017     
    284000   284000         495.2879       2045.6413      7112.5864      5234.4259      7291.7379     -2057.312       2703.4468      3957.039      -2662.2915      27.440917     -886.66217     -2149.6595     -3046.6254     -375.08949      62954.58       39.781007      39.781007      39.781007      1.3523245      2139.2572      2392.6258      1605.0408    
    285000   285000         493.78804      2884.8383      8034.2163      5385.5655      7269.6566     -1884.0911      2749.8044      4034.9634     -2651.5464      27.018283     -831.59724     -2154.3907     -3058.3429     -375.08949      62954.58       39.781007      39.781007      39.781007      1.3523245      3460.0566      2683.3285      2511.1299    
    286000   286000         481.40178      2632.8342      7567.5955      5150.3168      7087.3033     -1936.9866      2765.4078      4085.3011     -2712.4232      26.699143     -895.7127      -2149.0247     -3057.234      -375.08949      62954.58       39.781007      39.781007      39.781007      1.3523245      2392.1785      2525.6886      2980.6354    
    287000   287000         494.7169       2018.2694      7195.2511      5342.2215      7283.3315     -1941.1099      2758.9337      4056.114      -2648.9425      26.736896     -941.08849     -2139.7654     -3053.098      -375.08949      62954.58       39.781007      39.781007      39.781007      1.3523245      2626.2802      3759.7645     -331.23654    
    288000   288000         492.89338      1329.6494      6594.2894      5373.5011      7256.4852     -1882.984       2777.2493      4085.5902     -2665.4494      28.444387     -910.6349      -2147.4905     -3050.6932     -375.08949      62954.58       39.781007      39.781007      39.781007      1.3523245      993.52388      2478.8713      516.55292    
    289000   289000         495.97531      1639.1251      6926.9647      5422.0381      7301.8581     -1879.82        2809.0891      4083.7317     -2644.0193      26.621956     -943.14625     -2156.4271     -3055.6701     -375.08949      62954.58       39.781007      39.781007      39.781007      1.3523245      2449.3153      929.92975      1538.1302    
    290000   290000         487.78744      1479.1418      6761.152       5403.1105      7181.3144     -1778.2039      2787.5467      4160.4259     -2666.3218      30.142307     -875.75225     -2155.4221     -3058.8226     -375.08949      62954.58       39.781007      39.781007      39.781007      1.3523245      795.69942      1998.8529      1642.8732    
    291000   291000         479.92582      2583.9701      7637.3244      5264.9092      7065.5738     -1800.6647      2822.059       4079.9246     -2671.8748      29.461509     -847.15393     -2157.5569     -3055.5242     -375.08949      62954.58       39.781007      39.781007      39.781007      1.3523245      1655.8222      3191.2458      2904.8421    
    292000   292000         493.58871      2880.2554      8038.7585      5394.3154      7266.722      -1872.4065      2763.1964      4052.9569     -2625.1281      27.247427     -872.79042     -2161.8797     -3056.009      -375.08949      62954.58       39.781007      39.781007      39.781007      1.3523245      3736.5609      2415.737       2488.4681    
    293000   293000         493.42171      1522.0755      6918.3226      5520.8625      7264.2634     -1743.4009      2775.3312      4144.5779     -2633.215       28.095916     -855.78981     -2152.2361     -3050.165      -375.08949      62954.58       39.781007      39.781007      39.781007      1.3523245      2505.4781      782.31905      1278.4292    
    294000   294000         498.0064       2369.5403      7794.3149      5618.7737      7331.7602     -1712.9865      2788.3631      4152.2263     -2633.7002      27.175577     -822.51347     -2165.616      -3058.9218     -375.08949      62954.58       39.781007      39.781007      39.781007      1.3523245      1594.0453      3348.5697      2166.0059    
    295000   295000         487.91808      2818.3427      7959.197       5371.5977      7183.2377     -1811.64        2761.4345      4033.6773     -2628.6009      26.798617     -796.24808     -2155.2111     -3053.4903     -375.08949      62954.58       39.781007      39.781007      39.781007      1.3523245      3740.1341      2034.8691      2680.025     
    296000   296000         492.25182      1691.4489      7094.0828      5541.1162      7247.0399     -1705.9237      2919.4148      4113.2283     -2711.2082      27.53641      -864.4362      -2146.8944     -3043.5644     -375.08949      62954.58       39.781007      39.781007      39.781007      1.3523245      1440.4477      2937.6269      696.27213    
    297000   297000         508.07476      1910.4239      7535.536       5781.5223      7479.9888     -1698.4664      2839.9012      4183.0029     -2659.6058      26.362037     -894.7532      -2144.5093     -3048.8643     -375.08949      62954.58       39.781007      39.781007      39.781007      1.3523245      3078.848       1797.0854      855.33829    
    298000   298000         501.49149      502.33794      6161.6565      5700.446       7383.0685     -1682.6224      2905.9267      4117.8881     -2625.7596      28.063442     -915.95714     -2142.521      -3050.2629     -375.08949      62954.58       39.781007      39.781007      39.781007      1.3523245     -164.6441       596.3894       1075.2685    
    299000   299000         493.03233      2292.2337      7877.9495      5773.3856      7258.5309     -1485.1453      3015.2845      4113.1043     -2609.7862      28.584534     -831.48203     -2150.3403     -3050.5102     -375.08949      62954.58       39.781007      39.781007      39.781007      1.3523245      3514.3565      2051.4324      1310.9122    
    300000   300000         498.62535      2670.3301      8011.591       5559.8862      7340.8725     -1780.9863      2907.0207      4016.8333     -2645.1446      27.808914     -884.27402     -2151.9585     -3051.2719     -375.08949      62954.58       39.781007      39.781007      39.781007      1.3523245      2572.9112      2442.1618      2995.9172    
    301000   301000         499.88965      1190.1278      6930.8958      5838.2061      7359.4859     -1521.2797      2957.2448      4209.1967     -2631.2609      28.416076     -899.02621     -2135.874      -3049.9761     -375.08949      62954.58       39.781007      39.781007      39.781007      1.3523245      1044.9968      1005.197       1520.1896    
    302000   302000         496.86814      1743.7016      7277.6233      5676.682       7315.0025     -1638.3204      2908.8486      4127.8021     -2637.3979      25.739197     -865.61444     -2151.5063     -3046.1918     -375.08949      62954.58       39.781007      39.781007      39.781007      1.3523245      68.097224      2001.1255      3161.8822    
    303000   303000         508.12909      1988.2745      7761.4087      5935.9183      7480.7886     -1544.8703      2889.9704      4131.9782     -2603.1894      26.26982      -788.55394     -2151.8333     -3049.5121     -375.08949      62954.58       39.781007      39.781007      39.781007      1.3523245      1966.9673      2392.7275      1605.1286    
    304000   304000         497.19999      2423.5311      7928.0363      5702.9246      7319.888      -1616.9634      2823.7213      4180.3664     -2607.3682      27.12996      -819.30824     -2163.8539     -3057.6508     -375.08949      62954.58       39.781007      39.781007      39.781007      1.3523245      1068.0717      3865.9955      2336.5261    
    305000   305000         495.35627      2088.493       7703.14        5785.6362      7292.7444     -1507.1082      2952.1969      4304.1763     -2648.9081      29.086242     -935.90599     -2157.519      -3050.2345     -375.08949      62954.58       39.781007      39.781007      39.781007      1.3523245      456.60653      2678.7719      3130.1005    
    306000   306000         492.26713      1307.4139      6756.5291      5556.1558      7247.2653     -1691.1095      2857.8336      4157.8181     -2644.0528      27.833575     -882.74617     -2159.5039     -3048.2919     -375.08949      62954.58       39.781007      39.781007      39.781007      1.3523245     -466.12145      756.59617      3631.7669    
    307000   307000         499.25742      1505.2937      7257.8602      5875.808       7350.1781     -1474.3701      2948.5501      4338.7406     -2682.4014      29.384786     -895.37031     -2158.5583     -3054.7155     -375.08949      62954.58       39.781007      39.781007      39.781007      1.3523245      3884.8141     -110.83601      741.9029     
    308000   308000         499.22369      2403.3456      8010.6632      5804.0844      7349.6815     -1545.5971      2844.5556      4264.4561     -2602.7037      29.059078     -867.69986     -2157.1337     -3056.1306     -375.08949      62954.58       39.781007      39.781007      39.781007      1.3523245      2481.7815      1333.5933      3394.662     
    309000   309000         502.88328      1340.1643      7057.0026      5826.5602      7403.5587     -1576.9985      2935.7581      4210.0217     -2648.3954      29.876251     -886.53182     -2156.6606     -3061.0667     -375.08949      62954.58       39.781007      39.781007      39.781007      1.3523245      2543.957       510.06867      966.46724    
    310000   310000         503.92831      3499.5699      8954.0847      5741.0317      7418.9438     -1677.9121      2778.2446      4158.2277     -2647.409       27.836434     -769.1373      -2171.8171     -3053.8575     -375.08949      62954.58       39.781007      39.781007      39.781007      1.3523245      4754.4115      3226.0146      2518.2835    
    311000   311000         501.68244      1157.0385      6927.2348      5864.9254      7385.8796     -1520.9542      2873.906       4233.7306     -2643.4654      27.358517     -800.25755     -2156.0055     -3056.2209     -375.08949      62954.58       39.781007      39.781007      39.781007      1.3523245      2008.7637      731.95786      730.3939     
    312000   312000         500.74716      1587.7747      7196.2376      5738.4572      7372.1103     -1633.6531      2840.1713      4142.4305     -2611.0882      28.073783     -807.0336      -2163.5623     -3062.6445     -375.08949      62954.58       39.781007      39.781007      39.781007      1.3523245      1330.8858      2137.7277      1294.7105    
    313000   313000         511.52612      3044.9107      8774.171       5978.5532      7530.8006     -1552.2473      2888.2744      4210.8396     -2605.8111      28.53329      -865.20937     -2148.9443     -3059.9298     -375.08949      62954.58       39.781007      39.781007      39.781007      1.3523245      2434.7618      3450.3601      3249.6102    
    314000   314000         501.49274      3059.1445      8603.6963      5795.0101      7383.0869     -1588.0768      2773.5479      4213.5453     -2605.184       26.499364     -768.60996     -2164.0258     -3063.8496     -375.08949      62954.58       39.781007      39.781007      39.781007      1.3523245      1116.7437      2150.7726      5909.9173    
    315000   315000         513.29893      755.43249      6624.8123      5931.2286      7556.9002     -1625.6716      2941.7286      4110.3122     -2617.6652      26.061        -877.71088     -2152.4089     -3055.9885     -375.08949      62954.58       39.781007      39.781007      39.781007      1.3523245     -635.62265      1723.9952      1177.9249    
    316000   316000         496.83598      2459.0842      8013.3805      5755.6264      7314.5291     -1558.9026      2872.626       4255.2016     -2601.5982      28.89462      -921.22103     -2142.7581     -3050.0476     -375.08949      62954.58       39.781007      39.781007      39.781007      1.3523245      137.2826       3769.3289      3470.6411    
    317000   317000         509.36622      1860.3021      7820.3533      6112.3579      7499.002      -1386.644       2983.7279      4200.8919     -2608.9199      26.289976     -781.20198     -2156.4846     -3050.9474     -375.08949      62954.58       39.781007      39.781007      39.781007      1.3523245      2682.5201      3008.5331     -110.14701    
    318000   318000         502.98812      1688.8485      7569.465       6018.8859      7405.1021     -1386.2162      2970.2978      4309.2459     -2613.3947      29.123934     -883.20561     -2142.4073     -3055.8761     -375.08949      62954.58       39.781007      39.781007      39.781007      1.3523245      1706.6485      2098.7439      1261.1532    
    319000   319000         510.13697      3825.9481      9602.0989      6089.3889      7510.3491     -1420.9602      2949.0709      4321.847      -2637.4812      29.730829     -875.46292     -2154.1058     -3054.5589     -375.08949      62954.58       39.781007      39.781007      39.781007      1.3523245      5034.1254      3265.8993      3177.8196    
    320000   320000         505.53565      1530.0978      7271.8329      5867.0073      7442.6075     -1575.6002      2856.9619      4147.7541     -2602.9632      27.71617      -780.72062     -2164.4667     -3059.882      -375.08949      62954.58       39.781007      39.781007      39.781007      1.3523245      1497.5798      2037.2741      1055.4394    
    321000   321000         519.53023      1494.1961      7570.0646      6198.2014      7648.6388     -1450.4374      2987.8071      4245.8261     -2609.4045      28.580309     -905.35921     -2143.7441     -3054.1432     -375.08949      62954.58       39.781007      39.781007      39.781007      1.3523245      1243.1778      2493.7171      745.69335    
    322000   322000         519.32399      906.63665      6967.2218      6134.8133      7645.6025     -1510.7892      2952.1156      4162.2702     -2620.22        27.153745     -838.34475     -2139.7902     -3053.9738     -375.08949      62954.58       39.781007      39.781007      39.781007      1.3523245      1149.9745      1699.2354     -129.29993    
    323000   323000         503.82284      160.39465      6028.6468      5881.3839      7417.3911     -1536.0071      2903.5413      4237.1137     -2638.359       29.245677     -853.04423     -2158.8241     -3055.6805     -375.08949      62954.58       39.781007      39.781007      39.781007      1.3523245      36.522829     -752.05306      1196.7142    
    324000   324000         511.98397      2807.6558      8698.2751      6120.4878      7537.541      -1417.0532      2951.5222      4240.3061     -2639.2594      26.347672     -774.62452     -2160.0866     -3061.2586     -375.08949      62954.58       39.781007      39.781007      39.781007      1.3523245      3539.5673      3775.1165      1108.2836    
    325000   325000         519.89108      480.9082       6593.9223      6152.387       7653.9513     -1501.5643      2939.4954      4208.6908     -2613.7174      27.384289     -859.82405     -2148.077      -3055.5163     -375.08949      62954.58       39.781007      39.781007      39.781007      1.3523245     -141.71103      291.14325      1293.2924    
    326000   326000         512.93268      2440.0205      8451.1241      6210.8731      7551.5082     -1340.6351      2973.8853      4265.8259     -2588.2942      29.804173     -804.55417     -2160.5194     -3056.7827     -375.08949      62954.58       39.781007      39.781007      39.781007      1.3523245      3077.2344      2916.3916      1326.4353    
    327000   327000         507.92584      1811.9491      7700.2788      6036.6776      7477.7963     -1441.1187      2916.5734      4256.152      -2615.8026      26.878364     -833.73554     -2145.2565     -3045.9278     -375.08949      62954.58       39.781007      39.781007      39.781007      1.3523245      3654.2484      969.10436      812.49451    
    328000   328000         519.97569      2109.4334      8296.0237      6359.2938      7655.1969     -1295.903       3034.7337      4292.3861     -2612.6149      27.610169     -821.88394     -2156.2014     -3059.9328     -375.08949      62954.58       39.781007      39.781007      39.781007      1.3523245      2353.9326      2680.3878      1293.9798    
    329000   329000         507.59868      1259.4822      7135.8021      5979.4362      7472.9799     -1493.5436      2942.4456      4210.8113     -2602.7501      30.098156     -869.99195     -2149.7427     -3054.414      -375.08949      62954.58       39.781007      39.781007      39.781007      1.3523245     -91.092082      3524.1334      345.40541    
    330000   330000         522.73543      758.67842      6866.6244      6170.0605      7695.8265     -1525.766       3044.7596      4145.8493     -2600.4285      26.698495     -925.95294     -2154.7873     -3061.9046     -375.08949      62954.58       39.781007      39.781007      39.781007      1.3523245      1495.3434      1042.0688     -261.37691    
    331000   331000         523.81723      1552.4181      7743.2646      6317.9461      7711.753      -1393.8069      2909.6208      4342.3955     -2603.3262      27.375905     -870.78568     -2148.7726     -3050.3146     -375.08949      62954.58       39.781007      39.781007      39.781007      1.3523245      1249.8534      1820.3716      1587.0293    
    332000   332000         530.6323       1758.6721      8018.8387      6404.1526      7812.0859     -1407.9333      2908.2871      4308.5792     -2601.7064      28.670077     -849.89346     -2153.4361     -3048.4337     -375.08949      62954.58       39.781007      39.781007      39.781007      1.3523245      1940.472       1517.2373      1818.307     
    333000   333000         514.69033      2618.4981      8526.691       6122.5746      7577.3847     -1454.8101      3021.7444      4141.1455     -2616.4461      27.345011     -822.64374     -2149.7712     -3056.1839     -375.08949      62954.58       39.781007      39.781007      39.781007      1.3523245      1637.1707      4450.2035      1768.12      
    334000   334000         521.25331      4490.7266      10405.552      6282.4899      7674.0064     -1391.5165      2914.8405      4292.0002     -2624.4438      27.185552     -797.64999     -2153.8978     -3049.551      -375.08949      62954.58       39.781007      39.781007      39.781007      1.3523245      3574.9243      4812.566       5084.6896    
    335000   335000         518.07975      3200.1359      9290.7887      6352.6545      7627.2845     -1274.6301      2943.3492      4325.0742     -2619.5808      28.028514     -743.68853     -2162.1347     -3045.6779     -375.08949      62954.58       39.781007      39.781007      39.781007      1.3523245      3675.852       2365.7658      3558.7897    
    336000   336000         521.22721      2627.4775      8704.0761      6291.7155      7673.6221     -1381.9066      2919.0235      4265.587      -2630.5466      27.756172     -748.02208     -2161.7088     -3053.9957     -375.08949      62954.58       39.781007      39.781007      39.781007      1.3523245      2320.217       3162.2978      2399.9175    
    337000   337000         522.89003      4013.1294      10157.615      6473.0488      7698.1025     -1225.0538      3012.3422      4337.5813     -2659.7516      28.653093     -731.5672      -2160.9415     -3051.3701     -375.08949      62954.58       39.781007      39.781007      39.781007      1.3523245      3176.8835      4777.9173      4084.5874    
    338000   338000         520.70936      3338.2048      9372.4622      6307.563       7665.9982     -1358.4352      2936.3139      4289.0897     -2606.7077      25.850036     -772.45065     -2171.1041     -3059.4265     -375.08949      62954.58       39.781007      39.781007      39.781007      1.3523245      1899.3841      4306.0786      3809.1517    
    339000   339000         522.93567      2833.7228      9071.9901      6470.2699      7698.7744     -1228.5044      2942.8926      4375.4349     -2639.2768      28.180551     -749.26164     -2144.4267     -3042.0473     -375.08949      62954.58       39.781007      39.781007      39.781007      1.3523245      2943.8194      2316.8136      3240.5355    
    340000   340000         530.08525      3000.5572      9195.5768      6440.6813      7804.0321     -1363.3509      2924.777       4215.7919     -2575.0038      25.999782     -750.5612      -2154.7475     -3049.6071     -375.08949      62954.58       39.781007      39.781007      39.781007      1.3523245      4667.1878     -133.92937      4468.4133    
    341000   341000         524.53196      2502.3969      8761.7292      6464.2086      7722.2753     -1258.0667      2987.023       4285.4229     -2620.643       28.711173     -745.89684     -2152.2526     -3040.4314     -375.08949      62954.58       39.781007      39.781007      39.781007      1.3523245      228.22555      4966.7093      2312.2559    
    342000   342000         521.42456      1709.6703      7843.0728      6273.3767      7676.5275     -1403.1508      2941.5241      4239.1791     -2592.6404      27.56132      -805.19665     -2160.5393     -3053.0389     -375.08949      62954.58       39.781007      39.781007      39.781007      1.3523245     -155.32507      2289.1647      2995.1713    
    343000   343000         532.67873      2820.9852      9185.6944      6595.6689      7842.2138     -1246.5449      3066.4307      4273.6835     -2621.8369      27.286089     -786.01498     -2151.0598     -3055.0336     -375.08949      62954.58       39.781007      39.781007      39.781007      1.3523245      3882.8813      2577.1469      2002.9276    
    344000   344000         533.95826      1953.4623      8362.2362      6568.7079      7861.0515     -1292.3436      3003.2315      4319.7101     -2606.982       29.268285     -835.33645     -2149.8067     -3052.4284     -375.08949      62954.58       39.781007      39.781007      39.781007      1.3523245      3512.6124      1804.6763      543.09808    
    345000   345000         526.74667      1091.4917      7448.314       6446.1849      7754.8808     -1308.6959      2977.6608      4264.9385     -2597.0298      27.967121     -811.11391     -2127.4407     -3043.6779     -375.08949      62954.58       39.781007      39.781007      39.781007      1.3523245      817.12397      649.72153      1807.6296    
    346000   346000         513.3016       2219.1115      8494.9981      6457.5698      7556.9395     -1099.3697      3003.0884      4384.94       -2605.7614      28.327375     -698.29575     -2161.4603     -3050.208      -375.08949      62954.58       39.781007      39.781007      39.781007      1.3523245      2107.1698      2615.4541      1934.7107    
    347000   347000         518.51156      3639.0856      9667.7773      6326.631       7633.6417     -1307.0107      2976.9311      4160.1842     -2558.2134      27.328959     -711.85453     -2156.0331     -3045.3539     -375.08949      62954.58       39.781007      39.781007      39.781007      1.3523245      6632.8135      1063.2071      3221.236     
    348000   348000         534.99245      2742.7238      9293.5707      6775.3993      7876.277      -1100.8777      2992.7684      4376.6684     -2593.1656      26.577504     -683.73078     -2160.7506     -3059.2449     -375.08949      62954.58       39.781007      39.781007      39.781007      1.3523245      1016.2464      4284.2061      2927.7189    
    349000   349000         532.53956      1064.6371      7527.7728      6550.2997      7840.165      -1289.8653      3121.4208      4224.1512     -2602.6477      29.82843      -852.95567     -2156.5932     -3053.0691     -375.08949      62954.58       39.781007      39.781007      39.781007      1.3523245      2981.9555     -1346.833       1558.7888    
    350000   350000         540.03573      1563.3759      8234.6876      6799.3085      7950.5253     -1151.2168      3016.4211      4407.4746     -2606.8817      27.912187     -791.71713     -2148.4999     -3055.926      -375.08949      62954.58       39.781007      39.781007      39.781007      1.3523245      2980.8019      64.911918      1644.4139    
    351000   351000         531.50812      1405.7035      8073.5567      6782.941       7824.98       -1042.039       3110.2571      4371.8163     -2591.0228      28.523878     -771.02327     -2142.7485     -3047.8417     -375.08949      62954.58       39.781007      39.781007      39.781007      1.3523245      1082.9479      1573.147       1561.0156    
    352000   352000         540.92312      2582.917       9236.7488      6865.3004      7963.5896     -1098.2891      3065.1154      4442.9931     -2562.0862      28.007939     -853.36329     -2157.2389     -3061.7172     -375.08949      62954.58       39.781007      39.781007      39.781007      1.3523245      909.40407      3825.9667      3013.3804    
    353000   353000         532.19282      2991.2065      9402.9479      6656.6375      7835.0602     -1178.4227      3025.3209      4320.1238     -2631.5354      26.950331     -717.27594     -2156.8628     -3045.1436     -375.08949      62954.58       39.781007      39.781007      39.781007      1.3523245      1672.7676      3741.2829      3559.569     
    354000   354000         537.7423       1798.8255      8585.7937      6934.2417      7916.7608     -982.51916      3131.9374      4529.2273     -2586.3953      29.020659     -869.26584     -2156.4657     -3060.5777     -375.08949      62954.58       39.781007      39.781007      39.781007      1.3523245      1919.3394      2489.5916      987.54547    
    355000   355000         544.14036      2915.9934      9629.3093      6952.0542      8010.9545     -1058.9003      3092.2757      4421.8125     -2602.0347      28.040807     -803.54846     -2150.9324     -3044.5137     -375.08949      62954.58       39.781007      39.781007      39.781007      1.3523245      2394.5955      3141.6936      3211.691     
    356000   356000         530.22188      2888.5207      9491.2912      6839.2595      7806.0436     -966.78406      2984.9092      4605.794      -2622.8372      28.611206     -745.64462     -2160.107      -3057.5096     -375.08949      62954.58       39.781007      39.781007      39.781007      1.3523245      3128.5325      3489.0019      2048.0276    
    357000   357000         534.49519      2327.3463      8927.8077      6791.0059      7868.9562     -1077.9504      3064.817       4418.8405     -2596.0879      29.425526     -795.6172      -2148.7117     -3050.6165     -375.08949      62954.58       39.781007      39.781007      39.781007      1.3523245      2199.6883      2949.695       1832.6557    
    358000   358000         537.84174      2722.2687      9543.9182      7044.5271      7918.2248     -873.69772      3177.1893      4504.7133     -2588.2763      29.030939     -782.22018     -2162.2622     -3051.8726     -375.08949      62954.58       39.781007      39.781007      39.781007      1.3523245      2057.712       2876.2084      3232.8857    
    359000   359000         535.45966      2488.3376      9024.3594      6739.747       7883.1554     -1143.4084      3075.6503      4362.5381     -2619.9041      26.538136     -761.61753     -2166.2884     -3060.325      -375.08949      62954.58       39.781007      39.781007      39.781007      1.3523245      1158.0988      3172.3736      3134.5405    
    360000   360000         537.77169      616.39347      7384.6406      6818.7125      7917.1936     -1098.481       3172.7443      4315.0394     -2571.4419      27.787216     -856.14588     -2139.1482     -3047.3159     -375.08949      62954.58       39.781007      39.781007      39.781007      1.3523245      1380.2002      1377.3073     -908.32714    
    361000   361000         537.87894      1926.974       8715.2236      6946.0148      7918.7726     -972.75777      3110.2837      4455.4508     -2605.0756      29.436786     -778.87026     -2141.5717     -3042.4116     -375.08949      62954.58       39.781007      39.781007      39.781007      1.3523245      612.31944      2209.4387      2959.1638    
    362000   362000         542.00671      2548.0261      9243.0021      6903.5881      7979.5425     -1075.9544      3112.7111      4363.3251     -2652.2757      28.548839     -708.91322     -2163.7616     -3055.5889     -375.08949      62954.58       39.781007      39.781007      39.781007      1.3523245      3060.3013      2818.8298      1764.9473    
    363000   363000         540.86462      1947.0593      8706.5264      6918.8769      7962.7284     -1043.8516      2974.2897      4514.0953     -2619.0272      27.709817     -719.17134     -2165.3955     -3056.3523     -375.08949      62954.58       39.781007      39.781007      39.781007      1.3523245      3388.5148      1199.6641      1252.9989    
    364000   364000         551.63075      2317.8565      9191.4016      7063.3127      8121.2298     -1057.917       3090.4083      4387.7705     -2565.9413      27.744146     -769.0627      -2163.3994     -3065.4366     -375.08949      62954.58       39.781007      39.781007      39.781007      1.3523245      2592.221       2659.1103      1702.2381    
    365000   365000         534.92639      1857.8114      8532.1635      6826.4548      7875.3045     -1048.8497      3072.2012      4442.991      -2629.9254      31.128574     -745.69556     -2159.4848     -3060.0647     -375.08949      62954.58       39.781007      39.781007      39.781007      1.3523245      2347.0545      1274.5752      1951.8046    
    366000   366000         552.11611      1728.1873      8490.1663      6903.4691      8128.3754     -1224.9062      3043.604       4298.5798     -2585.7356      27.226073     -784.22124     -2160.4638     -3063.8955     -375.08949      62954.58       39.781007      39.781007      39.781007      1.3523245      1737.196       2475.7432      971.62275    
    367000   367000         548.06866      2371.4766      9219.2071      7041.888       8068.7879     -1026.8999      3076.1379      4458.0571     -2612.7761      29.340717     -767.18711     -2152.4174     -3058.0549     -375.08949      62954.58       39.781007      39.781007      39.781007      1.3523245      2517.405       3860.4947      736.53014    
    368000   368000         539.3433       2962.3688      9657.0611      6937.2274      7940.3311     -1003.1037      3043.0195      4403.7022     -2569.3588      28.606111     -653.04772     -2183.918      -3072.107      -375.08949      62954.58       39.781007      39.781007      39.781007      1.3523245      2787.5283      3908.205       2191.3731    
    369000   369000         543.25945      2717.9351      9340.6634      6845.2511      7997.9855     -1152.7344      3018.2286      4318.1688     -2558.3373      27.340249     -734.76962     -2164.9858     -3058.3793     -375.08949      62954.58       39.781007      39.781007      39.781007      1.3523245      2158.4682      3482.6807      2512.6565    
    370000   370000         543.74251      2417.661       9233.7779      7014.0557      8005.0974     -991.04162      3156.9339      4360.0644     -2572.7672      28.321525     -752.09695     -2153.8359     -3057.6614     -375.08949      62954.58       39.781007      39.781007      39.781007      1.3523245      1725.3305      3230.9977      2296.6548    
    371000   371000         547.57474      3577.9205      10527.194      7242.2056      8061.5163     -819.31067      3078.561       4589.41       -2623.4973      30.395351     -663.61097     -2167.7974     -3062.7713     -375.08949      62954.58       39.781007      39.781007      39.781007      1.3523245      5445.8786      3241.6216      2046.2612    
    372000   372000         536.89594      2244.9298      9156.4862      7095.3534      7904.3005     -808.94718      3170.5047      4504.38       -2589.1801      30.005095     -704.63166     -2162.2636     -3057.7617     -375.08949      62954.58       39.781007      39.781007      39.781007      1.3523245      4117.7242      1190.9503      1426.1149    
    373000   373000         541.87283      1984.6889      8835.5957      7013.3972      7977.5715     -964.17427      3108.1659      4399.0807     -2553.1035      29.818677     -734.90421     -2151.6265     -3061.6053     -375.08949      62954.58       39.781007      39.781007      39.781007      1.3523245      3539.757       2791.1856     -376.87582    
    374000   374000         544.78021      1950.7114      8882.5733      7091.5706      8020.3746     -928.80401      3161.1481      4407.2617     -2586.6108      28.777476     -703.23456     -2164.592      -3071.554      -375.08949      62954.58       39.781007      39.781007      39.781007      1.3523245      2730.6718      2089.4491      1032.0134    
    375000   375000         555.29072      2060.464       9146.2186      7254.449       8175.1127     -920.66367      3166.9914      4491.3582     -2610.2893      29.859609     -771.20134     -2162.1721     -3065.2101     -375.08949      62954.58       39.781007      39.781007      39.781007      1.3523245      3852.4503      1448.0313      880.91029    
    376000   376000         541.22824      1068.8571      7893.0441      6911.6965      7968.0816     -1056.3851      3172.4406      4331.0751     -2573.3165      26.685462     -803.6728      -2151.7791     -3057.8179     -375.08949      62954.58       39.781007      39.781007      39.781007      1.3523245      1704.7802      491.81184      1009.9792    
    377000   377000         551.69813      2438.2086      9429.8383      7191.2507      8122.2217     -930.97096      3077.8069      4514.7402     -2556.5564      28.405231     -756.18955     -2175.295      -3063.8824     -375.08949      62954.58       39.781007      39.781007      39.781007      1.3523245      1645.2939      2455.9438      3213.3882    
    378000   378000         556.69341      2139.7654      9395.8548      7431.2764      8195.7633     -764.48689      3251.2029      4550.5659     -2608.8144      28.794254     -744.3508      -2171.8393     -3070.0455     -375.08949      62954.58       39.781007      39.781007      39.781007      1.3523245      1426.0037      3289.276       1704.0163    
    379000   379000         548.67259      3098.0888      10093.954      7249.5116      8077.679      -828.16735      3207.1896      4573.0849     -2646.7518      30.320345     -748.70003     -2181.0287     -3062.2817     -375.08949      62954.58       39.781007      39.781007      39.781007      1.3523245      3366.4294      3493.4427      2434.3943    
    380000   380000         545.95484      3650.4679      10505.127      7153.5305      8037.6677     -884.13712      3148.5955      4519.3967     -2607.0923      29.248603     -744.32169     -2171.0274     -3058.9366     -375.08949      62954.58       39.781007      39.781007      39.781007      1.3523245      3193.1142      3851.8003      3906.489     
    381000   381000         549.5828       2589.7235      9457.3461      7079.6486      8091.0794     -1011.4308      3153.249       4458.607      -2623.0907      28.913679     -786.78269     -2174.7401     -3067.5871     -375.08949      62954.58       39.781007      39.781007      39.781007      1.3523245      2847.4172      2124.3954      2797.3579    
    382000   382000         549.45451      3111.265       10255.15       7398.6102      8089.1906     -690.58037      3261.2371      4543.4596     -2581.4811      27.710392     -719.96719     -2163.5134     -3058.0258     -375.08949      62954.58       39.781007      39.781007      39.781007      1.3523245      2695.7968      3022.9706      3615.0277    
    383000   383000         554.25042      1531.771       8796.2072      7389.8454      8159.797      -769.95164      3255.2708      4484.0132     -2594.827       27.26459      -707.82614     -2169.1228     -3064.7242     -375.08949      62954.58       39.781007      39.781007      39.781007      1.3523245      1390.7088      1842.38        1362.2242    
    384000   384000         552.11938      3227.5817      10341.16       7377.8267      8128.4235     -750.59682      3146.2819      4574.4944     -2580.1615      29.327302     -706.92377     -2156.1838     -3057.4313     -375.08949      62954.58       39.781007      39.781007      39.781007      1.3523245      3389.2688      3107.4608      3186.0156    
    385000   385000         559.90321      1869.057       9231.5343      7515.5008      8243.0187     -727.51787      3208.437       4628.3213     -2607.7044      31.797412     -754.0074      -2165.3539     -3069.0078     -375.08949      62954.58       39.781007      39.781007      39.781007      1.3523245      2864.527       125.13663      2617.5073    
    386000   386000         546.43761      2518.198       9595.5852      7283.5572      8044.7752     -761.21804      3155.4907      4622.8172     -2635.5426      29.991494     -681.73557     -2178.8709     -3073.3685     -375.08949      62954.58       39.781007      39.781007      39.781007      1.3523245      2601.9662      3256.0691      1696.5587    
    387000   387000         556.77278      2857.3091      10083.707      7460.3317      8196.9318     -736.60013      3217.7109      4667.0335     -2670.8204      31.139242     -760.75612     -2164.1089     -3056.7982     -375.08949      62954.58       39.781007      39.781007      39.781007      1.3523245      2849.3874      4572.3324      1150.2076    
    388000   388000         542.84247      2669.4881      9581.8955      7130.9638      7991.8467     -860.88288      3113.1927      4481.8321     -2630.0212      27.72747      -620.08589     -2172.986      -3060.5421     -375.08949      62954.58       39.781007      39.781007      39.781007      1.3523245      3314.1674      1722.0071      2972.2897    
    389000   389000         557.4344       1050.2317      8340.4558      7376.2087      8206.6723     -830.46365      3136.6497      4590.8077     -2573.0904      29.758345     -820.52294     -2140.0832     -3053.9829     -375.08949      62954.58       39.781007      39.781007      39.781007      1.3523245      2113.9947      477.26619      559.43423    
    390000   390000         550.4028       4516.3896      11497.682      7351.0582      8103.1516     -752.09337      3163.779       4544.0445     -2599.2643      29.106018     -675.05673     -2154.1638     -3060.538      -375.08949      62954.58       39.781007      39.781007      39.781007      1.3523245      5295.0821      3656.7367      4597.35      
    391000   391000         564.1746       2705.1642      10148.624      7664.9373      8305.9031     -640.96575      3215.125       4602.1925     -2597.3941      28.924858     -681.68876     -2150.5234     -3057.6019     -375.08949      62954.58       39.781007      39.781007      39.781007      1.3523245      3434.9914      1821.2202      2859.2809    
    392000   392000         557.15359      1786.2833      9197.8171      7557.7804      8202.5382     -644.75776      3275.9808      4553.6512     -2549.579       28.498153     -764.58642     -2136.0669     -3052.6556     -375.08949      62954.58       39.781007      39.781007      39.781007      1.3523245      2456.2727      1408.9165      1493.6609    
    393000   393000         561.75795      2459.484       9818.7047      7560.5836      8270.3246     -709.74096      3211.8936      4559.9703     -2587.2294      27.965553     -703.18585     -2160.888      -3058.2671     -375.08949      62954.58       39.781007      39.781007      39.781007      1.3523245      2863.7526      3540.028       974.67149    
    394000   394000         568.19197      3125.7818      10483.195      7613.3273      8365.0477     -751.72038      3142.1664      4580.6655     -2585.7151      29.56991      -718.64534     -2146.2215     -3053.5402     -375.08949      62954.58       39.781007      39.781007      39.781007      1.3523245      4581.0598      4083.0621      713.22343    
    395000   395000         569.07136      3793.6496      11097.671      7614.6148      8377.9942     -763.37939      3153.5175      4545.6517     -2593.1402      29.408337     -685.09297     -2157.1391     -3056.5847     -375.08949      62954.58       39.781007      39.781007      39.781007      1.3523245      4796.7297      2912.2992      3671.9199    
    396000   396000         565.05634      2230.2369      9594.4942      7546.8513      8318.8842     -772.03289      3234.1985      4519.6521     -2597.7931      29.026546     -732.68156     -2161.2723     -3063.163      -375.08949      62954.58       39.781007      39.781007      39.781007      1.3523245      1815.2891      2458.3829      2417.0386    
    397000   397000         563.71672      3852.6401      11171.999      7634.7818      8299.162      -664.38017      3215.7234      4640.2905     -2640.3768      29.132313     -698.15727     -2156.6795     -3054.3129     -375.08949      62954.58       39.781007      39.781007      39.781007      1.3523245      2758.3654      3726.8831      5072.6719    
    398000   398000         546.73762      2310.9973      9489.7611      7367.9698      8049.192      -681.2222       3284.5998      4561.1262     -2580.5738      29.397942     -765.26199     -2155.0795     -3055.4309     -375.08949      62954.58       39.781007      39.781007      39.781007      1.3523245      2245.5916      3893.9713      793.42899    
    399000   399000         560.61975      2191.581       9649.1775      7637.0257      8253.5677     -616.54205      3290.2463      4590.9192     -2583.7834      29.284056     -723.4077      -2157.612      -3062.1884     -375.08949      62954.58       39.781007      39.781007      39.781007      1.3523245      1493.2252      3772.8071      1308.7107    
    400000   400000         563.24466      3787.7557      11058.188      7580.543       8292.2122     -711.66921      3217.0445      4559.5015     -2598.806       28.946587     -684.10267     -2176.3925     -3057.8606     -375.08949      62954.58       39.781007      39.781007      39.781007      1.3523245      4080.692       3158.3503      4124.2248    
    401000   401000         573.92987      1952.4409      9770.9279      7978.3373      8449.5222     -471.18495      3296.3593      4640.8877     -2583.4181      26.946287     -628.81925     -2166.7392     -3056.4017     -375.08949      62954.58       39.781007      39.781007      39.781007      1.3523245      178.48148      2624.3243      3054.517     
    402000   402000         570.90093      2763.9691      10249.856      7712.1787      8404.9295     -692.75085      3215.443       4611.1469     -2551.1942      28.977011     -790.677       -2156.2458     -3050.2009     -375.08949      62954.58       39.781007      39.781007      39.781007      1.3523245      3135.6865      2519.8389      2636.3821    
    403000   403000         565.75036      2080.0102      9568.3825      7658.667       8329.1018     -670.43479      3283.5644      4589.8368     -2602.4571      29.78708      -771.60365     -2148.2199     -3051.3424     -375.08949      62954.58       39.781007      39.781007      39.781007      1.3523245      673.69955      2615.237       2951.094     
    404000   404000         571.23483      3167.267       10788.358      7880.4017      8409.8453     -529.44362      3316.7848      4581.6557     -2561.15        27.483947     -683.05904     -2159.9414     -3051.2175     -375.08949      62954.58       39.781007      39.781007      39.781007      1.3523245      4149.7748      3479.906       1872.1203    
    405000   405000         564.03237      3283.3698      10657.872      7643.3183      8303.8091     -660.49076      3122.0249      4646.3573     -2590.8741      28.999225     -656.31729     -2153.6533     -3057.0275     -375.08949      62954.58       39.781007      39.781007      39.781007      1.3523245      3637.9424      2530.6064      3681.5606    
    406000   406000         563.52985      2760.7255      10382.174      7847.4747      8296.4109     -448.93623      3257.7901      4786.686      -2593.9835      29.312336     -701.99446     -2165.3781     -3061.3686     -375.08949      62954.58       39.781007      39.781007      39.781007      1.3523245      3151.2054      2105.0917      3025.8795    
    407000   407000         566.11601      2483.4903      10166.23       7886.0686      8334.4849     -448.41631      3325.7179      4681.5074     -2549.8146      29.026048     -725.33933     -2159.5179     -3049.9958     -375.08949      62954.58       39.781007      39.781007      39.781007      1.3523245      3622.9615      1456.5157      2370.9936    
    408000   408000         579.67917      3466.1934      11321.984      8139.5749      8534.1648     -394.58989      3200.0439      4819.2739     -2559.6876      30.724738     -683.16558     -2144.9076     -3056.8717     -375.08949      62954.58       39.781007      39.781007      39.781007      1.3523245      2966.9491      2019.2298      5412.4013    
    409000   409000         565.75437      2402.5064      9999.9932      7794.1849      8329.1608     -534.97585      3265.4631      4626.431      -2559.5993      29.977242     -676.40159     -2157.5569     -3063.2895     -375.08949      62954.58       39.781007      39.781007      39.781007      1.3523245      3556.4652      1706.3858      1944.6681    
    410000   410000         560.2995       3230.2769      10607.517      7641.7095      8248.8529     -607.14347      3197.3785      4583.9897     -2551.4746      28.79368      -658.54797     -2144.9899     -3062.2929     -375.08949      62954.58       39.781007      39.781007      39.781007      1.3523245      1196.7835      4442.1422      4051.9052    
    411000   411000         577.22686      3450.3394      11011.77       7843.9168      8498.0612     -654.1444       3189.893       4577.8397     -2629.1961      31.46998      -619.23577     -2147.7798     -3057.1354     -375.08949      62954.58       39.781007      39.781007      39.781007      1.3523245      3003.999       4400.6286      2946.3907    
    412000   412000         574.56063      1986.9247      9874.4826      8050.2315      8458.8085     -408.57701      3225.4946      4731.038      -2554.6769      31.916579     -656.30106     -2139.9304     -3046.1179     -375.08949      62954.58       39.781007      39.781007      39.781007      1.3523245      811.94579      3156.1299      1992.6984    
    413000   413000         559.54285      2912.9378      10323.22       7648.7701      8237.7135     -588.94333      3279.2608      4631.4527     -2610.2343      31.644727     -710.80554     -2151.5328     -3058.7289     -375.08949      62954.58       39.781007      39.781007      39.781007      1.3523245      2934.7084      3004.4921      2799.6129    
    414000   414000         584.36152      3254.543       11087.528      8099.4411      8603.0994     -503.65826      3264.1326      4630.5195     -2535.8486      29.319577     -699.51835     -2138.93       -3053.333      -375.08949      62954.58       39.781007      39.781007      39.781007      1.3523245      4008.3068      1985.344       3769.9783    
    415000   415000         567.74519      3684.6362      11193.174      7810.206       8358.4701     -548.2641       3196.0499      4668.2506     -2571.449       30.932087     -674.49829     -2141.7593     -3055.7902     -375.08949      62954.58       39.781007      39.781007      39.781007      1.3523245      4852.88        4003.5833      2197.4452    
    416000   416000         557.49804      5675.8048      13201.369      7990.2542      8207.6092     -217.35504      3376.3483      4775.3425     -2583.4859      30.905169     -578.05742     -2174.5525     -3063.8551     -375.08949      62954.58       39.781007      39.781007      39.781007      1.3523245      4988.9238      6472.4144      5566.0763    
    417000   417000         566.32673      3932.8221      11319.591      7708.7567      8337.5872     -628.83049      3204.6254      4598.7901     -2585.3551      27.937956     -660.65316     -2159.7274     -3054.4483     -375.08949      62954.58       39.781007      39.781007      39.781007      1.3523245      4139.7177      4364.0421      3294.7066    
    418000   418000         582.27098      4057.2266      11820.691      8095.6378      8572.3219     -476.68413      3156.2814      4692.4435     -2553.8314      29.589527     -587.5519      -2162.4424     -3051.173      -375.08949      62954.58       39.781007      39.781007      39.781007      1.3523245      4202.1983      4784.3031      3185.1784    
    419000   419000         580.28392      3641.3619      11429.389      8086.1524      8543.0681     -456.91562      3203.2756      4691.6926     -2531.7597      30.065882     -655.69664     -2141.7861     -3052.7073     -375.08949      62954.58       39.781007      39.781007      39.781007      1.3523245      2581.7509      2565.497       5776.8377    
    420000   420000         578.34342      5277.9077      12822.935      7977.1398      8514.4995     -537.35971      3045.4055      4775.9547     -2610.1337      30.77012      -576.01851     -2152.7317     -3050.6062     -375.08949      62954.58       39.781007      39.781007      39.781007      1.3523245      6159.122       5254.0448      4420.5564    
    421000   421000         571.31813      2480.6113      10173.55       7896.0315      8411.0716     -515.04016      3235.9723      4690.8695     -2590.5368      31.125365     -683.72945     -2147.8366     -3050.9045     -375.08949      62954.58       39.781007      39.781007      39.781007      1.3523245      2474.6555      1792.1666      3175.0117    
    422000   422000         572.89327      2424.9663      10449.92       8223.4902      8434.2612     -210.771        3321.3209      4828.6142     -2546.7339      28.753172     -657.63048     -2135.3332     -3049.7617     -375.08949      62954.58       39.781007      39.781007      39.781007      1.3523245      558.59499      2774.5103      3941.7936    
    423000   423000         580.32383      4258.0714      12094.375      8184.9206      8543.6556     -358.73497      3288.8381      4603.7298     -2546.3678      28.036544     -558.65053     -2131.1178     -3043.2033     -375.08949      62954.58       39.781007      39.781007      39.781007      1.3523245      3928.9287      5256.5115      3588.7738    
    424000   424000         576.22854      2983.5311      10844.431      8105.1675      8483.3638     -378.19636      3216.5397      4695.7033     -2539.0823      28.259477     -593.11372     -2139.8448     -3046.658      -375.08949      62954.58       39.781007      39.781007      39.781007      1.3523245      2416.473       3016.2415      3517.8788    
    425000   425000         577.05642      3225.7376      11179.305      8217.6651      8495.552      -277.88693      3229.9752      4808.4504     -2567.7855      29.871265     -568.19024     -2160.6755     -3049.5325     -375.08949      62954.58       39.781007      39.781007      39.781007      1.3523245      5097.4621      1736.3214      2843.4291    
    426000   426000         581.77905      3927.0415      11798.759      8193.232       8565.0797     -371.84769      3317.4573      4689.8804     -2544.0893      28.665888     -664.05832     -2153.5571     -3046.1466     -375.08949      62954.58       39.781007      39.781007      39.781007      1.3523245      5513.6645      3140.3138      3127.1462    
    427000   427000         582.27737      1375.6062      9530.6547      8267.6721      8572.416      -304.74383      3301.9789      4789.51       -2566.9067      32.083956     -665.9954      -2144.9323     -3050.4822     -375.08949      62954.58       39.781007      39.781007      39.781007      1.3523245      2038.4341      1233.4676      854.91702    
    428000   428000         575.52572      3410.758       11249.6        8118.0872      8473.0168     -354.92957      3318.3298      4712.2873     -2556.9167      31.091955     -644.80858     -2155.5659     -3059.3475     -375.08949      62954.58       39.781007      39.781007      39.781007      1.3523245      2551.7721      3149.3457      4531.1561    
    429000   429000         583.92308      4458.3586      12412.718      8319.3744      8596.6445     -277.27004      3291.7531      4785.1603     -2586.4871      31.327162     -581.63606     -2156.3395     -3061.048      -375.08949      62954.58       39.781007      39.781007      39.781007      1.3523245      3501.061       5070.9763      4803.0386    
    430000   430000         579.8278       2921.8716      10860.453      8177.8012      8536.353      -358.55178      3278.0779      4716.1223     -2537.7071      30.575667     -665.27845     -2131.5338     -3048.8083     -375.08949      62954.58       39.781007      39.781007      39.781007      1.3523245      2710.9796      2781.5675      3273.0677    
    431000   431000         591.33319      3609.408       11706.682      8392.7832      8705.7378     -312.95461      3327.5644      4691.3551     -2583.8753      28.534671     -566.31356     -2152.444      -3057.776      -375.08949      62954.58       39.781007      39.781007      39.781007      1.3523245      4115.4306      3538.514       3174.2794    
    432000   432000         581.67895      3589.4197      11695.583      8400.0362      8563.606      -163.56982      3180.4008      4969.0395     -2538.9932      30.723484     -588.31997     -2159.7468     -3056.6736     -375.08949      62954.58       39.781007      39.781007      39.781007      1.3523245      3313.8574      2964.6249      4489.7768    
    433000   433000         601.65004      3823.8017      12263.738      8752.9985      8857.6247     -104.62619      3283.8785      4917.2477     -2522.8984      31.458317     -625.10746     -2143.5471     -3045.6577     -375.08949      62954.58       39.781007      39.781007      39.781007      1.3523245      3282.7578      2218.7365      5969.9109    
    434000   434000         591.82029      3792.1447      11937.587      8455.9132      8712.909      -256.99578      3285.6702      4739.7643     -2544.2271      27.77591      -588.34808     -2133.1522     -3044.4788     -375.08949      62954.58       39.781007      39.781007      39.781007      1.3523245      6135.9398      3134.1781      2106.3162    
    435000   435000         594.73573      3341.813       11469.6        8401.3879      8755.8308     -354.44287      3267.2878      4703.3013     -2572.3578      28.835709     -586.51187     -2145.0776     -3049.9204     -375.08949      62954.58       39.781007      39.781007      39.781007      1.3523245      4471.9287      2328.0997      3225.4107    
    436000   436000         582.46333      3211.0057      11345.579      8397.4647      8575.1538     -177.68912      3351.8107      4815.0991     -2550.3682      29.122931     -617.47506     -2151.564      -3054.3145     -375.08949      62954.58       39.781007      39.781007      39.781007      1.3523245      2305.1759      2689.3657      4638.4757    
    437000   437000         590.6509       5053.7348      13078.566      8438.5907      8695.693      -257.10225      3363.6022      4781.526      -2562.2774      29.858402     -654.7772      -2160.7594     -3054.2749     -375.08949      62954.58       39.781007      39.781007      39.781007      1.3523245      3252.4119      6075.2623      5833.5303    
    438000   438000         591.85544      2875.9152      11040.245      8399.7863      8713.4265     -313.64021      3251.0162      4776.6153     -2532.1177      30.849923     -657.42438     -2133.6881     -3048.8914     -375.08949      62954.58       39.781007      39.781007      39.781007      1.3523245      3712.3069      4116.7455      798.69316    
    439000   439000         581.69343      3752.4196      11720.207      8275.0056      8563.8191     -288.81346      3454.3264      4609.6172     -2568.7877      30.208758     -623.64708     -2138.2645     -3052.2664     -375.08949      62954.58       39.781007      39.781007      39.781007      1.3523245      3178.604       5108.839       2969.8157    
    440000   440000         595.89828      3483.5391      11816.055      8617.7203      8772.9461     -155.22585      3294.5248      4855.0729     -2563.863       28.107708     -565.53555     -2149.7318     -3053.8009     -375.08949      62954.58       39.781007      39.781007      39.781007      1.3523245      1774.3483      3765.4004      4910.8685    
    441000   441000         597.59582      3811.0606      12303.656      8804.615       8797.9376      6.6773532      3383.5381      4882.1879     -2543.4816      29.06891      -571.18606     -2133.7156     -3039.7343     -375.08949      62954.58       39.781007      39.781007      39.781007      1.3523245      3792.3667      4141.3038      3499.5112    
    442000   442000         590.25725      4144.7541      12287.903      8482.4885      8689.8976     -207.40909      3407.2135      4757.7371     -2581.9938      30.067661     -642.94706     -2134.3531     -3043.1334     -375.08949      62954.58       39.781007      39.781007      39.781007      1.3523245      5333.3114      4427.3101      2673.6409    
    443000   443000         590.55355      2544.8199      10714.769      8378.2988      8694.2597     -315.96086      3407.727       4659.6359     -2553.3034      31.396447     -679.87382     -2131.204      -3050.339      -375.08949      62954.58       39.781007      39.781007      39.781007      1.3523245      2245.4495      3333.447       2055.5633    
    444000   444000         598.72485      3940.5163      12273.66       8655.7616      8814.5595     -158.79789      3360.14        4794.4709     -2544.5925      31.448838     -608.6553      -2140.5832     -3051.0266     -375.08949      62954.58       39.781007      39.781007      39.781007      1.3523245      3522.8918      4080.4337      4218.2236    
    445000   445000         600.64236      1922.9176      10603.248      8837.7631      8842.7895     -5.0264211      3380.2916      4902.1894     -2534.0944      31.286322     -595.02983     -2141.5542     -3048.1154     -375.08949      62954.58       39.781007      39.781007      39.781007      1.3523245     -308.8284       3346.5332      2731.0479    
    446000   446000         587.38787      1427.6265      9904.0299      8593.2861      8647.6539     -54.367857      3514.0899      4723.1265     -2537.6288      29.599345     -580.62992     -2145.721      -3057.2038     -375.08949      62954.58       39.781007      39.781007      39.781007      1.3523245      2664.4814      2473.3241     -854.92603    
    447000   447000         589.20899      3337.0645      11536.87       8473.0175      8674.4649     -201.44744      3247.1262      4800.0828     -2513.4151      29.968884     -572.05822     -2147.1115     -3046.0404     -375.08949      62954.58       39.781007      39.781007      39.781007      1.3523245      2548.2568      4904.6211      2558.3155    
    448000   448000         586.84809      1959.5693      10246.046      8446.9103      8639.7072     -192.7969       3356.7784      4768.4725     -2542.1322      29.843897     -623.87617     -2136.8137     -3045.0696     -375.08949      62954.58       39.781007      39.781007      39.781007      1.3523245      826.58973      1068.3677      3983.7505    
    449000   449000         599.55549      5407.323       13726.73       8762.1158      8826.7884     -64.672564      3391.7625      4769.63       -2556.5751      31.892564     -526.86408     -2133.2718     -3041.2466     -375.08949      62954.58       39.781007      39.781007      39.781007      1.3523245      5051.0575      5337.1294      5833.7822    
    450000   450000         602.2742       4035.5526      12616.174      8911.0203      8866.8138      44.20651       3303.4071      4945.134      -2527.248       31.306052     -514.16672     -2145.7389     -3048.487      -375.08949      62954.58       39.781007      39.781007      39.781007      1.3523245      2891.2223      5384.5258      3830.9096    
    451000   451000         607.01598      3412.2391      12002.106      8869.2338      8936.6233     -67.389493      3385.6537      4900.6005     -2587.9838      34.423474     -639.37053     -2123.911      -3036.8019     -375.08949      62954.58       39.781007      39.781007      39.781007      1.3523245      4987.4084      3373.9881      1875.3208    
    452000   452000         582.98778      3839.5872      12108.481      8583.2488      8582.8748      0.37394606     3274.2502      4930.8773     -2502.5338      33.021181     -541.18716     -2140.4131     -3053.6406     -375.08949      62954.58       39.781007      39.781007      39.781007      1.3523245      5717.0248      1967.7636      3833.9731    
    453000   453000         605.65647      3957.8855      12513.869      8880.0231      8916.6084     -36.585255      3353.4714      4892.2598     -2532.1408      31.965161     -572.77174     -2149.1015     -3060.2675     -375.08949      62954.58       39.781007      39.781007      39.781007      1.3523245      4192.0017      3532.2595      4149.3953    
    454000   454000         590.38726      2746.9534      11318.567      8796.5121      8691.8116      104.70048      3433.4635      4913.9533     -2523.1246      29.444122     -545.55352     -2151.3179     -3052.1644     -375.08949      62954.58       39.781007      39.781007      39.781007      1.3523245      1686.2955      3107.5158      3447.049     
    455000   455000         590.40491      3690.6409      12056.608      8668.1276      8692.0715     -23.943855      3380.7005      4852.3367     -2497.9958      31.502575     -604.15416     -2135.8625     -3050.4713     -375.08949      62954.58       39.781007      39.781007      39.781007      1.3523245      2242.0203      4834.4186      3995.4838    
    456000   456000         591.38283      2828.0635      11418.585      8822.0606      8706.4686      115.59194      3462.8185      4907.2557     -2514.3912      31.109665     -600.4227      -2125.4722     -3045.3059     -375.08949      62954.58       39.781007      39.781007      39.781007      1.3523245      2011.98        5896.3954      575.81515    
    457000   457000         599.56868      4993.5751      13392.564      8807.8227      8826.9825     -19.159778      3316.534       4863.0968     -2528.7106      29.694859     -502.97736     -2149.2048     -3047.5927     -375.08949      62954.58       39.781007      39.781007      39.781007      1.3523245      3522.2049      5840.722       5617.7984    
    458000   458000         611.95592      2778.1818      11556.485      9005.7587      9009.3501     -3.5914617      3463.0844      4834.044      -2560.5928      31.8885       -582.73694     -2137.8419     -3051.4368     -375.08949      62954.58       39.781007      39.781007      39.781007      1.3523245      1750.359       5195.036       1389.1505    
    459000   459000         602.97387      2835.5988      11600.982      8997.5389      8877.1145      120.42448      3441.5953      4929.3917     -2548.1519      31.816266     -566.43792     -2125.4844     -3042.3046     -375.08949      62954.58       39.781007      39.781007      39.781007      1.3523245      3389.2109      2415.9806      2701.6048    
    460000   460000         599.77841      2761.5305      11322.305      8786.8669      8830.0702     -43.203276      3348.5756      4946.1489     -2561.9747      30.800649     -619.39954     -2133.3298     -3054.0245     -375.08949      62954.58       39.781007      39.781007      39.781007      1.3523245      1915.0988      3414.0324      2955.4602    
    461000   461000         618.98979      1438.9476      10594.668      9273.5303      9112.9043      160.62594      3588.2918      4923.7439     -2532.6792      30.425882     -646.34416     -2151.522      -3051.2902     -375.08949      62954.58       39.781007      39.781007      39.781007      1.3523245      2397.9828      2210.6757     -291.81569    
    462000   462000         597.84083      3991.7364      12572.717      8907.7923      8801.5447      106.2475       3534.1104      4853.5233     -2532.5556      29.818495     -582.72506     -2148.8532     -3047.0709     -375.08949      62954.58       39.781007      39.781007      39.781007      1.3523245      4212.1518      2502.6668      5260.3906    
    463000   463000         600.83318      4796.2738      13371.442      8967.8491      8845.5987      122.25044      3442.8355      4915.8873     -2532.177       29.293011     -552.48658     -2135.9848     -3045.117      -375.08949      62954.58       39.781007      39.781007      39.781007      1.3523245      4766.8873      3945.4149      5676.5192    
    464000   464000         592.9631       3151.3902      11802.654      8909.2749      8729.7338      179.5411       3521.2511      5000.6208     -2557.8176      33.578863     -626.38887     -2139.7206     -3051.9827     -375.08949      62954.58       39.781007      39.781007      39.781007      1.3523245      4236.6315      4806.7084      410.83074    
    465000   465000         612.23232      2748.0351      11571.998      9048.9499      9013.4195      35.530448      3406.7566      4955.1081     -2550.6978      30.868079     -606.872       -2147.7923     -3051.8402     -375.08949      62954.58       39.781007      39.781007      39.781007      1.3523245      210.11077      4403.5278      3630.4667    
    466000   466000         615.5964       2718.4903      11636.16       9140.2376      9062.9462      77.291461      3454.639       4855.1291     -2474.9744      28.612939     -590.84547     -2141.275      -3053.9948     -375.08949      62954.58       39.781007      39.781007      39.781007      1.3523245      1334.9205      3538.3393      3282.211     
    467000   467000         610.24816      3176.1624      11992.378      9076.2548      8984.2082      92.046683      3403.2734      4974.894      -2528.9057      30.816045     -597.98492     -2139.6059     -3050.4402     -375.08949      62954.58       39.781007      39.781007      39.781007      1.3523245      2434.2002      4266.3966      2827.8903    
    468000   468000         620.671        4371.5689      13021.316      9007.6561      9137.6555     -129.99944      3445.0417      4737.1595     -2565.8932      31.098057     -566.90963     -2151.2348     -3059.2611     -375.08949      62954.58       39.781007      39.781007      39.781007      1.3523245      4252.0885      4505.2106      4357.4075    
    469000   469000         606.04846      3708.435       12348.359      8943.5415      8922.3792      21.162287      3459.4858      4850.3247     -2537.5656      29.29196      -583.8522      -2142.2598     -3054.2626     -375.08949      62954.58       39.781007      39.781007      39.781007      1.3523245      4506.8485      4293.819       2324.6375    
    470000   470000         613.99018      3782.2098      12668.236      9195.6828      9039.299       156.38379      3469.9242      4923.3347     -2582.152       30.945423     -476.84275     -2152.5054     -3056.3204     -375.08949      62954.58       39.781007      39.781007      39.781007      1.3523245      2892.1057      5144.362       3310.1617    
    471000   471000         600.91799      2771.9574      11632.028      9087.0164      8846.8474      240.16902      3456.0408      5040.4971     -2587.3169      33.731562     -496.28192     -2155.2441     -3051.2575     -375.08949      62954.58       39.781007      39.781007      39.781007      1.3523245      3187.6388      2033.7996      3094.4338    
    472000   472000         603.70074      3709.8031      12539.358      9133.2841      8887.8155      245.4686       3503.7611      5067.8264     -2565.0131      32.760635     -581.73887     -2156.3695     -3055.7581     -375.08949      62954.58       39.781007      39.781007      39.781007      1.3523245      6481.1615      1178.6655      3469.5823    
    473000   473000         606.27889      1511.6878      10453.207      9065.2838      8925.7717      139.51215      3474.5242      4991.2997     -2580.6316      31.335142     -577.52338     -2145.4459     -3054.046      -375.08949      62954.58       39.781007      39.781007      39.781007      1.3523245      432.50706      2641.7279      1460.8284    
    474000   474000         615.77118      1657.6462      10631.583      9109.6517      9065.5193      44.132425      3493.8691      4956.6611     -2577.2741      31.239302     -682.7827      -2126.5394     -3051.0409     -375.08949      62954.58       39.781007      39.781007      39.781007      1.3523245      1371.3703      1539.2195      2062.3488    
    475000   475000         602.10428      4984.966       13553.875      8977.0382      8864.3122      112.72593      3403.3483      4940.4997     -2544.2341      30.847716     -509.57832     -2153.4345     -3054.7229     -375.08949      62954.58       39.781007      39.781007      39.781007      1.3523245      4340.4604      4235.7511      6378.6865    
    476000   476000         619.64366      2676.2722      11742.069      9284.9089      9122.5307      162.37813      3524.4949      4988.8205     -2565.2037      32.130193     -630.16314     -2134.8511     -3052.8495     -375.08949      62954.58       39.781007      39.781007      39.781007      1.3523245      2080.0797      3105.5179      2843.2191    
    477000   477000         623.90338      3317.415       12464.063      9418.2512      9185.2434      233.00782      3464.7599      5035.5431     -2555.3838      32.262991     -587.60828     -2112.7227     -3043.8433     -375.08949      62954.58       39.781007      39.781007      39.781007      1.3523245      5193.8478      2668.3581      2090.0391    
    478000   478000         618.17164      3971.5113      13052.66       9406.3047      9100.8593      305.44537      3582.7367      4963.93       -2532.3629      31.86144      -551.16864     -2137.7181     -3051.8332     -375.08949      62954.58       39.781007      39.781007      39.781007      1.3523245      3080.7734      3621.4853      5212.2752    
    479000   479000         614.53135      3103.6238      12107.777      9258.2527      9047.2663      210.98638      3420.3928      4994.5219     -2532.6533      30.525399     -519.95476     -2133.5756     -3048.27       -375.08949      62954.58       39.781007      39.781007      39.781007      1.3523245      2797.7333      3592.8791      2920.259     
    480000   480000         620.13792      5065.7472      14024.457      9373.4531      9129.8074      243.64574      3446.646       4994.0032     -2529.9859      30.996205     -524.62909     -2123.2059     -3050.1788     -375.08949      62954.58       39.781007      39.781007      39.781007      1.3523245      7082.0017      4006.0512      4109.1886    
    481000   481000         626.41505      1984.8777      11344.21       9521.8381      9222.2207      299.6174       3490.4233      5174.0196     -2527.2049      32.718403     -677.77205     -2134.8409     -3057.726      -375.08949      62954.58       39.781007      39.781007      39.781007      1.3523245      1170.8482      1772.7338      3011.051     
    482000   482000         609.49023      2818.7119      11798.617      9210.6783      8973.0497      237.62857      3441.6421      5094.999      -2531.5668      31.830289     -614.43847     -2134.9962     -3049.8413     -375.08949      62954.58       39.781007      39.781007      39.781007      1.3523245      3801.8793      1762.864       2891.3923    
    483000   483000         618.2517       1906.0999      11134.807      9384.7633      9102.038       282.72529      3553.5254      5036.3237     -2541.7597      31.638715     -613.46091     -2124.1855     -3059.3564     -375.08949      62954.58       39.781007      39.781007      39.781007      1.3523245      2409.9203      2520.6205      787.75883    
    484000   484000         615.11302      3155.5004      12117.195      9220.0417      9055.8298      164.21189      3483.0123      4946.5844     -2517.1383      29.899028     -578.72515     -2143.5906     -3055.8299     -375.08949      62954.58       39.781007      39.781007      39.781007      1.3523245      2680.7681      4414.6151      2371.1178    
    485000   485000         604.07591      2975.1113      11948.874      9217.3406      8893.3389      324.00171      3499.4776      5040.957      -2505.04        31.059082     -561.68793     -2134.5956     -3046.1685     -375.08949      62954.58       39.781007      39.781007      39.781007      1.3523245      5678.0343      323.60858      2923.691     
    486000   486000         636.05641      3369.4611      12969.111      9875.5142      9364.1629      511.35133      3638.1361      5067.9023     -2496.8846      31.404624     -559.13261     -2117.8246     -3052.2499     -375.08949      62954.58       39.781007      39.781007      39.781007      1.3523245      2819.1271      5034.3306      2254.9256    
    487000   487000         617.26772      2124.278       11407.307      9456.9482      9087.5517      369.39648      3543.5569      5066.6452     -2524.924       32.478094     -576.31625     -2130.746      -3041.2975     -375.08949      62954.58       39.781007      39.781007      39.781007      1.3523245      3861.1101      3416.503      -904.77928    
    488000   488000         616.03436      2138.1579      11377.163      9414.0603      9069.3938      344.66642      3446.8062      5054.836      -2496.6466      30.953181     -527.91988     -2124.4221     -3038.9404     -375.08949      62954.58       39.781007      39.781007      39.781007      1.3523245      1016.6158      2716.0665      2681.7914    
    489000   489000         621.0387       3950.4596      13146.949      9519.9211      9143.0689      376.85222      3509.3513      5084.1133     -2504.4854      32.389258     -599.00487     -2106.0422     -3039.4692     -375.08949      62954.58       39.781007      39.781007      39.781007      1.3523245      3966.1279      5064.4084      2820.8425    
    490000   490000         620.97078      5292.4223      14193.809      9334.6875      9142.069       192.61849      3400.4187      4991.9545     -2519.6974      31.533823     -539.60715     -2130.8696     -3041.1144     -375.08949      62954.58       39.781007      39.781007      39.781007      1.3523245      5816.7901      4090.4694      5970.0075    
    491000   491000         621.54686      2852.7772      12231.972      9612.7569      9150.5501      462.20681      3590.5623      5051.6582     -2458.09        32.165828     -598.61579     -2113.4534     -3042.0204     -375.08949      62954.58       39.781007      39.781007      39.781007      1.3523245      4351.3154      2845.8535      1361.1629    
    492000   492000         635.91238      2918.2829      12478.627      9799.2693      9362.0424      437.22688      3508.8723      5045.7802     -2481.6734      29.260965     -517.04437     -2112.0578     -3035.911      -375.08949      62954.58       39.781007      39.781007      39.781007      1.3523245      1281.6343      3357.0657      4116.1489    
    493000   493000         630.15097      3425.5639      12815.246      9670.1397      9277.2217      392.918        3646.8905      4992.4791     -2535.2987      32.125363     -555.77322     -2135.6602     -3051.8449     -375.08949      62954.58       39.781007      39.781007      39.781007      1.3523245      4647.2391      4267.6686      1361.7841    
    494000   494000         625.11796      1785.3939      11063.299      9424.0787      9203.1247      220.95404      3615.5865      4958.118      -2545.2155      31.239481     -629.71481     -2146.0337     -3063.026      -375.08949      62954.58       39.781007      39.781007      39.781007      1.3523245      3890.0225      1315.7558      150.40348    
    495000   495000         615.72366      4091.5323      13233.285      9476.7347      9064.8197      411.91497      3507.304       5110.7542     -2501.7485      31.009919     -552.38541     -2127.8434     -3055.1758     -375.08949      62954.58       39.781007      39.781007      39.781007      1.3523245      3978.1753      5202.3502      3094.0715    
    496000   496000         634.63257      4798.6846      14225.225      9819.4184      9343.2008      476.21759      3548.5908      5075.3326     -2504.0919      31.070233     -484.07508     -2143.0675     -3047.5416     -375.08949      62954.58       39.781007      39.781007      39.781007      1.3523245      5203.3251      4257.8619      4934.8668    
    497000   497000         628.91375      1911.7559      11401.583      9646.3464      9259.0071      387.33933      3649.1497      5013.5611     -2478.5554      30.633141     -629.08329     -2144.5677     -3053.7982     -375.08949      62954.58       39.781007      39.781007      39.781007      1.3523245      4409.6608      78.76185       1246.8451    
    498000   498000         638.27713      3121.5773      12704.487      9838.4795      9396.8569      441.62263      3589.9452      5139.7768     -2541.2684      31.627012     -580.83029     -2145.6533     -3051.9743     -375.08949      62954.58       39.781007      39.781007      39.781007      1.3523245      5954.5375      64.808736      3345.3857    
    499000   499000         624.64329      3158.637       12479.651      9579.6175      9196.1365      383.48103      3582.6113      5010.0608     -2496.4969      32.104184     -555.17267     -2142.8394     -3046.7862     -375.08949      62954.58       39.781007      39.781007      39.781007      1.3523245      2188.4738      2324.8203      4962.6168    
    500000   500000         632.86005      4921.9001      14530.015      10011.081      9317.1055      693.97522      3721.3309      5104.12       -2493.1398      32.295283     -493.86806     -2131.2865     -3045.4765     -375.08949      62954.58       39.781007      39.781007      39.781007      1.3523245      5395.2919      4028.4104      5341.9981    
Loop time of 1153.08 on 1 procs for 500000 steps with 4940 atoms

Performance: 37.465 ns/day, 0.641 hours/ns, 433.620 timesteps/s, 2.142 Matom-step/s
99.9% CPU use with 1 MPI tasks x 1 OpenMP threads

MPI task timing breakdown:
Section |  min time  |  avg time  |  max time  |%varavg| %total
---------------------------------------------------------------
Pair    | 7.5974     | 7.5974     | 7.5974     |   0.0 |  0.66
Bond    | 558.78     | 558.78     | 558.78     |   0.0 | 48.46
Kspace  | 385.01     | 385.01     | 385.01     |   0.0 | 33.39
Neigh   | 109.31     | 109.31     | 109.31     |   0.0 |  9.48
Comm    | 13.811     | 13.811     | 13.811     |   0.0 |  1.20
Output  | 4.8511     | 4.8511     | 4.8511     |   0.0 |  0.42
Modify  | 59.587     | 59.587     | 59.587     |   0.0 |  5.17
Other   |            | 14.14      |            |       |  1.23

Nlocal:           4940 ave        4940 max        4940 min
Histogram: 1 0 0 0 0 0 0 0 0 0
Nghost:          14434 ave       14434 max       14434 min
Histogram: 1 0 0 0 0 0 0 0 0 0
Neighs:              0 ave           0 max           0 min
Histogram: 1 0 0 0 0 0 0 0 0 0
FullNghs:  2.45883e+06 ave 2.45883e+06 max 2.45883e+06 min
Histogram: 1 0 0 0 0 0 0 0 0 0

Total # of neighbors = 2458828
Ave neighs/atom = 497.73846
Ave special neighs/atom = 5.9797571
Neighbor list builds = 17833
Dangerous builds = 0
System init for write_data ...
PPPM Kokkos initialization ...
  using 12-bit tables for long-range coulomb
  G vector (1/distance) = 0.29644941
  grid = 27 27 27
  stencil order = 5
  estimated absolute RMS force accuracy = 0.00035440589
  estimated relative force accuracy = 1.0672828e-06
  using double precision cuFFT
  3d grid and FFT values/proc = 39304 19683
Generated 6 of 6 mixed pair_coeff terms from sixthpower/sixthpower mixing rule
System init for write_restart ...
PPPM Kokkos initialization ...
  using 12-bit tables for long-range coulomb
  G vector (1/distance) = 0.29644941
  grid = 27 27 27
  stencil order = 5
  estimated absolute RMS force accuracy = 0.00035440589
  estimated relative force accuracy = 1.0672828e-06
  using double precision cuFFT
  3d grid and FFT values/proc = 39304 19683
Generated 6 of 6 mixed pair_coeff terms from sixthpower/sixthpower mixing rule
STAGE COMPLETE: NVT T=300.0->630.0K steps=500000
