Authorization required, but no authorization protocol specified

Authorization required, but no authorization protocol specified

Authorization required, but no authorization protocol specified

Authorization required, but no authorization protocol specified

LAMMPS (22 Jul 2025 - Update 3)
KOKKOS mode with Kokkos version 4.6.2 is enabled
  will use up to 1 GPU(s) per node
  using 1 OpenMP thread(s) per MPI task
Reading data file ...
  orthogonal box = (0 0 0) to (45.361593 45.361593 45.361593)
  1 by 1 by 1 MPI processor grid
  reading atoms ...
  3020 atoms
  scanning bonds ...
  4 = max bonds/atom
  scanning angles ...
  12 = max angles/atom
  scanning dihedrals ...
  24 = max dihedrals/atom
  orthogonal box = (0 0 0) to (45.361593 45.361593 45.361593)
  1 by 1 by 1 MPI processor grid
  reading bonds ...
  3010 bonds
  reading angles ...
  6000 angles
  reading dihedrals ...
  8910 dihedrals
Finding 1-2 1-3 1-4 neighbors ...
  special bond factors lj:    0        0        0.5     
  special bond factors coul:  0        0        0.5     
     4 = max # of 1-2 neighbors
     6 = max # of 1-3 neighbors
    12 = max # of 1-4 neighbors
    16 = max # of special neighbors
  special bonds CPU = 0.003 seconds
  read_data CPU = 0.068 seconds
PPPM Kokkos initialization ...
  using 12-bit tables for long-range coulomb
  G vector (1/distance) = 0.32720492
  grid = 45 45 45
  stencil order = 5
  estimated absolute RMS force accuracy = 0.00028988744
  estimated relative force accuracy = 8.7298742e-07
  using double precision cuFFT
  3d grid and FFT values/proc = 140608 91125
Generated 3 of 3 mixed pair_coeff terms from geometric mixing rule
Neighbor list info ...
  update: every = 1 steps, delay = 0 steps, check = yes
  max neighbors/atom: 4000, page size: 100000
  master list distance cutoff = 11.5
  ghost atom cutoff = 11.5
  binsize = 11.5, bins = 4 4 4
  1 neighbor lists, perpetual/occasional/extra = 1 0 0
  (1) pair lj/cut/coul/long/kk, perpetual
      attributes: full, newton off, kokkos_device
      pair build: full/bin/kk/device
      stencil: full/bin/3d
      bin: kk/device
Setting up cg/kk style minimization ...
  Unit style    : real
  Current step  : 0
WARNING: Fix MINIMIZE/kk not compatible with sending data in Kokkos communication (src/KOKKOS/comm_kokkos.cpp:767)
WARNING: Fix with atom-based arrays not compatible with sending data in Kokkos communication, switching to classic exchange/border communication (src/KOKKOS/comm_kokkos.cpp:780)
WARNING: Fix MINIMIZE/kk not compatible with Kokkos sorting on device (src/KOKKOS/atom_kokkos.cpp:212)
WARNING: Fix with atom-based arrays not compatible with Kokkos sorting on device, switching to classic host sorting (src/KOKKOS/atom_kokkos.cpp:218)
Per MPI rank memory allocation (min/avg/max) = 33.19 | 33.19 | 33.19 Mbytes
   Step          Time           Temp          Press          TotEng         PotEng         E_bond        E_angle        E_dihed        E_impro         E_vdwl         E_coul         E_long         Volume           Lx             Ly             Lz          Density    
         0   0              0              6349.3605      3757.1188      3757.1188      1205.4245      2357.4523     -3441.8524      0              1966.7286      15977.133     -14307.767      93339.376      45.361593      45.361593      45.361593      0.88999998   
       500   500            0             -352.38532     -1082.2939     -1082.2939      259.85299      564.42847     -3904.1039      0              538.65059      15762.123     -14303.245      93339.376      45.361593      45.361593      45.361593      0.88999998   
      1000   1000           0             -276.98224     -1190.3716     -1190.3716      253.65543      557.90903     -3925.9768      0              478.51807      15773.534     -14328.011      93339.376      45.361593      45.361593      45.361593      0.88999998   
      1500   1500           0             -279.45545     -1234.2186     -1234.2186      252.24437      554.23617     -3940.3335      0              461.54549      15772.73      -14334.641      93339.376      45.361593      45.361593      45.361593      0.88999998   
      2000   2000           0             -286.0096      -1249.3661     -1249.3661      252.69615      557.61355     -3944.0554      0              444.53308      15782.126     -14342.279      93339.376      45.361593      45.361593      45.361593      0.88999998   
      2500   2500           0             -279.64293     -1265.1949     -1265.1949      251.69122      561.7039      -3944.0204      0              427.74853      15785.497     -14347.815      93339.376      45.361593      45.361593      45.361593      0.88999998   
      3000   3000           0             -213.73889     -1277.4211     -1277.4211      248.65626      554.71663     -3941.4808      0              425.20058      15787.972     -14352.486      93339.376      45.361593      45.361593      45.361593      0.88999998   
      3246   3246           0             -220.02896     -1279.9941     -1279.9941      248.87581      556.47949     -3942.2269      0              421.55792      15788.675     -14353.355      93339.376      45.361593      45.361593      45.361593      0.88999998   
Loop time of 12.3392 on 1 procs for 3246 steps with 3020 atoms

100.0% CPU use with 1 MPI tasks x 1 OpenMP threads

Minimization stats:
  Stopping criterion = energy tolerance
  Energy initial, next-to-last, final = 
      3757.11875172732  -1279.99300884731  -1279.99412155348
  Force two-norm initial, final = 1850.0374 2.5404418
  Force max component initial, final = 110.30663 0.37066423
  Final line search alpha, max atom move = 0.035099509 0.013010132
  Iterations, force evaluations = 3246 6490

MPI task timing breakdown:
Section |  min time  |  avg time  |  max time  |%varavg| %total
---------------------------------------------------------------
Pair    | 2.8688     | 2.8688     | 2.8688     |   0.0 | 23.25
Bond    | 0.83333    | 0.83333    | 0.83333    |   0.0 |  6.75
Kspace  | 7.3668     | 7.3668     | 7.3668     |   0.0 | 59.70
Neigh   | 0.38954    | 0.38954    | 0.38954    |   0.0 |  3.16
Comm    | 0.068757   | 0.068757   | 0.068757   |   0.0 |  0.56
Output  | 0.011242   | 0.011242   | 0.011242   |   0.0 |  0.09
Modify  | 0          | 0          | 0          |   0.0 |  0.00
Other   |            | 0.8008     |            |       |  6.49

Nlocal:           3020 ave        3020 max        3020 min
Histogram: 1 0 0 0 0 0 0 0 0 0
Nghost:           7086 ave        7086 max        7086 min
Histogram: 1 0 0 0 0 0 0 0 0 0
Neighs:              0 ave           0 max           0 min
Histogram: 1 0 0 0 0 0 0 0 0 0
FullNghs:       762010 ave      762010 max      762010 min
Histogram: 1 0 0 0 0 0 0 0 0 0

Total # of neighbors = 762010
Ave neighs/atom = 252.32119
Ave special neighs/atom = 11.86755
Neighbor list builds = 59
Dangerous builds = 0
System init for write_data ...
PPPM Kokkos initialization ...
  using 12-bit tables for long-range coulomb
  G vector (1/distance) = 0.32720492
  grid = 45 45 45
  stencil order = 5
  estimated absolute RMS force accuracy = 0.00028988744
  estimated relative force accuracy = 8.7298742e-07
  using double precision cuFFT
  3d grid and FFT values/proc = 140608 91125
Generated 3 of 3 mixed pair_coeff terms from geometric mixing rule
System init for write_restart ...
PPPM Kokkos initialization ...
  using 12-bit tables for long-range coulomb
  G vector (1/distance) = 0.32720492
  grid = 45 45 45
  stencil order = 5
  estimated absolute RMS force accuracy = 0.00028988744
  estimated relative force accuracy = 8.7298742e-07
  using double precision cuFFT
  3d grid and FFT values/proc = 140608 91125
Generated 3 of 3 mixed pair_coeff terms from geometric mixing rule
STAGE COMPLETE: minimization
