LAMMPS data file via write_data, version 22 Jul 2025, timestep = 0, units = real

8 atoms
3 atom types
7 bonds
3 bond types
12 angles
4 angle types
9 dihedrals
2 dihedral types

-6.3378347121763845 6.3378347121763845 xlo xhi
-6.3378347121763845 6.3378347121763845 ylo yhi
-6.3378347121763845 6.3378347121763845 zlo zhi

Masses

1 1.008
2 12.011
3 18.998

Pair Coeffs # lj/charmm/coul/charmm

1 0.0208 2.24382 0.0208 2.24382
2 0.1078 3.39771 0.1078 3.39771
3 0.0832 3.03422 0.0832 3.03422

Bond Coeffs # harmonic

1 377.33 1.096
2 352.65 1.35
3 232.52 1.538

Angle Coeffs # harmonic

1 66.607 108.79
2 46.73 110.22
3 121.555 107.36
4 87.947 109.24

Dihedral Coeffs # fourier

1 1 0.155556 3 0
2 1 0.1211 3 0

Atoms # full

6 1 1 0.1101213776735715 -1.1651297656273123 -0.009303632786057501 -1.0554316041979435 0 0 0
5 1 2 0.2977650304672564 -0.7751543139387745 -0.03465831786349178 -0.03204292060572618 0 0 0
7 1 3 -0.203943204070414 -1.220388052058832 -1.1560712105532078 0.5789129603909794 0 0 0
8 1 3 -0.203943204070414 -1.26523590575826 1.0267659668616722 0.650452240863293 0 0 0
1 1 1 0.1101213776735715 1.1534442852692888 -0.9526866678520228 -0.48276829999144155 0 0 0
2 1 2 0.2977650304672564 0.7746965669642848 -0.018965173269112904 -0.05337939155971719 0 0 0
3 1 3 -0.203943204070414 1.218540022399248 1.0180878095925467 -0.79960092504212 0 0 0
4 1 3 -0.203943204070414 1.2792271627503573 0.12683122586967413 1.1938579401426763 0 0 0

Velocities

6 0 0 0
5 0 0 0
7 0 0 0
8 0 0 0
1 0 0 0
2 0 0 0
3 0 0 0
4 0 0 0

Bonds

1 1 5 6
2 2 5 7
3 2 5 8
4 1 1 2
5 2 2 3
6 2 2 4
7 3 2 5

Angles

1 2 2 5 6
2 4 2 5 7
3 4 2 5 8
4 1 6 5 7
5 1 6 5 8
6 3 7 5 8
7 1 1 2 3
8 1 1 2 4
9 2 1 2 5
10 3 3 2 4
11 4 3 2 5
12 4 4 2 5

Dihedrals

1 1 1 2 5 6
2 1 1 2 5 7
3 1 1 2 5 8
4 1 3 2 5 6
5 2 3 2 5 7
6 2 3 2 5 8
7 1 4 2 5 6
8 2 4 2 5 7
9 2 4 2 5 8
