Generated by RadonPy

8 atoms
3 atom types
7 bonds
3 bond types
12 angles
4 angle types
9 dihedrals
2 dihedral types

-6.3378347121763845e+00 6.3378347121763845e+00 xlo xhi
-6.3378347121763845e+00 6.3378347121763845e+00 ylo yhi
-6.3378347121763845e+00 6.3378347121763845e+00 zlo zhi

Masses

    1	1.008000	# h2,0
    2	12.011000	# c3f,0
    3	18.998000	# f,0

Pair Coeffs

    1	0.020800	2.243818	# h2,0
    2	0.107800	3.397710	# c3f,0
    3	0.083200	3.034223	# f,0

Bond Coeffs

    1	377.330000	1.096000	# c3,h2
    2	352.650000	1.350000	# c3,f
    3	232.520000	1.538000	# c3,c3

Angle Coeffs

    1	66.607000	108.790000	# f,c3,h2
    2	46.730000	110.220000	# c3,c3,h2
    3	121.555000	107.360000	# f,c3,f
    4	87.947000	109.240000	# c3,c3,f

Dihedral Coeffs

    1	1	0.155556	3	0.000000	# X,c3,c3,X
    2	1	0.121100	3	0.000000	# f,c3f,c3f,f

Atoms

    1	1	1	 1.1012137767357148e-01	 1.1019840807869197e+00	-9.4873674791261864e-01	-5.4465831635740036e-01
    2	1	2	 2.9776503046725639e-01	 7.7327228338761411e-01	-2.1311319904094760e-02	-6.0553321019820583e-02
    3	1	3	-2.0394320407041397e-01	 1.1568310808951590e+00	 1.1106107329371138e+00	-7.3266092648108738e-01
    4	1	3	-2.0394320407041397e-01	 1.2203643594190101e+00	 8.7943241276345185e-03	 1.2459279172717506e+00
    5	1	2	 2.9776503046725639e-01	-7.5766874597628864e-01	-2.3442479055763618e-02	-3.6405460311887482e-02
    6	1	1	 1.1012137767357148e-01	-1.1836199723050722e+00	-9.1087035602847741e-02	-1.0401173166202731e+00
    7	1	3	-2.0394320407041397e-01	-1.1110072322450548e+00	-1.1645307482571401e+00	 6.4066195542736293e-01
    8	1	3	-2.0394320407041397e-01	-1.2001558539622876e+00	 1.1297032736677166e+00	 5.2780546809135553e-01

Bonds

    1	1	1	2
    2	2	2	3
    3	2	2	4
    4	3	2	5
    5	1	5	6
    6	2	5	7
    7	2	5	8

Angles

    1	1	1	2	3
    2	1	1	2	4
    3	2	1	2	5
    4	3	3	2	4
    5	4	3	2	5
    6	4	4	2	5
    7	2	2	5	6
    8	4	2	5	7
    9	4	2	5	8
   10	1	6	5	7
   11	1	6	5	8
   12	3	7	5	8

Dihedrals

    1	1	1	2	5	6
    2	1	1	2	5	7
    3	1	1	2	5	8
    4	1	3	2	5	6
    5	2	3	2	5	7
    6	2	3	2	5	8
    7	1	4	2	5	6
    8	2	4	2	5	7
    9	2	4	2	5	8
