LAMMPS (22 Jul 2025 - Update 3)
KOKKOS mode with Kokkos version 4.6.2 is enabled
  will use up to 1 GPU(s) per node
  using 1 OpenMP thread(s) per MPI task
Reading data file ...
  orthogonal box = (4.1753741 4.1753741 4.1753741) to (46.562606 46.562606 46.562606)
  1 by 1 by 1 MPI processor grid
  reading atoms ...
  6140 atoms
  reading velocities ...
  6140 velocities
  scanning bonds ...
  3 = max bonds/atom
  scanning angles ...
  9 = max angles/atom
  scanning dihedrals ...
  18 = max dihedrals/atom
  scanning impropers ...
  4 = max impropers/atom
  orthogonal box = (4.1753741 4.1753741 4.1753741) to (46.562606 46.562606 46.562606)
  1 by 1 by 1 MPI processor grid
  reading bonds ...
  6670 bonds
  reading angles ...
  10620 angles
  reading dihedrals ...
  15820 dihedrals
  reading impropers ...
  3420 impropers
Finding 1-2 1-3 1-4 neighbors ...
  special bond factors lj:    0        0        1       
  special bond factors coul:  0        0        1       
     3 = max # of 1-2 neighbors
     6 = max # of 1-3 neighbors
     9 = max # of special neighbors
  special bonds CPU = 0.003 seconds
  read_data CPU = 0.188 seconds
PPPM Kokkos initialization ...
  using 12-bit tables for long-range coulomb
  G vector (1/distance) = 0.30560138
  grid = 32 32 32
  stencil order = 5
  estimated absolute RMS force accuracy = 0.00040347162
  estimated relative force accuracy = 1.2150428e-06
  using double precision cuFFT
  3d grid and FFT values/proc = 59319 32768
Generated 21 of 21 mixed pair_coeff terms from sixthpower/sixthpower mixing rule
Neighbor list info ...
  update: every = 1 steps, delay = 0 steps, check = yes
  max neighbors/atom: 4000, page size: 100000
  master list distance cutoff = 11.5
  ghost atom cutoff = 11.5
  binsize = 11.5, bins = 4 4 4
  1 neighbor lists, perpetual/occasional/extra = 1 0 0
  (1) pair lj/class2/coul/long/kk, perpetual
      attributes: full, newton off, kokkos_device
      pair build: full/bin/kk/device
      stencil: full/bin/3d
      bin: kk/device
Setting up Verlet run ...
  Unit style    : real
  Current step  : 0
  Time step     : 1
Per MPI rank memory allocation (min/avg/max) = 28.39 | 28.39 | 28.39 Mbytes
   Step          Time           Temp          Press         Enthalpy        TotEng         KinEng         PotEng         E_bond        E_angle        E_dihed        E_impro         E_vdwl         E_coul         E_long         E_tail         Volume           Lx             Ly             Lz          Density          Pxx            Pyy            Pzz      
         0   0              542.43194     -1183.2509      27025.737      28339.927      9926.0667      18413.86       4464.5452      5130.862       5000.5034      557.4266      -424.26302      11066.014     -7381.2281     -522.10011      76156.184      42.387232      42.387232      42.387232      1.1319788     -1653.6509     -1069.5888     -826.51317    
      1000   1000           542.24106     -383.79935      27862.267      28284.657      9922.5737      18362.083      4299.9368      5202.5964      5033.9723      532.86052     -400.4624       11079.954     -7386.7743     -526.89777      75462.745      42.258188      42.258188      42.258188      1.1423807      463.95918     -438.52678     -1176.8305    
      2000   2000           545.75619     -1979.6529      26368.787      28543.792      9986.8977      18556.894      4447.6782      5220.4859      5134.9265      537.76727     -478.94984      11078.044     -7383.0581     -527.79324      75334.712      42.234275      42.234275      42.234275      1.1443222     -501.81034     -4171.4015     -1265.747     
      3000   3000           539.49979     -401.15861      27814.552      28261.654      9872.4107      18389.243      4341.0268      5215.992       5025.4282      552.59282     -447.70225      11078.285     -7376.3788     -520.28902      76421.278      42.436357      42.436357      42.436357      1.1280521     -939.178       -579.1201       314.82227    
      4000   4000           551.42257     -2101.0417      26256.002      28575.936      10090.588      18485.348      4464.9671      5177.3305      5071.2238      574.08248     -485.05572      11063.385     -7380.5849     -525.16254      75712.087      42.304679      42.304679      42.304679      1.1386185     -2750.6659     -1345.1559     -2207.3033    
      5000   5000           540.41445     -1671.1054      26611.129      28448.366      9889.1483      18559.218      4259.4157      5357.5409      5187.4674      548.21791     -510.09115      11092.594     -7375.9269     -527.44054      75385.088      42.243687      42.243687      42.243687      1.1435575     -3403.9492     -1139.6702     -469.69687    
      6000   6000           541.53633     -619.63973      27649.404      28337.376      9909.6779      18427.698      4403.0099      5179.6354      5074.7317      537.57163     -470.87866      11088.495     -7384.8668     -522.27979      76129.984      42.382371      42.382371      42.382371      1.1323683      214.72018     -557.73131     -1515.9081    
      7000   7000           547.6218       327.30933      28831.532      28468.887      10021.037      18447.85       4466.5567      5183.3625      5010.2551      553.00913     -465.93089      11084.311     -7383.7132     -523.37283      75970.99       42.352846      42.352846      42.352846      1.1347382     -1414.6388      1523.053       873.51383    
      8000   8000           537.85897     -1115.5961      27172.946      28403.914      9842.385       18561.529      4469.5074      5351.5306      4921.6579      584.85442     -474.95021      11090.482     -7381.5528     -525.52698      75659.583      42.294898      42.294898      42.294898      1.1394087     -925.357       -2798.1356      376.70436    
      9000   9000           547.86192      1094.4496      29802.183      28584.801      10025.431      18559.37       4488.3253      5258.5405      4963.9688      550.83334     -398.83994      11074.716     -7378.1742     -521.31894      76270.299      42.408393      42.408393      42.408393      1.1302851      1604.9059     -675.42356      2353.8665    
     10000   10000          539.48889     -1423.9416      26633.283      28217.162      9872.2112      18344.951      4443.3435      5159.2624      4957.2615      544.54841     -469.1298       11091.667     -7382.002      -521.32077      76270.033      42.408344      42.408344      42.408344      1.130289       190.25817     -2721.2802     -1740.8028    
     11000   11000          539.1881       1505.8394      29951.093      28296.476      9866.707       18429.769      4451.5557      5302.8669      4861.097       555.8403      -417.73612      11064.238     -7388.0932     -527.73493      75343.037      42.235831      42.235831      42.235831      1.1441958      3576.9567      1161.7367     -221.17527    
     12000   12000          530.69439      1173.3641      29370.182      28077.563      9711.2791      18366.284      4525.8671      5186.2608      4875.6771      550.44642     -438.54679      11052.831     -7386.252      -526.37726      75537.367      42.272112      42.272112      42.272112      1.1412522      201.89165      1417.547       1900.6537    
     13000   13000          546.39695      816.94075      29371.914      28478.858      9998.6231      18480.235      4629.148       5194.8792      4916.7463      562.61532     -516.17278      11075.069     -7382.05       -530.45278      74957.006      42.163573      42.163573      42.163573      1.1500884     -872.27962      2045.2871      1277.8148    
     14000   14000          553.02177     -211.90712      28189.362      28422.72       10119.852      18302.867      4396.4893      5182.3426      4911.5956      544.16298     -428.2438       11082.001     -7385.48       -526.57205      75509.424      42.266899      42.266899      42.266899      1.1416745     -624.34784     -944.11567      932.74214    
     15000   15000          535.65273      53.883806      28256.428      28197.451      9802.0126      18395.439      4577.0171      5161.5992      4907.8414      534.14982     -482.62079      11083.024     -7385.5719     -529.80043      75049.302      42.180872      42.180872      42.180872      1.148674       656.22575      359.40231     -853.97665    
     16000   16000          545.11388      1166.5808      29884.55       28587.941      9975.1441      18612.797      4490.9081      5288.3373      4962.8544      540.20343     -382.94825      11096.071     -7382.6287     -521.72387      76211.103      42.397419      42.397419      42.397419      1.131163       4087.8161     -1588.584       1000.5103    
     17000   17000          547.94348     -957.74981      27356.615      28426.368      10026.923      18399.445      4442.5577      5243.0072      4858.2347      546.12956     -397.31418      11085.521     -7378.6906     -519.16225      76587.14       42.467036      42.467036      42.467036      1.1256091     -360.14894      148.04033     -2661.1408    
     18000   18000          545.10555      1549.8112      29832.623      28125.521      9974.9917      18150.529      4458.4214      5107.4426      4758.8815      546.17424     -408.01877      11068.488     -7380.8602     -526.44633      75527.456      42.270263      42.270263      42.270263      1.1414019      1977.3613      941.67749      1730.3948    
     19000   19000          550.33943      367.0059       28882.684      28478.945      10070.767      18408.178      4467.5313      5205.231       4973.9193      561.94195     -495.3073       11070.884     -7376.0225     -527.11813      75431.198      42.252298      42.252298      42.252298      1.1428585     -1486.0312      1272.7438      1314.3051    
     20000   20000          548.94004     -66.162641      28647.874      28721.77       10045.16       18676.61       4467.7052      5224.0813      5065.2554      582.91227     -374.42075      11091.255     -7380.178      -519.19589      76582.178      42.466119      42.466119      42.466119      1.125682      -1572.6866      295.88124      1078.3175    
     21000   21000          541.41083     -642.54699      27607          28317.252      9907.3813      18409.871      4551.5163      5184.0548      4942.1122      535.72475     -488.23169      11067.414     -7382.719      -524.59842      75793.502      42.319838      42.319838      42.319838      1.1373954      32.380476     -1718.9356     -241.08584    
     22000   22000          533.81722      546.62592      28992.935      28385.426      9768.4243      18617.002      4496.7173      5222.1113      5067.8405      555.69476     -413.73373      11070.411     -7382.0394     -521.76219      76205.506      42.396381      42.396381      42.396381      1.1312461      26.081277      1298.7133      315.0832     
     23000   23000          537.34114     -1015.0668      27048.027      28182.869      9832.9091      18349.96       4364.2091      5101.382       5049.7075      554.67159     -404.06916      11067.497     -7383.4378     -518.6731       76659.367      42.480382      42.480382      42.480382      1.1245486     -1586.125      -537.74188     -921.33352    
     24000   24000          543.11917     -641.70113      27794.494      28510.764      9938.6425      18572.121      4451.5306      5103.3179      5116.3884      577.9609      -391.68923      11091.22      -7376.607      -519.50636      76536.41       42.457658      42.457658      42.457658      1.1263552     -850.23191      554.41615     -1629.2876    
     25000   25000          541.64038      1677.8509      30185.582      28324.751      9911.5818      18413.169      4499.5273      5148.3492      4907.741       540.35955     -389.66491      11086.635     -7379.7782     -522.85481      76046.258      42.366828      42.366828      42.366828      1.1336151     -226.22322      2269.2527      2990.5231    
     26000   26000          539.30025      790.49747      29195.468      28318.185      9868.7593      18449.426      4379.0633      5199.8783      5049.5568      551.25122     -419.38164      11067.06      -7378.002      -522.51118      76096.27       42.376114      42.376114      42.376114      1.13287        386.03673      1981.7239      3.731839     
     27000   27000          548.10497     -630.53095      27798.761      28494.519      10029.878      18464.64       4493.9011      5160.3831      5049.2224      521.66141     -448.56559      11071.646     -7383.6082     -525.51292      75661.607      42.295275      42.295275      42.295275      1.1393782     -401.5623      -749.16509     -740.86545    
     28000   28000          536.54656     -870.72838      27356.807      28318.436      9818.369       18500.067      4535.2061      5214.9899      4994.9867      530.77553     -467.50024      11075.803     -7384.1947     -525.06139      75726.673      42.307396      42.307396      42.307396      1.1383992     -3217.4342     -2314.2024      2919.4515    
     29000   29000          548.48581     -219.48926      28431.604      28676.783      10036.848      18639.936      4546.8852      5183.1732      5115.3979      541.94894     -444.31154      11079.496     -7382.6541     -519.11612      76593.946      42.468294      42.468294      42.468294      1.1255091      61.147108      422.77162     -1142.3865    
     30000   30000          542.23145      1338.6531      29829.351      28346.414      9922.3978      18424.016      4353.0413      5166.2717      5011.1648      561.9016      -341.6079       11060.044     -7386.7996     -523.4558       75958.948      42.350608      42.350608      42.350608      1.1349181      2188.9339      1266.891       560.13423    
     31000   31000          537.69543     -603.76187      27589.805      28264.296      9839.3923      18424.904      4414.315       5144.3053      5083.4357      550.81717     -433.47727      11054.546     -7389.0382     -519.06845      76600.98       42.469594      42.469594      42.469594      1.1254057      740.91614     -690.78459     -1861.4172    
     32000   32000          545.54516      656.42121      28984.423      28266.713      9983.0361      18283.677      4380.3594      5201.9888      4899.6702      524.94578     -392.0472       11055.881     -7387.1209     -530.35753      74970.468      42.166097      42.166097      42.166097      1.1498819     -883.46091      1902.612       950.11254    
     33000   33000          532.5948       219.76559      28441.511      28197.95       9746.0549      18451.895      4507.7803      5136.0401      5003.3752      535.09191     -424.45586      11078.395     -7384.3319     -523.22372      75992.64       42.356868      42.356868      42.356868      1.1344149     -147.41563      437.83809      368.87432    
     34000   34000          544.48635      288.03864      28737.122      28416.942      9963.6608      18453.281      4534.8485      5081.7283      5040.2078      553.1093      -437.19227      11065.745     -7385.1659     -521.66401      76219.849      42.39904       42.39904       42.39904       1.1310332     -686.11809      111.14697      1439.087     
     35000   35000          541.32199     -1512.6991      26532.714      28206.057      9905.7556      18300.301      4435.0082      5052.1451      4977.9039      529.20557     -383.08617      11075.75      -7386.6256     -524.20653      75850.166      42.330381      42.330381      42.330381      1.1365457     -2486.3368     -1255.4101     -796.35045    
     36000   36000          540.25072      388.01127      28898.645      28469.715      9886.1522      18583.563      4494.0753      5194.832       5049.5149      558.59767     -403.20776      11074.082     -7384.3316     -524.55696      75799.493      42.320953      42.320953      42.320953      1.1373055      782.59286     -179.23675      560.67769    
     37000   37000          547.14522      1060.762       29672.582      28502.063      10012.316      18489.747      4565.5344      5181.8542      4922.9748      553.40031     -428.68088      11076.795     -7382.1304     -525.5022       75663.151      42.295563      42.295563      42.295563      1.1393549      1857.5198      1549.1376     -224.37145    
     38000   38000          539.1344      -1346.104       26775.729      28268.053      9865.7243      18402.329      4371.1332      5133.9863      5061.7779      562.52205     -419.7446       11078.262     -7385.6079     -523.05862      76016.627      42.361325      42.361325      42.361325      1.1340569     -817.1333      -3642.9727      421.79415    
     39000   39000          544.44058     -1842.0065      26446.572      28503.725      9962.8231      18540.902      4353.7697      5268.0842      5097.5668      566.77132     -431.20799      11067.882     -7381.9643     -519.22956      76577.211      42.465201      42.465201      42.465201      1.1257551     -3835.7507     -1113.302      -576.96682    
     40000   40000          546.8289      -1044.094       27147.393      28306.919      10006.528      18300.391      4288.9459      5186.6368      5009.0839      537.49933     -405.93829      11071.513     -7387.349      -522.14848      76149.129      42.385923      42.385923      42.385923      1.1320836     -1296.1195     -1302.9887     -533.17374    
     41000   41000          534.93021     -828.00009      27332.219      28249.432      9788.7912      18460.641      4387.6412      5079.4372      5162.2768      564.72711     -410.64256      11068.835     -7391.6339     -523.47351      75956.378      42.35013       42.35013       42.35013       1.1349565     -1466.7308     -2028.9915      1011.722     
     42000   42000          540.08795     -913.98505      27247.314      28256.521      9883.1736      18373.347      4503.6521      5095.2941      4971.1859      527.29311     -412.80531      11067.995     -7379.2671     -525.16257      75712.083      42.304678      42.304678      42.304678      1.1386186     -155.88602     -1851.3883     -734.68081    
     43000   43000          536.27153     -187.67831      27813.476      28021.86       9813.3362      18208.523      4359.2901      5235.428       4874.3806      508.65293     -450.24342      11066.406     -7385.391      -522.25722      76133.274      42.382981      42.382981      42.382981      1.1323194     -142.5639       748.08569     -1168.5567    
     44000   44000          540.50568      1290.5865      29592.298      28166.749      9890.8177      18275.931      4391.2886      5263.8933      4888.9856      514.36616     -464.87965      11068.929     -7386.6517     -524.97613      75738.971      42.309686      42.309686      42.309686      1.1382143      1040.6301      1753.6093      1077.5199    
     45000   45000          545.72526     -1062.507       27300.288      28480.633      9986.3318      18494.301      4518.1871      5194.5327      4997.1613      532.85795     -453.05829      11084.875     -7380.2539     -521.98428      76173.083      42.390367      42.390367      42.390367      1.1317276     -856.39595     -335.1859      -1995.9392    
     46000   46000          547.61847      146.89123      28613.677      28450.879      10020.976      18429.903      4486.1314      5173.6401      4935.2169      540.28378     -390.10783      11068.591     -7383.8525     -523.21589      75993.778      42.35708       42.35708       42.35708       1.1343979     -231.87292      1408.3331     -735.7865     
     47000   47000          541.58205      849.84497      29281.666      28336.476      9910.5144      18425.962      4366.0011      5178.8759      5104.2419      552.56046     -459.64965      11070.072     -7386.1401     -521.38137      76261.168      42.406701      42.406701      42.406701      1.1304204      1767.1844     -1863.8734      2646.2239    
     48000   48000          534.95351      393.48538      28555.308      28118.464      9789.2175      18329.247      4426.5736      5139.9812      4906.434       532.94803     -364.44541      11070.841     -7383.0854     -522.32058      76124.038      42.381267      42.381267      42.381267      1.1324568      1742.1856     -1763.27        1201.5406    
     49000   49000          534.9368       362.10425      28581.594      28179.327      9788.9118      18390.415      4502.6057      5112.4681      4935.0604      536.61813     -385.53676      11073.193     -7383.9932     -521.97965      76173.759      42.390493      42.390493      42.390493      1.1317176     -679.29068      110.10778      1655.4956    
     50000   50000          538.96752     -820.23697      27443.321      28356.538      9862.6706      18493.868      4517.2131      5275.013       4893.8638      547.28521     -436.00305      11079.062     -7382.5663     -520.8351       76341.153      42.421521      42.421521      42.421521      1.1292361      124.56479     -1492.79       -1092.4857    
     51000   51000          541.78687      229.25029      28529.956      28278.622      9914.2624      18364.36       4504.1796      5257.9377      4879.9021      522.92058     -495.6655       11080.604     -7385.5188     -528.92479      75173.546      42.204136      42.204136      42.204136      1.1467755      1096.9551     -1172.8323      763.62814    
     52000   52000          537.53363      271.02504      28425.349      28127.47       9836.4316      18291.039      4394.1281      5216.7573      4963.2696      532.89078     -496.60714      11067.307     -7386.7073     -527.59925      75362.412      42.239451      42.239451      42.239451      1.1439016      230.97607      481.95092      100.14814    
     53000   53000          536.27157     -2906.7686      24840.429      28069.996      9813.3368      18256.659      4287.1265      5138.9879      5076.1114      551.80453     -477.64596      11063.435     -7383.1606     -521.91647      76182.98       42.392203      42.392203      42.392203      1.1315806     -2044.7929     -3833.2909     -2842.222     
     54000   54000          538.44709      275.61685      28637.3        28334.612      9853.1471      18481.465      4537.3686      5171.1869      5013.0307      542.00448     -470.32278      11072.526     -7384.3288     -528.01438      75303.161      42.228378      42.228378      42.228378      1.1448017     -655.61564      2458.1979     -975.73171    
     55000   55000          547.44561     -313.21603      28091.997      28437.87       10017.813      18420.057      4579.7859      5154.9403      4996.0953      516.49823     -510.25978      11066.494     -7383.4977     -525.125        75717.5        42.305687      42.305687      42.305687      1.1385371      830.83378     -1813.7809      43.299027    
     56000   56000          536.47301      495.42073      28838.66       28293.541      9817.0231      18476.518      4533.0606      5129.9815      5050.0846      576.13807     -510.42321      11081.009     -7383.332      -527.00885      75446.839      42.255218      42.255218      42.255218      1.1426215      1580.065      -2022.8853      1929.0825    
     57000   57000          552.4318       261.83658      28652.883      28363.755      10109.056      18254.699      4390.3018      5187.5964      4974.5171      545.90285     -533.32427      11073.978     -7384.2727     -525.14089      75715.209      42.305261      42.305261      42.305261      1.1385716     -580.40555      1146.5605      219.35483    
     58000   58000          533.06761      1228.5911      29398.74       28041.362      9754.7071      18286.655      4418.3379      5221.9599      4837.1836      545.00434     -416.98258      11067.302     -7386.1502     -524.85731      75756.117      42.312878      42.312878      42.312878      1.1379567      3206.0351     -969.84762      1449.5859    
     59000   59000          544.71098     -172.33231      28013.034      28203.133      9967.7712      18235.362      4351.1671      5190.5545      4986.9494      531.43156     -532.5547       11090.989     -7383.1752     -525.6806       75637.472      42.290777      42.290777      42.290777      1.1397417      247.55661     -713.28042     -51.273127    
     60000   60000          543.36627     -1760.3058      26308.953      28247.878      9943.1641      18304.714      4438.591       5214.7363      4986.2444      544.20388     -545.13818      11050.504     -7384.4279     -526.45598      75526.072      42.270005      42.270005      42.270005      1.1414228     -2411.6967     -2138.113      -731.10786    
     61000   61000          539.00998     -307.5793       27784.131      28121.669      9863.4475      18258.221      4381.6415      5274.9912      4928.5684      532.78169     -541.40889      11067.818     -7386.1699     -528.4076       75247.124      42.217901      42.217901      42.217901      1.1456542      1719.585      -2709.7553      67.432493    
     62000   62000          545.64754     -665.32098      27461.253      28191.394      9984.9095      18206.484      4420.1598      5035.7453      5041.1049      546.04849     -516.59888      11068.373     -7388.348      -528.3957       75248.818      42.218218      42.218218      42.218218      1.1456284     -1425.8729     -610.91561      40.825577    
     63000   63000          544.77289      1173.3942      29548.687      28251.942      9968.9042      18283.037      4507.5624      5078.7053      4938.4388      541.17977     -466.08675      11067.957     -7384.7186     -524.71557      75776.581      42.316688      42.316688      42.316688      1.1376494      3830.0657     -123.1919      -186.69116    
     64000   64000          536.2414       554.47432      28791.401      28181.094      9812.7849      18368.309      4498.0865      5157.5855      4967.9735      532.17204     -482.73228      11082.675     -7387.4517     -526.82665      75472.932      42.260089      42.260089      42.260089      1.1422265      1750.7351      942.91644     -1030.2286    
     65000   65000          548.41034     -1801.9082      26541.337      28524.32       10035.467      18488.853      4456.0551      5237.236       5124.7696      502.53781     -513.0499       11068.96      -7387.6549     -526.92462      75458.899      42.25747       42.25747       42.25747       1.1424389     -1127.6318     -1585.9539     -2692.1388    
     66000   66000          531.98603      175.79016      28239.766      28045.3        9734.9149      18310.386      4473.5436      5108.0573      4928.7981      530.21296     -441.43636      11091.384     -7380.1744     -524.18815      75852.826      42.330876      42.330876      42.330876      1.1365059      181.82814      632.81308     -287.27072    
     67000   67000          540.01776     -1795.1554      26325.856      28314.443      9881.8892      18432.554      4486.2594      5282.5548      4871.5331      535.78073     -457.38095      11092.159     -7378.3526     -523.47074      75956.78       42.350205      42.350205      42.350205      1.1349505     -3958.1923     -1602.7469      175.47308    
     68000   68000          542.0807      -1637.1319      26436.614      28244.023      9919.6393      18324.384      4424.2332      5172.823       5027.1261      530.02407     -512.27297      11065.455     -7383.0046     -525.24504      75700.196      42.302464      42.302464      42.302464      1.1387974     -2633.1873     -3051.7824      773.57384    
     69000   69000          537.87166     -947.47157      27273.973      28322.357      9842.6173      18479.739      4690.5186      5156.5383      4912.9283      559.7312      -513.30133      11061.536     -7388.2115     -524.05946      75871.452      42.334341      42.334341      42.334341      1.1362269     -265.08695     -1334.7571     -1242.5706    
     70000   70000          529.22986     -620.72913      27390.745      28076.423      9684.4792      18391.944      4460.5294      5145.8374      5000.3568      536.79692     -429.82637      11061.887     -7383.6366     -524.94879      75742.916      42.31042       42.31042       42.31042       1.1381551     -477.35704     -654.77768     -730.05267    
     71000   71000          541.97133      656.57375      28963.861      28231.384      9917.6379      18313.746      4369.2652      5111.3886      4953.8805      522.95856     -328.39691      11071.792     -7387.1418     -519.78518      76495.355      42.450065      42.450065      42.450065      1.1269597      339.98828      687.88         941.85296    
     72000   72000          537.63332     -657.3906       27629.895      28362.904      9838.2559      18524.648      4535.0354      5155.082       5010.3946      553.49717     -428.93366      11082.445     -7382.8721     -520.05463      76455.722      42.442732      42.442732      42.442732      1.1275439      98.577775     -1206.1096     -864.63997    
     73000   73000          542.71957     -221.7765       28216.931      28461.694      9931.33        18530.364      4547.596       5169.3875      5069.3157      538.25557     -485.67431      11072.763     -7381.2803     -525.41794      75675.284      42.297823      42.297823      42.297823      1.1391722      941.79491     -193.42808     -1413.6963    
     74000   74000          535.09677     -428.4555       27558.562      28032.352      9791.8391      18240.513      4306.66        5197.0542      5005.1578      547.70373     -489.08657      11061.302     -7388.2778     -524.39054      75823.55       42.325429      42.325429      42.325429      1.1369447      887.91276     -2076.3965     -96.882727    
     75000   75000          543.80723      437.28977      28709.449      28221.811      9951.2334      18270.577      4458.7317      5176.0915      4900.7558      514.72607     -455.16855      11063.851     -7388.4101     -520.004        76463.165      42.444109      42.444109      42.444109      1.1274341     -828.70242      841.98307      1298.5887    
     76000   76000          541.14889      183.96055      28477.52       28273.513      9902.588       18370.925      4491.4436      5168.5819      4892.3106      553.46183     -416.53095      11063.172     -7381.514      -522.89487      76040.433      42.365746      42.365746      42.365746      1.1337019      778.18185     -54.039665     -172.26053    
     77000   77000          540.23221      1951.9641      30463.053      28307.412      9885.8134      18421.599      4591.5626      5141.009       4859.9195      537.08656     -384.57178      11061.964     -7385.371      -525.08589      75723.14       42.306738      42.306738      42.306738      1.1384523      2334.1271      1766.406       1755.359     
     78000   78000          543.08725      1034.5848      29253.442      28111.661      9938.0583      18173.603      4379.5778      5129.6092      4869.7981      520.73076     -387.00818      11046.413     -7385.518      -525.43402      75672.968      42.297392      42.297392      42.297392      1.1392071      2791.0116      389.98929     -77.246326    
     79000   79000          540.53837     -214.59894      27844.712      28081.411      9891.4159      18189.995      4471.6523      5049.9578      4938.2562      528.15756     -444.89308      11035.786     -7388.9214     -525.73395      75629.797      42.289347      42.289347      42.289347      1.1398574     -833.71777     -1105.4372      1295.3582    
     80000   80000          535.86348      417.87382      28608.316      28141.487      9805.8691      18335.617      4534.0657      5142.4795      4828.4012      551.85208     -398.6538       11061.114     -7383.6412     -519.06465      76601.54       42.469698      42.469698      42.469698      1.1253975     -1236.0158      1853.0006      636.63657    
     81000   81000          542.42091     -178.64141      28206.283      28403.809      9925.8648      18477.944      4511.9272      5362.948       4851.6239      549.40303     -490.01077      11072.444     -7380.3917     -524.43739      75816.776      42.324169      42.324169      42.324169      1.1370463      1552.1936     -1985.0491     -103.0688     
     82000   82000          545.05203     -864.62163      27308.311      28270.018      9974.0123      18296.006      4367.3623      5097.6459      5050.6394      568.48868     -451.60695      11049.728     -7386.2512     -521.33679      76267.689      42.407909      42.407909      42.407909      1.1303238     -2025.9375     -58.094794     -509.83258    
     83000   83000          535.50032      1044.8337      29454.139      28291.818      9799.2236      18492.594      4445.0012      5173.8858      4962.1262      562.76982     -344.53829      11074.357     -7381.0072     -521.26166      76278.681      42.409947      42.409947      42.409947      1.1301609      991.36894      1410.2605      732.87164    
     84000   84000          543.51383      1241.0353      29572.595      28201.331      9945.8645      18255.466      4319.1863      5179.5697      5006.8972      543.09467     -480.77202      11070.549     -7383.0583     -524.80489      75763.684      42.314287      42.314287      42.314287      1.1378431      3717.76        666.92218     -661.57627    
     85000   85000          537.43002     -1577.0489      26314.669      28073.074      9834.5356      18238.539      4309.7352      5064.6227      5121.3811      537.02498     -486.53211      11077.721     -7385.4146     -520.06895      76453.617      42.442342      42.442342      42.442342      1.1275749     -3144.9112     -945.8453      -640.39019    
     86000   86000          542.85255     -364.0902       27791.564      28196.239      9933.7636      18262.476      4395.0755      5138.2466      4917.9242      539.75409     -380.86031      11036.811     -7384.475      -521.71939      76211.759      42.39754       42.39754       42.39754       1.1311533     -1521.5156     -12.371659      441.61666    
     87000   87000          541.95494      1690.0378      30126.289      28255.388      9917.338       18338.05       4399.0834      5185.9406      4914.5386      545.44466     -397.94739      11070.263     -7379.2724     -523.81802      75906.422      42.340844      42.340844      42.340844      1.1357034      2236.3554      1018.9295      1814.8284    
     88000   88000          525.73994      137.53169      28000.871      27848.004      9620.6165      18227.387      4526.1906      5146.3335      4832.0766      530.28928     -504.06939      11074.285     -7377.7185     -521.70158      76214.36       42.398023      42.398023      42.398023      1.1311147      89.778705      842.72379     -519.90742    
     89000   89000          544.25423     -1237.5921      26988.759      28368.023      9959.4132      18408.61       4350.3313      5155.2133      5153.835       534.76099     -471.09256      11070.255     -7384.6932     -520.31316      76417.733      42.435701      42.435701      42.435701      1.1281044     -2254.468      -182.04235     -1276.2659    
     90000   90000          531.7436      -1199.8245      26706.25       28040.336      9730.4786      18309.857      4388.9131      5066.8591      5069.5827      514.79071     -411.05893      11065.179     -7384.4085     -521.51741      76241.274      42.403013      42.403013      42.403013      1.1307154     -1682.6143      659.02098     -2575.8802    
     91000   91000          527.41644     -935.93235      26826.385      27867.136      9651.2953      18215.841      4269.0206      5164.2539      4960.7649      517.63163     -389.93484      11077.892     -7383.787      -521.47357      76247.683      42.404201      42.404201      42.404201      1.1306204     -2761.6265      749.34586     -795.51642    
     92000   92000          544.38791      99.530926      28259.26       28148.695      9961.8594      18186.835      4359.3958      5208.988       4889.7536      514.57952     -497.61782      11095.408     -7383.6715     -522.00254      76170.418      42.389873      42.389873      42.389873      1.1317672      536.96448      838.10042     -1076.4721    
     93000   93000          535.77573      633.65502      28694.546      28001.414      9804.2635      18197.15       4403.037       5042.3885      4954.7614      535.17922     -448.67435      11093.271     -7382.8127     -530.11686      75004.503      42.172477      42.172477      42.172477      1.1493601     -143.4317       964.45755      1079.9392    
     94000   94000          529.09567     -946.65114      26955.217      28010.397      9682.0236      18328.373      4359.2042      5087.8237      5090.7218      556.93346     -485.7416       11103.232     -7383.8003     -520.2333       76429.463      42.437872      42.437872      42.437872      1.1279313     -1816.4206     -111.92284     -911.60996    
     95000   95000          541.33543     -678.16151      27331.913      28079.877      9906.0015      18173.876      4336.0686      5183.8297      4903.4871      540.74597     -488.48659      11082.47      -7384.2391     -525.75964      75626.101      42.288658      42.288658      42.288658      1.1399131      431.96015     -1092.6358     -1373.8089    
     96000   96000          537.37238     -907.925        27125.085      28118.677      9833.4809      18285.196      4355.7371      5119.7829      5056.6574      555.80388     -495.75858      11080.795     -7387.821      -529.87881      75038.2        42.178792      42.178792      42.178792      1.148844      -1117.9393      845.71809     -2451.5538    
     97000   97000          531.98547      2837.4128      31142.746      28021.998      9734.9048      18287.093      4521.1531      5111.5266      4850.0633      538.72207     -435.37853      11091.382     -7390.375      -527.22826      75415.441      42.249356      42.249356      42.249356      1.1430972      4181.7274      5092.5168     -762.00576    
     98000   98000          535.86482     -1252.157       26727.216      28102.086      9805.8937      18296.192      4412.8733      5240.9808      4941.5211      519.50059     -522.68186      11086.75      -7382.7516     -528.11924      75288.21       42.225583      42.225583      42.225583      1.145029      -2873.7191     -840.2498      -42.502069    
     99000   99000          540.8393      -259.58916      27943.635      28232.201      9896.9227      18335.279      4479.4895      5180.7643      4921.6081      537.49473     -473.77878      11076.657     -7386.9563     -521.64554      76222.548      42.399541      42.399541      42.399541      1.1309932     -735.25099      29.838763     -73.35526     
    100000   100000         530.13075      665.3996       28679.77       27947.129      9700.9648      18246.164      4469.3194      5292.7748      4673.9752      529.65312     -410.97331      11076.096     -7384.6816     -526.65515      75497.508      42.264676      42.264676      42.264676      1.1418547      283.68879      613.67054      1098.8395    
    101000   101000         531.62467      1328.5325      29376.906      27910.839      9728.3023      18182.537      4404.8985      5129.7058      4853.93        523.52179     -405.02264      11061.627     -7386.1232     -525.47671      75666.82       42.296246      42.296246      42.296246      1.1392997      1709.0377      1000.2329      1276.3269    
    102000   102000         536.00962     -254.63838      27836.125      28118.431      9808.5434      18309.888      4495.892       5155.7914      4903.0409      544.94322     -487.08481      11075.023     -7377.7184     -523.04458      76018.667      42.361704      42.361704      42.361704      1.1340265      735.74532     -748.26539     -751.39506    
    103000   103000         531.43837     -689.18326      27031.893      27790.91       9724.8933      18066.017      4259.9391      5048.1818      5000.2357      540.32357     -457.04594      11061.341     -7386.9581     -526.5237       75516.358      42.268193      42.268193      42.268193      1.1415697      51.516647     -549.2936      -1569.7728    
    104000   104000         534.86964      150.50821      28233.077      28065.837      9787.6826      18278.155      4414.4776      5189.7085      4908.9632      528.89585     -444.59426      11066.664     -7385.9605     -521.86079      76191.109      42.393711      42.393711      42.393711      1.1314599      422.28157     -1561.1009      1590.3439    
    105000   105000         532.0459       1129.843       29200.682      27948.529      9736.0105      18212.518      4437.9461      5072.4011      4925.695       548.60521     -430.9487       11047.267     -7388.447      -523.23325      75991.256      42.356611      42.356611      42.356611      1.1344356     -705.64611      2646.7187      1448.4565    
    106000   106000         538.23689     -880.74737      27162.197      28132.986      9849.3008      18283.685      4299.705       5191.1264      4979.8192      536.85726     -432.03377      11088.417     -7380.2061     -526.09166      75578.374      42.27976       42.27976       42.27976       1.1406329     -84.443611     -141.29955     -2416.4989    
    107000   107000         534.64502     -1648.3644      26229.628      28038.836      9783.5724      18255.263      4284.0022      5168.1048      5086.0916      541.39339     -496.38009      11054.897     -7382.8454     -528.32319      75259.145      42.220149      42.220149      42.220149      1.1454712      110.33827     -2035.845      -3019.5864    
    108000   108000         538.84366     -303.15228      27717.981      28052.88       9860.4041      18192.476      4424.3012      5056.3123      4899.3397      531.41993     -397.67286      11065.655     -7386.8796     -524.90665      75748.997      42.311553      42.311553      42.311553      1.1380637     -1347.0286      700.5367      -262.96499    
    109000   109000         526.0301      -437.44252      27364.181      27844.436      9625.9263      18218.51       4449.8035      5154.138       4857.6831      539.4438      -481.46501      11084.31      -7385.403      -528.18179      75279.294      42.223916      42.223916      42.223916      1.1451646      366.9162      -166.92076     -1512.323     
    110000   110000         537.46844      768.61342      29032.827      28180.109      9835.2386      18344.87       4397.9794      5283.3991      4780.138       543.6306      -342.74917      11067.153     -7384.6808     -522.68204      76071.395      42.371496      42.371496      42.371496      1.1332405      856.8705       2993.538      -1544.5682    
    111000   111000         532.49493      439.5977       28309.933      27829.511      9744.2274      18085.284      4421.4023      5097.8481      4844.8776      518.82128     -494.87482      11079.758     -7382.5488     -530.60008      74936.196      42.159671      42.159671      42.159671      1.1504078      730.00405      2288.7493     -1699.9603    
    112000   112000         527.92614      1963.3315      29974.581      27828.268      9660.6223      18167.646      4485.6392      5138.053       4765.756       557.86746     -456.51693      11065.347     -7388.5        -530.43884      74958.976      42.163943      42.163943      42.163943      1.1500582      836.2089       3186.8999      1866.8859    
    113000   113000         535.043        617.49549      28841.139      28159.982      9790.855       18369.127      4512.7761      5233.6033      4822.1125      537.18283     -419.60752      11068.11      -7385.0497     -525.6803       75637.515      42.290785      42.290785      42.290785      1.1397411      820.42109      1577.2356     -545.17022    
    114000   114000         529.62386     -2320.307       25271.026      27821.535      9691.6891      18129.846      4287.5148      5129.4908      5082.3476      515.76511     -566.48148      11066.18      -7384.9715     -527.53771      75371.204      42.241093      42.241093      42.241093      1.1437682     -2222.4095     -4191.5004     -547.01103    
    115000   115000         538.46775     -2221.938       25661.46       28098.908      9853.5253      18245.383      4385.3908      5049.5372      5045.9221      547.88727     -477.12158      11077.705     -7383.9379     -528.60517      75219          42.21264       42.21264       42.21264       1.1460826     -2972.0646     -1908.6919     -1785.0576    
    116000   116000         529.8704      -1770.1654      25976.595      27932.497      9696.2007      18236.297      4412.2957      5166.4498      4937.2285      541.521       -525.03079      11084.753     -7380.9209     -524.80916      75763.068      42.314172      42.314172      42.314172      1.1378523     -2799.5459     -2078.8711     -432.07923    
    117000   117000         531.74152      1081.1619      29084.393      27897.17       9730.4406      18166.73       4407.1828      5088.4745      4979.791       543.36554     -531.31369      11064.668     -7385.4389     -528.07222      75294.913      42.226836      42.226836      42.226836      1.1449271      1470.3401      665.38505      1107.7606    
    118000   118000         545.91962     -864.5263       27179.023      28129.662      9989.8885      18139.774      4350.9365      5108.647       4878.6345      536.77665     -422.77861      11068.234     -7380.6762     -527.34799      75398.32       42.246158      42.246158      42.246158      1.1433568     -344.17259     -915.93993     -1333.4664    
    119000   119000         534.86722      798.84981      28723.626      27846.946      9787.6385      18059.308      4359.8411      5092.6627      4816.5277      522.20675     -403.71141      11057.812     -7386.0311     -528.39565      75248.826      42.218219      42.218219      42.218219      1.1456283      935.27183      737.50249      723.7751     
    120000   120000         525.23574     -2665.5112      24837.366      27764.863      9611.3901      18153.473      4447.3675      5175.5482      4910.7228      530.27424     -587.48388      11067.137     -7390.0924     -527.98172      75307.819      42.229249      42.229249      42.229249      1.1447308     -1532.3861     -4463.2197     -2000.928     
    121000   121000         540.42546     -2145.0204      25739.028      28095.59       9889.3497      18206.24       4349.9236      5234.0974      4900.5764      541.84395     -495.52077      11062.117     -7386.7979     -527.82193      75330.617      42.23351       42.23351       42.23351       1.1443844     -2924.2815     -1439.1605     -2071.6191    
    122000   122000         530.88571      902.27535      28969.807      27969.278      9714.78        18254.498      4477.2833      5199.5079      4803.6182      523.97067     -425.29191      11059.046     -7383.6368     -522.93096      76035.185      42.364772      42.364772      42.364772      1.1337801      2327.6383      842.75768     -463.56995    
    123000   123000         526.80112     -1609.6126      26139.211      27910.836      9640.0354      18270.801      4250.8683      5189.6557      5077.7516      520.35561     -459.63511      11076.305     -7384.5004     -526.84696      75470.022      42.259546      42.259546      42.259546      1.1422705     -1949.5867     -1080.5838     -1798.6673    
    124000   124000         539.18703      1008.4893      29059.418      27957.034      9866.6875      18090.346      4299.4433      5139.3266      4914.0343      529.02129     -455.60905      11053.012     -7388.8822     -530.48472      74952.492      42.162727      42.162727      42.162727      1.1501577      901.19943      255.39993      1868.8684    
    125000   125000         524.60081     -1153.1855      26518.38       27778.116      9599.7714      18178.345      4295.3354      5199.7986      4983.2107      537.42017     -508.55668      11056.739     -7385.6028     -530.82866      74903.928      42.153619      42.153619      42.153619      1.1509034      602.11143     -1864.2455     -2197.4225    
    126000   126000         532.52703     -1146.1421      26840.125      28102.73       9744.8148      18357.915      4506.3084      5159.5955      4914.8421      564.98301     -470.64469      11062.602     -7379.7716     -526.38783      75535.85       42.271829      42.271829      42.271829      1.1412751      1011.645      -1547.598      -2902.4732    
    127000   127000         531.18682     -356.16248      27612.719      28002.412      9720.2901      18282.122      4490.5819      5303.9272      4809.6344      526.83111     -515.81503      11051.923     -7384.9599     -529.98108      75023.72       42.176079      42.176079      42.176079      1.1490657     -1395.3656      456.68048     -129.8023     
    128000   128000         536.68882      1114.4526      29175.65       27934.857      9820.9723      18113.885      4332.2633      5112.5247      4835.5694      516.01414     -379.50962      11078.991     -7381.9679     -520.8314       76341.695      42.421622      42.421622      42.421622      1.129228       2188.7467      147.56993      1007.0412    
    129000   129000         537.22516      752.89285      28799.132      27973.828      9830.7869      18143.041      4315.2873      5268.9396      4830.4663      509.32234     -466.43089      11072.697     -7387.2404     -528.99793      75163.152      42.202191      42.202191      42.202191      1.1469341     -1078.9984      1152.523       2185.1539    
    130000   130000         539.94412     -309.5583       27797.198      28137.612      9880.5415      18257.07       4351.1285      5256.4905      4947.8262      529.00769     -520.91161      11076.362     -7382.8335     -527.31521      75403.006      42.247033      42.247033      42.247033      1.1432858      828.67756     -1729.4043     -27.948137    
    131000   131000         528.88302     -765.56085      26910.49       27753.922      9678.1323      18075.79       4263.9416      5149.2375      4968.6719      531.52607     -497.73213      11050.718     -7390.5726     -526.33744      75543.081      42.273178      42.273178      42.273178      1.1411658      771.23415      155.88361     -3223.8003    
    132000   132000         533.10416     -1206.4719      26778.382      28114.684      9755.3759      18359.308      4262.6692      5200.2864      5073.5124      557.08478     -434.47904      11077.974     -7377.7395     -523.5369       75947.181      42.348421      42.348421      42.348421      1.1350939      337.15071     -1634.868      -2321.6984    
    133000   133000         535.13933      80.968085      28057.982      27968.759      9792.6179      18176.141      4299.1257      5139.0426      4939.8095      530.69598     -418.99401      11071.419     -7384.958      -526.22368      75559.413      42.276224      42.276224      42.276224      1.1409192     -142.1069      -283.35728      668.36843    
    134000   134000         535.59173      56.505633      28081.274      28019.532      9800.8965      18218.635      4496.0887      5100.8575      4915.3474      533.99344     -520.39729      11074.618     -7381.873      -530.69562      74922.706      42.157141      42.157141      42.157141      1.1506149     -296.45462     -96.396757      562.36828    
    135000   135000         527.82972     -155.23836      27659.099      27830.449      9658.8578      18171.591      4423.9985      5115.8654      4838.9533      533.595       -419.70426      11063.103     -7384.2201     -525.35206      75684.774      42.299591      42.299591      42.299591      1.1390294     -870.85225     -537.94852      943.08568    
    136000   136000         534.95629     -1826.8745      25932.793      27940.413      9789.2683      18151.145      4342.4381      5154.2498      4909.7339      502.08246     -446.41008      11070.689     -7381.639      -527.6695       75352.379      42.237576      42.237576      42.237576      1.1440539     -2543.495      -1800.8492     -1136.2793    
    137000   137000         536.03436      535.69826      28638.551      28053.067      9808.9961      18244.071      4479.2042      5202.2163      4842.1239      529.59271     -502.40868      11075.041     -7381.6982     -530.56686      74940.889      42.160551      42.160551      42.160551      1.1503357      515.89675     -833.21077      1924.4088    
    138000   138000         529.62073     -67.010323      27712.786      27786.787      9691.6318      18095.155      4356.5685      5113.4942      4924.5755      523.14407     -508.80773      11069.577     -7383.3967     -525.09555      75721.746      42.306478      42.306478      42.306478      1.1384733     -24.636938     -536.27883      359.8848     
    139000   139000         534.3959       777.53045      28746.165      27884.055      9779.0137      18105.042      4353.8939      5121.7922      4858.5888      530.63841     -442.64554      11069.812     -7387.0377     -522.98552      76027.252      42.363298      42.363298      42.363298      1.1338984      1167.8522      2790.5105     -1625.7714    
    140000   140000         529.11804     -1330.3712      26307.536      27772.692      9682.4331      18090.259      4334.9301      5018.6455      4937.5639      526.04057     -402.24106      11055.328     -7380.0078     -526.53086      75515.33       42.268001      42.268001      42.268001      1.1415852     -1212.0941      547.37808     -3326.3977    
    141000   141000         526.88328     -646.61893      27137.333      27852.876      9641.5387      18211.338      4364.382       5134.243       4945.336       526.12144     -437.70505      11060.406     -7381.4454     -524.01912      75877.292      42.335427      42.335427      42.335427      1.1361394     -988.60295      170.30426     -1121.5581    
    142000   142000         533.28717     -588.63498      27176.875      27823.065      9758.7249      18064.34       4273.6886      5157.0229      4993.4903      526.75025     -558.29588      11053.448     -7381.7644     -528.22751      75272.778      42.222698      42.222698      42.222698      1.1452637     -505.79804     -267.27343     -992.83347    
    143000   143000         534.80907      1973.0157      30076.793      27901.505      9786.5744      18114.93       4466.2681      5022.461       4881.1018      519.65578     -463.14895      11071.85      -7383.2574     -525.955        75598.011      42.283422      42.283422      42.283422      1.1403367      3016.6981      1019.6951      1882.6539    
    144000   144000         535.04595     -2539.5593      25236.383      28035.37       9790.9091      18244.461      4309.7906      5210.6107      5062.0028      545.3394      -548.62121      11054.171     -7388.8321     -526.12904      75573.004      42.278759      42.278759      42.278759      1.140714      -4086.1535     -3757.4089      224.88466    
    145000   145000         529.60682      1377.2461      29377.881      27849.261      9691.3774      18157.883      4452.1587      5065.4886      4839.8563      522.35285     -391.76496      11056.133     -7386.3414     -522.45228      76104.849      42.377706      42.377706      42.377706      1.1327423      2023.9615      2431.054      -323.27714    
    146000   146000         531.35836     -355.26916      27671.472      28061.506      9723.4291      18338.077      4569.7688      5074.8056      5016.7746      533.83096     -538.46618      11061.531     -7380.1684     -528.1894       75278.209      42.223713      42.223713      42.223713      1.1451811      430.79033     -81.454473     -1415.1433    
    147000   147000         530.74598      448.83899      28365.567      27866.015      9712.2231      18153.792      4417.8786      5046.9529      4879.0619      545.33067     -415.62852      11069.971     -7389.7741     -521.00852      76315.743      42.416814      42.416814      42.416814      1.1296121     -269.57822      16.719839      1599.3753    
    148000   148000         537.59722     -1146.587       26905.47       28173.31       9837.5952      18335.714      4465.5426      5157.3563      5010.9638      527.8338      -497.29141      11056.919     -7385.6093     -524.41805      75819.572      42.324689      42.324689      42.324689      1.1370043     -398.33371     -1417.4057     -1624.0215    
    149000   149000         531.94894      1145.3832      29207.271      27950.594      9734.2363      18216.358      4446.8892      5257.3749      4785.4956      520.30686     -476.68912      11069.304     -7386.3234     -528.5208       75231.007      42.214886      42.214886      42.214886      1.1458996      1120.0547      1365.5913      950.50364    
    150000   150000         519.43631     -2427.2391      24808.451      27492.691      9505.2652      17987.425      4267.0535      5093.8624      4921.6991      529.32384     -507.99679      11067.04      -7383.5568     -524.35592      75828.555      42.326361      42.326361      42.326361      1.1368696     -4083.1053     -1248.7346     -1949.8772    
    151000   151000         530.42544     -386.50598      27508.746      27935.443      9706.3574      18229.086      4508.8256      5079.3397      4888.9995      539.06576     -447.34342      11044.461     -7384.2625     -525.25656      75698.535      42.302155      42.302155      42.302155      1.1388223      356.42068      111.01869     -1626.9573    
    152000   152000         528.98632      1146.4317      28977.607      27728.684      9680.0227      18048.661      4429.7359      5020.7585      4873.5512      554.89711     -507.25277      11064.626     -7387.6543     -532.28909      74698.416      42.115032      42.115032      42.115032      1.1540698      1883.5773      2466.3595     -910.64153    
    153000   153000         525.32477      1590.0384      29504.026      27747.469      9613.0193      18134.45       4415.7332      5083.9487      4813.3467      537.47474     -412.29349      11081.521     -7385.281      -524.90434      75749.33       42.311615      42.311615      42.311615      1.1380587      2975.7504     -42.304015      1836.6688    
    154000   154000         534.8723      -558.85612      27386.649      28000.66       9787.7314      18212.928      4299.5716      5174.8162      5013.3071      549.77185     -518.45735      11079.008     -7385.089      -527.7878       75335.488      42.23442       42.23442       42.23442       1.1443104     -2276.3377      1133.1986     -533.42926    
    155000   155000         530.69992     -1630.5707      25955.11       27748.377      9711.3802      18036.997      4430.7675      5080.9455      4913.3047      523.96283     -605.04277      11072.728     -7379.6686     -527.26578      75410.076      42.248354      42.248354      42.248354      1.1431786     -308.97822     -2755.3993     -1827.3347    
    156000   156000         529.69556     -376.76751      27389.127      27802.603      9693.0012      18109.602      4401.3114      5108.3526      4924.8518      531.90678     -536.93159      11066.929     -7386.8181     -528.39425      75249.024      42.218256      42.218256      42.218256      1.1456253      688.0434      -3063.9442      1245.5982    
    157000   157000         536.17221      994.62574      28968.676      27875.84       9811.5187      18064.321      4369.1973      5101.9076      4806.9034      537.47267     -457.34604      11085.839     -7379.6528     -527.76341      75338.97       42.235071      42.235071      42.235071      1.1442575      1988.9282      969.26337      25.685686    
    158000   158000         531.16136      2007.9908      30087.089      27869.096      9719.8242      18149.272      4375.1457      5229.7043      4771.382       532.74226     -444.14739      11071.562     -7387.1176     -524.97217      75739.543      42.309792      42.309792      42.309792      1.1382058      874.47234      2041.2931      3108.2069    
    159000   159000         530.59714      594.79353      28412.174      27756.674      9709.4995      18047.175      4267.5285      5212.5651      4888.027       529.82162     -531.3474       11066.005     -7385.4247     -526.17331      75566.646      42.277573      42.277573      42.277573      1.14081        1839.4585     -567.79748      512.71956    
    160000   160000         519.34095      887.36868      28496.359      27523.215      9503.5203      18019.694      4257.3569      5156.3689      4858.9958      546.29612     -486.59162      11074.799     -7387.5305     -528.76396      75196.41       42.208414      42.208414      42.208414      1.1464268      1692.8166      275.9259       693.36356    
    161000   161000         527.35984     -1035.5793      26691.102      27824.661      9650.2595      18174.402      4374.209       5148.3904      4934.0883      523.11277     -518.55846      11095.863     -7382.7035     -529.75384      75055.902      42.182108      42.182108      42.182108      1.148573      -219.307       -1352.0674     -1535.3636    
    162000   162000         523.26188     -1588.3385      25869.189      27615.592      9575.27        18040.322      4348.965       5065.8729      4920.9779      519.0517      -504.99163      11075.114     -7384.668      -527.39173      75392.066      42.24499       42.24499       42.24499       1.1434517     -2032.1933     -1659.968      -1072.8542    
    163000   163000         536.5179       2220.235       30538.415      28110.987      9817.8446      18293.142      4467.2287      5140.2035      4932.3134      558.0209      -487.92544      11074.548     -7391.2466     -530.38043      74967.231      42.165491      42.165491      42.165491      1.1499315      1548.6798      2722.7414      2389.2836    
    164000   164000         530.82325      1075.2974      28859.382      27681.124      9713.6371      17967.487      4191.0788      5120.8055      4865.6031      535.59018     -422.3149       11068.17      -7391.4455     -529.20391      75133.897      42.196715      42.196715      42.196715      1.1473807      2371.5771      546.54207      307.77308    
    165000   165000         530.45762      27.391605      27976.862      27946.895      9706.9463      18239.948      4466.783       5093.4691      4954.7147      543.8311      -489.17633      11061.74      -7391.4128     -530.02747      75017.153      42.174848      42.174848      42.174848      1.1491663     -2173.7735      2072.2464      183.70183    
    166000   166000         525.01779      650.1163       28471.314      27764.006      9607.4018      18156.604      4409.4428      5219.6925      4834.4844      544.29083     -538.43132      11074.733     -7387.6076     -532.98773      74600.501      42.096622      42.096622      42.096622      1.1555845      759.94641      187.07733      1003.3252    
    167000   167000         529.24335     -499.424        27439.476      27991.299      9684.7261      18306.573      4434.7832      5158.1154      4935.4974      544.22731     -461.8391       11082.407     -7386.6188     -524.81329      75762.471      42.314061      42.314061      42.314061      1.1378613     -1548.3189      140.04634     -89.999435    
    168000   168000         525.01666      1451.5008      29337.151      27749.735      9607.3811      18142.354      4498.2323      5153.8204      4797.9858      523.01873     -510.02019      11066.946     -7387.6292     -530.22638      74989.011      42.169573      42.169573      42.169573      1.1495975      718.08839      1194.9188      2441.4952    
    169000   169000         532.55123      554.33294      28420.008      27810.712      9745.2576      18065.455      4371.5314      5090.71        4847.0783      557.67416     -488.48084      11072.423     -7385.4813     -527.56722      75366.987      42.240306      42.240306      42.240306      1.1438322      1577.5731      32.775911      52.649799    
    170000   170000         537.11422      150.19737      28174.187      28009.073      9828.7568      18180.316      4396.517       5210.9903      4931.7581      512.29664     -562.17888      11074.898     -7383.9647     -527.4893       75378.121      42.242385      42.242385      42.242385      1.1436632     -1032.0167      389.59951      1093.0093    
    171000   171000         533.35076     -921.73527      26815.869      27831.012      9759.8885      18071.124      4386.6322      5182.5099      4837.3932      526.47918     -534.93786      11057.691     -7384.6438     -526.51851      75517.101      42.268331      42.268331      42.268331      1.1415584     -3576.0713      128.42303      682.44242    
    172000   172000         519.95521      611.75464      28262.649      27594.445      9514.7607      18079.684      4411.4195      5131.5147      4830.4822      516.37367     -488.26779      11069.444     -7391.2818     -530.88847      74895.49       42.152036      42.152036      42.152036      1.151033       647.34569      1267.8172     -79.898976    
    173000   173000         533.15948      1029.8438      29103.049      27969.12       9756.3883      18212.732      4433.1417      5175.9518      4852.3625      526.45757     -440.19059      11056.857     -7391.8485     -526.64819      75498.506      42.264862      42.264862      42.264862      1.1418396      3887.3048     -51.055613     -746.71774    
    174000   174000         533.02089     -226.13153      27509.687      27758.809      9753.852       18004.957      4356.1843      5166.2192      4799.8958      504.86563     -513.82381      11076.128     -7384.5125     -526.36071      75539.741      42.272555      42.272555      42.272555      1.1412163      2285.6263     -927.24081     -2036.7801    
    175000   175000         525.01727     -233.54435      27249.694      27505.171      9607.3923      17897.779      4212.9364      5221.7168      4814.2546      519.75443     -551.67549      11065.404     -7384.6125     -530.09481      75007.624      42.173062      42.173062      42.173062      1.1493123      519.98501     -565.26004     -655.358      
    176000   176000         527.54479      390.94444      28114.943      27687.392      9653.6438      18033.748      4377.8622      4949.4155      4980.8193      527.08786     -489.41187      11075.992     -7388.0176     -530.22595      74989.071      42.169585      42.169585      42.169585      1.1495966      454.08397     -530.80286      1249.5522    
    177000   177000         531.08921      25.947938      27832.347      27803.731      9718.504       18085.227      4330.8234      5207.942       4778.7753      529.322       -432.54986      11059.758     -7388.8433     -525.80742      75619.23       42.287377      42.287377      42.287377      1.1400167      427.42055     -1282.122       932.54523    
    178000   178000         522.42353     -621.63894      26895.026      27576.597      9559.9289      18016.668      4390.7895      5074.7991      4928.7191      529.63286     -589.47051      11069.854     -7387.656      -528.8857       75179.102      42.205176      42.205176      42.205176      1.1466908     -1080.642      -312.60798     -471.66689    
    179000   179000         534.58163     -1049.3238      26713.804      27867.565      9782.4123      18085.153      4302.3315      5173.5364      4948.4406      546.05404     -558.23043      11058.433     -7385.412      -527.38566      75392.933      42.245152      42.245152      42.245152      1.1434385     -1965.0239     -955.47567     -227.47171    
    180000   180000         537.43558      789.80761      28767.927      27903.189      9834.6373      18068.552      4291.5462      5227.1137      4844.7455      560.45749     -554.89438      11080.746     -7381.1629     -529.62863      75073.646      42.185432      42.185432      42.185432      1.1483015     -9.2737894      107.4743       2271.2223    
    181000   181000         523.23898     -2014.8651      25577.733      27794.006      9574.8509      18219.155      4388.3335      5142.0318      4925.3195      551.85634     -448.7542       11047.49      -7387.1217     -527.17838      75422.577      42.250688      42.250688      42.250688      1.1429891     -2902.6829     -1399.1655     -1742.747     
    182000   182000         529.27757      1212.2201      28802.292      27476.498      9685.3524      17791.145      4243.9208      5083.0359      4734.9568      524.50023     -466.49704      11065.075     -7393.8463     -530.20058      74992.661      42.170258      42.170258      42.170258      1.1495416      952.89679      1145.1674      1538.5961    
    183000   183000         525.69078     -1016.874       26666.465      27777.482      9619.7171      18157.765      4393.1255      5140.5115      4880.6038      534.62543     -457.63114      11051.045     -7384.5155     -530.73922      74916.551      42.155987      42.155987      42.155987      1.1507094      438.3763      -854.59465     -2634.4038    
    184000   184000         531.8115      -252.56514      27436.787      27713.012      9731.7213      17981.291      4401.7627      5149.4549      4687.0479      518.8181      -456.34174      11065.573     -7385.0244     -530.20574      74991.93       42.170121      42.170121      42.170121      1.1495528      750.77784     -160.55507     -1347.9182    
    185000   185000         522.34061     -1283.9283      26408.586      27812.558      9558.4117      18254.147      4435.539       5152.5757      4962.8991      529.53263     -512.74029      11069.353     -7383.0129     -530.29459      74979.365      42.167765      42.167765      42.167765      1.1497454     -398.8281      -2269.2137     -1183.7432    
    186000   186000         511.54797      1418.3439      28941.273      27385.183      9360.915       18024.268      4449.3326      5176.9936      4732.8369      516.72363     -529.25079      11067.053     -7389.4214     -528.54438      75227.65       42.214259      42.214259      42.214259      1.1459508      2080.8571      525.58256      1648.5919    
    187000   187000         527.8357       163.57799      27972.545      27792.606      9658.9673      18133.639      4398.901       5171.8132      4797.0208      549.3956      -472.61004      11075.46      -7386.3412     -527.15216      75426.328      42.251389      42.251389      42.251389      1.1429322      865.88178      2.4185012     -377.5663     
    188000   188000         526.83963     -1996.0415      25490.69       27675.576      9640.74        18034.836      4326.1452      5146.0286      4875.0499      528.69928     -513.16073      11059.528     -7387.4542     -529.75586      75055.616      42.182055      42.182055      42.182055      1.1485774     -3142.0705     -462.24666     -2383.8074    
    189000   189000         529.50675     -2003.6436      25730.075      27936.116      9689.5461      18246.57       4436.5738      5206.9282      4894.901       531.02136     -508.98534      11070.956     -7384.8258     -526.67378      75494.839      42.264177      42.264177      42.264177      1.141895      -2596.3261     -1051.7569     -2362.8479    
    190000   190000         522.98203      1934.4731      29743.773      27616.614      9570.1491      18046.465      4324.6153      5050.1639      4865.8808      531.87182     -423.16719      11081.814     -7384.714      -527.34836      75398.267      42.246148      42.246148      42.246148      1.1433576      1355.322       143.23328      4304.864     
    191000   191000         518.17355      1690.1103      29515.639      27660.492      9482.1577      18178.334      4471.816       5039.7577      4905.1479      551.53726     -489.65859      11086.899     -7387.165      -528.28885      75264.038      42.221064      42.221064      42.221064      1.1453967      2926.8382      1900.5813      242.91131    
    192000   192000         532.96999      1308.8453      29393.947      27938.17       9752.9206      18185.25       4367.8011      5160.1167      4832.9384      539.15348     -403.68599      11078.989     -7390.0631     -521.34888      76265.921      42.407582      42.407582      42.407582      1.13035        2900.63       -25.123716      1051.0295    
    193000   193000         525.78508     -28.184413      27718.419      27749.604      9621.4426      18128.161      4298.7288      5109.4447      4945.1879      558.57347     -469.18548      11065.956     -7380.5441     -524.08797      75867.325      42.333573      42.333573      42.333573      1.1362887     -1267.3466      843.75914      339.03423    
    194000   194000         533.21292     -582.7154       27016.791      27655.523      9757.3661      17898.157      4152.4975      5130.257       4948.4819      521.57527     -519.87556      11053.014     -7387.7939     -529.02064      75159.926      42.201587      42.201587      42.201587      1.1469833     -1057.9014     -318.08714     -372.15764    
    195000   195000         522.59609      314.71295      27907.865      27564.783      9563.0867      18001.696      4455.5821      5109.3886      4781.0354      500.99125     -512.47667      11055.644     -7388.4677     -531.9261       74749.391      42.124609      42.124609      42.124609      1.1532828     -261.84733      693.88824      512.09794    
    196000   196000         522.60135      1535.3252      29262.765      27579.213      9563.1829      18016.03       4348.5371      5092.574       4807.7773      531.31114     -449.08906      11070.607     -7385.6876     -528.82102      75188.298      42.206896      42.206896      42.206896      1.1465505     -834.70313      3210.899       2229.7798    
    197000   197000         525.48859      1568.8182      29609.361      27899.33       9616.0172      18283.313      4462.6391      5240.5945      4869.664       543.60477     -504.66266      11061.842     -7390.369      -531.98992      74740.423      42.122925      42.122925      42.122925      1.1534211     -636.02731      2260.7231      3081.7588    
    198000   198000         526.7386      -777.69255      26812.411      27667.356      9638.8912      18028.465      4323.8509      5041.9387      4871.0598      522.78405     -416.60241      11070.797     -7385.3629     -527.47793      75379.745      42.242689      42.242689      42.242689      1.1436386      759.15435     -3107.3697      15.137717    
    199000   199000         525.47739      2027.6676      29697.685      27506.165      9615.8122      17890.353      4343.2081      5063.1807      4770.174       523.1823      -489.13907      11069.205     -7389.4578     -536.5205       74109.288      42.004022      42.004022      42.004022      1.163244       1958.3619      2240.9619      1883.6791    
    200000   200000         526.26015     -1311.0739      26301.991      27729.002      9630.1359      18098.866      4377.9783      5132.8308      5019.239       527.26758     -634.11847      11063.326     -7387.6569     -532.76376      74631.863      42.10252       42.10252       42.10252       1.1550989     -2490.0926     -1063.855      -379.27408    
    201000   201000         527.49057     -305.58286      27329.917      27666.441      9652.6517      18013.789      4304.1002      5097.5387      4870.7646      511.58292     -461.23496      11077.063     -7386.0248     -526.55945      75511.231      42.267236      42.267236      42.267236      1.1416472     -1645.1319      250.14914      478.23419    
    202000   202000         528.54574     -1584.7582      25747.193      27478.208      9671.9604      17806.248      4242.5529      5066.9943      4861.3796      501.24346     -538.10488      11063.22      -7391.0382     -530.88073      74896.581      42.152241      42.152241      42.152241      1.1510163     -2853.7838     -1972.2498      71.75892     
    203000   203000         513.51757      966.30007      28509.298      27465.991      9396.9572      18069.034      4368.3292      5190.2449      4865.816       508.32287     -555.42587      11074.708     -7382.9613     -537.0749       74032.788      41.989564      41.989564      41.989564      1.164446       1151.0172      269.40483      1478.4782    
    204000   204000         536.31977     -1223.7318      26427.974      27773.767      9814.2189      17959.548      4389.1662      4949.0485      4966.3878      510.86527     -529.72874      11059.747     -7385.9381     -527.28179      75407.785      42.247926      42.247926      42.247926      1.1432133     -2958.0816     -900.23431      187.12039    
    205000   205000         518.74614     -1748.3054      25801.528      27695.587      9492.6357      18202.952      4356.8006      5220.1922      4991.6083      521.95392     -577.95975      11069.587     -7379.2302     -535.2522       74284.892      42.037173      42.037173      42.037173      1.1604941     -5201.1533      6.5486597     -50.311731    
    206000   206000         526.07607      132.90169      27620.684      27476.22       9626.7675      17849.452      4358.9626      5104.0811      4781.3059      505.182       -584.7296       11068.747     -7384.0968     -533.46546      74533.695      42.084052      42.084052      42.084052      1.1566203     -2241.9039      2500.3478      140.26114    
    207000   207000         522.51029      1330.5194      29035.599      27576.241      9561.5167      18014.725      4377.8687      5155.895       4703.1108      525.04093     -422.48285      11062.34      -7387.0477     -528.68176      75208.102      42.210602      42.210602      42.210602      1.1462486      89.911946      1715.603       2186.0433    
    208000   208000         526.55079     -1422.9414      26000.08       27559.287      9635.4544      17923.833      4249.6766      5060.6112      4945.4971      523.23721     -527.49388      11061.388     -7389.0834     -529.19787      75134.754      42.196875      42.196875      42.196875      1.1473676     -1788.4334     -1674.9015     -805.48929    
    209000   209000         535.25008      162.48472      27812.853      27634.501      9794.6444      17839.857      4237.9377      5053.4065      4887.1063      521.43025     -519.48253      11050.132     -7390.6735     -528.28627      75264.406      42.221133      42.221133      42.221133      1.1453911      915.93927      1111.2572     -1539.7423    
    210000   210000         525.30715      1813.5234      29744.219      27764.575      9612.6969      18151.878      4440.4832      5170.2063      4799.1386      552.69588     -489.44659      11063.085     -7384.2842     -531.2159       74849.326      42.143374      42.143374      42.143374      1.1517429      3126.8115      2431.0214     -117.26271    
    211000   211000         523.46029      3430.9772      31248.057      27480.242      9578.9009      17901.341      4449.7979      5050.4546      4716.4795      524.65012     -504.66068      11053.609     -7388.9899     -528.03539      75300.165      42.227818      42.227818      42.227818      1.1448472      4850.0285      4415.5348      1027.3682    
    212000   212000         514.79961      863.43387      28215.347      27278.593      9420.4175      17858.176      4262.1962      5073.7368      4872.9552      525.12392     -540.2611       11051.574     -7387.1491     -534.48841      74391.046      42.057187      42.057187      42.057187      1.1588382      942.67677      217.79108      1429.8338    
    213000   213000         523.50419     -1531.0807      25836.752      27505.753      9579.7041      17926.049      4254.4963      5110.2833      4889.0578      522.65366     -551.53266      11082.874     -7381.7834     -531.9568       74745.077      42.123799      42.123799      42.123799      1.1533493     -2529.7398     -1223.4717     -840.03056    
    214000   214000         517.0534      -2729.0565      24274.624      27280.615      9461.6599      17818.955      4231.0829      5057.1334      4912.839       530.00899     -581.31516      11055.544     -7386.3383     -526.45314      75526.479      42.270081      42.270081      42.270081      1.1414167     -844.583       -3151.1672     -4191.4195    
    215000   215000         526.45856     -163.87889      27401.704      27579.839      9633.7667      17946.072      4290.9561      5077.4135      4887.0404      541.24496     -522.84666      11059.722     -7387.4585     -533.46998      74533.063      42.083933      42.083933      42.083933      1.1566301      72.444218     -1561.9897      997.90884    
    216000   216000         518.15222      1371.2281      28840.255      27344.053      9481.7674      17862.286      4315.2879      5035.4872      4870.1821      528.52448     -578.17657      11076.801     -7385.8205     -531.4401       74817.749      42.137446      42.137446      42.137446      1.152229       2402.8659      1146.5866      564.23177    
    217000   217000         528.82803     -1778.2051      25791.001      27716.313      9677.1262      18039.187      4351.3757      5136.2859      4913.6622      521.08589     -573.9642       11072.682     -7381.941      -535.56926      74240.915      42.028876      42.028876      42.028876      1.1611816     -1699.921      -1505.2732     -2129.4211    
    218000   218000         520.81767      1121.4669      28431.183      27206.087      9530.543       17675.544      4185.1012      4989.0264      4761.2471      529.93669     -484.88521      11079.665     -7384.5465     -530.82491      74904.458      42.153718      42.153718      42.153718      1.1508952      291.80839      1080.5631      1992.0294    
    219000   219000         528.4681       2214.6289      30080.424      27665.465      9670.5396      17994.926      4236.7839      5218.9403      4816.8229      549.80526     -485.17772      11050.326     -7392.5745     -531.77277      74770.944      42.128658      42.128658      42.128658      1.1529503      3869.1056      1178.704       1596.0772    
    220000   220000         530.80159      685.54706      28563.847      27813.798      9713.2407      18100.557      4303.5561      5109.3739      4990.1052      550.157       -539.84038      11069.75      -7382.5446     -530.00792      75019.921      42.175367      42.175367      42.175367      1.1491239      1278.2379     -428.4927       1206.896     
    221000   221000         519.73699      1671.1315      29417.119      27582.742      9510.7674      18071.974      4343.3856      5144.076       4929.7475      546.5271      -580.78806      11070.9       -7381.8741     -528.27125      75266.546      42.221533      42.221533      42.221533      1.1453586      1690.6312      2145.5687      1177.1946    
    222000   222000         516.07278      1111.4043      28798.207      27579.842      9443.7154      18136.127      4318.5866      5173.4284      4899.9334      538.88095     -496.88538      11086.285     -7384.1021     -528.96841      75167.348      42.202976      42.202976      42.202976      1.1468701     -89.217537      2144.2366      1279.1939    
    223000   223000         519.14403     -54.632643      27571.999      27631.818      9499.9168      18131.902      4404.9156      5134.303       4929.8294      543.09775     -535.26549      11039.935     -7384.9133     -529.60073      75077.6        42.186173      42.186173      42.186173      1.1482411      1408.3873     -1956.9394      384.65423    
    224000   224000         518.40798     -1375.1316      25831.108      27326.348      9486.4477      17839.9        4233.4477      5136.2428      4881.113       517.79163     -615.94808      11070.398     -7383.1446     -533.29592      74557.39       42.088511      42.088511      42.088511      1.1562527     -1066.0952     -2588.008      -471.29164    
    225000   225000         524.55649      185.26871      27780.599      27577.354      9598.9605      17978.394      4401.6157      5146.9364      4798.2123      520.46338     -557.8336       11050.052     -7381.052      -528.58875      75221.336      42.213077      42.213077      42.213077      1.146047       514.38757     -566.71205      608.1306     
    226000   226000         513.22843      760.71698      28216.082      27387.182      9391.666       17995.516      4410.6391      5208.9383      4741.9571      527.57414     -579.82761      11068.189     -7381.9545     -532.17681      74714.176      42.117993      42.117993      42.117993      1.1538263     -894.09514      3526.5354     -350.28929    
    227000   227000         530.52864     -2103.9816      25339.928      27652.599      9708.2459      17944.353      4314.9591      5017.7621      4975.9001      547.48809     -584.80854      11061.247     -7388.1951     -527.54914      75369.571      42.240788      42.240788      42.240788      1.1437929     -2041.4974     -1540.226      -2730.2213    
    228000   228000         520.92866      602.26886      28044.791      27387.668      9532.5741      17855.094      4274.0896      5064.5028      4911.4026      511.60491     -572.13214      11055.754     -7390.128      -531.46972      74813.579      42.136663      42.136663      42.136663      1.1522933      1030.8864      2717.5399     -1941.6197    
    229000   229000         518.90858     -273.56011      27337.931      27634.929      9495.6081      18139.321      4400.2908      5071.1454      5043.2478      557.295       -628.46836      11080.536     -7384.7255     -534.11369      74443.237      42.06702       42.06702       42.06702       1.1580257      700.10135     -1680.7034      159.9217     
    230000   230000         520.2736       867.60093      28325.455      27382.695      9520.5869      17862.108      4284.0253      5074.5426      4843.6501      524.09333     -555.1526       11074.189     -7383.2398     -533.64665      74508.389      42.079289      42.079289      42.079289      1.1570131      1074.2927      1086.3903      442.11974    
    231000   231000         520.56615      5.8497561      27467.821      27461.429      9525.9403      17935.489      4334.6929      5071.4925      4906.1358      514.05741     -592.46466      11082.003     -7380.428      -530.69251      74923.145      42.157224      42.157224      42.157224      1.1506082     -402.14942     -2313.9363      2733.635     
    232000   232000         528.32015     -1277.112       26275.666      27660.772      9667.8323      17992.939      4290.3018      5079.9478      4969.7969      546.59958     -580.12535      11067.984     -7381.5651     -534.66421      74366.586      42.052577      42.052577      42.052577      1.1592193     -2161.9461     -1618.7649     -50.62495     
    233000   233000         526.03937      107.93051      27880.966      27762.076      9626.0958      18135.98       4363.6813      5090.4906      4908.0214      550.80746     -455.70177      11065.942     -7387.2608     -526.42007      75531.223      42.270966      42.270966      42.270966      1.141345       694.70441     -1242.3039      871.39107    
    234000   234000         518.9816       821.57304      28420.308      27520.922      9496.9443      18023.978      4370.4098      5148.3478      4818.2353      515.23081     -504.19933      11064.012     -7388.0588     -529.70598      75062.683      42.183379      42.183379      42.183379      1.1484692      723.66323      314.59944      1426.4565    
    235000   235000         513.182        1906.6829      29384.377      27312.907      9390.8163      17922.091      4299.5945      5146.3587      4774.4514      522.88292     -519.00855      11080.169     -7382.357      -533.74618      74494.494      42.076673      42.076673      42.076673      1.1572289      881.29412      1323.4199      3515.3346    
    236000   236000         522.06133      1645.4822      29359.418      27556.385      9553.3009      18003.084      4282.9161      5195.0756      4803.588       530.52247     -490.43136      11070.057     -7388.6436     -529.2057       75133.642      42.196667      42.196667      42.196667      1.1473846      2074.3014      185.01044      2677.1348    
    237000   237000         521.21191      123.79838      27529.473      27394.934      9537.7572      17857.177      4264.3996      5088.3074      4847.5062      520.27314     -552.50315      11071.578     -7382.3846     -533.58136      74517.506      42.081005      42.081005      42.081005      1.1568716      972.72222     -369.9911      -231.33598    
    238000   238000         519.54224     -457.30167      26977.899      27477.073      9507.2036      17969.869      4311.1877      5077.7818      4863.9053      523.04564     -517.81061      11091.796     -7380.0374     -531.23415      74846.754      42.142891      42.142891      42.142891      1.1517825     -1355.1663      589.28076     -606.01948    
    239000   239000         521.8956      -653.24511      26515.107      27230.076      9550.2682      17679.808      4157.6904      5047.902       4825.3376      520.03599     -572.10808      11079.577     -7378.6274     -529.8142       75047.351      42.180506      42.180506      42.180506      1.1487039      266.07591      94.645692     -2320.4569    
    240000   240000         518.75671      2018.2628      29689.859      27491.123      9492.829       17998.294      4485.9199      5057.818       4758.5377      503.33286     -508.31676      11084.106     -7383.103      -532.27922      74699.801      42.115292      42.115292      42.115292      1.1540484      1606.6105      2272.1399      2176.038     
    241000   241000         521.48432      1066.8918      28686.708      27527.599      9542.7421      17984.857      4406.1789      5091.7677      4719.3745      529.289       -462.22297      11078.815     -7378.3449     -533.7415       74495.148      42.076796      42.076796      42.076796      1.1572188     -70.948323      1123.3046      2148.3192    
    242000   242000         531.7529       1414.7275      29166.866      27612.205      9730.6489      17881.557      4400.1695      5011.2626      4750.0026      529.4107      -500.64522      11074.69      -7383.3332     -527.68171      75350.635      42.237251      42.237251      42.237251      1.1440804      2100.9507     -656.63462      2799.8664    
    243000   243000         508.35735      219.10593      27501.706      27260.791      9302.5291      17958.262      4269.5565      5104.8994      4840.9775      532.88841     -496.69028      11089.296     -7382.6653     -527.38303      75393.31       42.245223      42.245223      42.245223      1.1434328     -809.87144      405.79485      1061.3944    
    244000   244000         523.46245     -752.24113      26689.659      27515.313      9578.9403      17936.372      4440.0984      5023.8812      4790.9476      542.03523     -546.36851      11066.709     -7380.9302     -528.31606      75260.162      42.220339      42.220339      42.220339      1.1454557     -316.39253     -1063.0788     -877.2521     
    245000   245000         515.81415      2113.9764      29646.224      27318.89       9438.9827      17879.908      4419.3673      4979.7125      4713.1553      503.36444     -432.4985       11078.21      -7381.403      -526.71576      75488.821      42.263054      42.263054      42.263054      1.1419861      2201.7721      2626.932       1513.2251    
    246000   246000         526.39292     -1481.4252      26070.065      27696.984      9632.5657      18064.418      4378.8593      5085.3328      4922.4995      523.2373      -541.59638      11074.888     -7378.8022     -528.01798      75302.648      42.228282      42.228282      42.228282      1.1448094      554.24219     -3201.585      -1796.9327    
    247000   247000         522.12158      870.41755      28458.978      27504.644      9554.4036      17950.241      4346.4023      5146.3127      4724.754       509.11679     -473.83434      11078.756     -7381.2664     -528.88618      75179.034      42.205163      42.205163      42.205163      1.1466918     -1100.7315      1397.765       2314.2192    
    248000   248000         512.86648     -526.01352      26682.224      27256.502      9385.0426      17871.459      4258.0908      5021.5057      4883.9442      509.81424     -494.41847      11075.151     -7382.6285     -531.1404       74859.966      42.14537       42.14537       42.14537       1.1515792     -1463.3445      925.09263     -1039.7887    
    249000   249000         524.73225      145.23828      27582.17       27422.501      9602.1767      17820.324      4358.1994      5051.163       4741.4714      493.72184     -508.23887      11069.389     -7385.3818     -527.46633      75381.403      42.242999      42.242999      42.242999      1.1436134      2034.3523      129.20177     -1727.8392    
    250000   250000         524.18204     -1815.9863      25618.033      27614.312      9592.1082      18022.204      4301.2967      5053.9504      4996.6004      537.60698     -558.66758      11070.478     -7379.0603     -527.50449      75375.95       42.24198       42.24198       42.24198       1.1436961     -2429.2882     -1468.3115     -1550.359     
Loop time of 510.919 on 1 procs for 250000 steps with 6140 atoms

Performance: 42.277 ns/day, 0.568 hours/ns, 489.315 timesteps/s, 3.004 Matom-step/s
100.0% CPU use with 1 MPI tasks x 1 OpenMP threads

MPI task timing breakdown:
Section |  min time  |  avg time  |  max time  |%varavg| %total
---------------------------------------------------------------
Pair    | 50.19      | 50.19      | 50.19      |   0.0 |  9.82
Bond    | 65.666     | 65.666     | 65.666     |   0.0 | 12.85
Kspace  | 235.32     | 235.32     | 235.32     |   0.0 | 46.06
Neigh   | 59.75      | 59.75      | 59.75      |   0.0 | 11.69
Comm    | 10.585     | 10.585     | 10.585     |   0.0 |  2.07
Output  | 2.1487     | 2.1487     | 2.1487     |   0.0 |  0.42
Modify  | 77.404     | 77.404     | 77.404     |   0.0 | 15.15
Other   |            | 9.857      |            |       |  1.93

Nlocal:           6140 ave        6140 max        6140 min
Histogram: 1 0 0 0 0 0 0 0 0 0
Nghost:          16457 ave       16457 max       16457 min
Histogram: 1 0 0 0 0 0 0 0 0 0
Neighs:              0 ave           0 max           0 min
Histogram: 1 0 0 0 0 0 0 0 0 0
FullNghs:  3.18141e+06 ave 3.18141e+06 max 3.18141e+06 min
Histogram: 1 0 0 0 0 0 0 0 0 0

Total # of neighbors = 3181408
Ave neighs/atom = 518.14463
Ave special neighs/atom = 5.6319218
Neighbor list builds = 14103
Dangerous builds = 0
System init for write_data ...
PPPM Kokkos initialization ...
  using 12-bit tables for long-range coulomb
  G vector (1/distance) = 0.30586433
  grid = 32 32 32
  stencil order = 5
  estimated absolute RMS force accuracy = 0.0003994407
  estimated relative force accuracy = 1.2029038e-06
  using double precision cuFFT
  3d grid and FFT values/proc = 59319 32768
Generated 21 of 21 mixed pair_coeff terms from sixthpower/sixthpower mixing rule
System init for write_restart ...
PPPM Kokkos initialization ...
  using 12-bit tables for long-range coulomb
  G vector (1/distance) = 0.30586433
  grid = 32 32 32
  stencil order = 5
  estimated absolute RMS force accuracy = 0.0003994407
  estimated relative force accuracy = 1.2029038e-06
  using double precision cuFFT
  3d grid and FFT values/proc = 59319 32768
Generated 21 of 21 mixed pair_coeff terms from sixthpower/sixthpower mixing rule
STAGE COMPLETE: NPT T=545.0->520.0K P=1.0->1.0atm steps=250000
