LAMMPS (22 Jul 2025 - Update 3)
OMP_NUM_THREADS environment is not set. Defaulting to 1 thread.
  using 1 OpenMP thread(s) per MPI task
package gpu 1
# ============================================================
# PolyJarvis LAMMPS Engine - NPT Simulation Template
# ============================================================
# Stage: NPT (constant pressure, constant temperature)
# Use cases:
#   - Density equilibration after heating
#   - Compression/decompression sweeps
#   - Production run for density, Cp, modulus
#   - Single temperature point in Tg sweep
#
# NOTE: For CPU runs with restarts (safe default for equilibration).
#       GPU+NPT+restart causes volume-change memory reallocation crashes.
#       Use GPU flag only when restart is disabled (short production runs).
#
# Tunable parameters (injected by script_generator.py):
#   DATA_FILE        - .data or .restart file to read
#   READ_COMMAND     - "read_data" or "read_restart"
#   LOG_FILE         - log filename
#   LOG_APPEND       - "append" or ""
#   DUMP_FILE        - trajectory filename
#   LAST_DUMP_FILE   - final snapshot filename
#   WRITE_DATA_FILE  - output .data filename
#   WRITE_RESTART_FILE - unconditional final-state restart file, written every run
#                        (independent of periodic RESTART_BLOCK checkpointing) so a
#                        continuation call always has a definitive state to read from
#   DUMP_APPEND_BLOCK - "dump_modify dump_npt append yes" or empty -- set when this
#                        run continues (via READ_COMMAND=read_restart) a trajectory
#                        started by an earlier run into the SAME DUMP_FILE/LOG_FILE
#   RESTART_FILE_1/2 - restart checkpoint filenames
#   RESTART_FREQ     - steps between restart writes
#   RESTART_BLOCK    - full restart command or empty
#   PAIR_STYLE_BLOCK - pair + kspace style lines
#   BOND_STYLE, ANGLE_STYLE, DIHEDRAL_STYLE, IMPROPER_STYLE
#   GPU_PACKAGE      - "package gpu 1 neigh no" or empty
#   T_START          - initial temperature (K)
#   T_FINAL          - final temperature (K)
#   T_DAMP           - thermostat damping (fs), recommended 100*timestep
#   P_START          - initial pressure (atm)
#   P_FINAL          - final pressure (atm)
#   P_DAMP           - barostat damping (fs), recommended 1000*timestep
#   TIMESTEP         - integration timestep (fs)
#   N_STEPS          - number of MD steps
#   THERMO_FREQ      - thermo output frequency
#   DUMP_FREQ        - dump output frequency
#   SHAKE_BLOCK      - "fix shake..." or empty
#   UNSHAKE_BLOCK    - "unfix shake..." or empty
#   INIT_VELOCITY_BLOCK - "velocity all create..." or empty
# ============================================================

log /home/alexzhao/PolyJarvis/data/PE_2/attempts/mechanical/attempt-0002/work/bm_series/p_10000/attempt_1/bm_P10000/bm_P10000.log
