LAMMPS (22 Jul 2025 - Update 3)
KOKKOS mode with Kokkos version 4.6.2 is enabled
  will use up to 1 GPU(s) per node
  using 1 OpenMP thread(s) per MPI task
Reading data file ...
  orthogonal box = (3.9657555 3.9657555 3.9657555) to (47.556302 47.556302 47.556302)
  1 by 1 by 1 MPI processor grid
  reading atoms ...
  8000 atoms
  reading velocities ...
  8000 velocities
  scanning bonds ...
  4 = max bonds/atom
  scanning angles ...
  10 = max angles/atom
  scanning dihedrals ...
  16 = max dihedrals/atom
  scanning impropers ...
  7 = max impropers/atom
  orthogonal box = (3.9657555 3.9657555 3.9657555) to (47.556302 47.556302 47.556302)
  1 by 1 by 1 MPI processor grid
  reading bonds ...
  7990 bonds
  reading angles ...
  14820 angles
  reading dihedrals ...
  17070 dihedrals
  reading impropers ...
  9120 impropers
Finding 1-2 1-3 1-4 neighbors ...
  special bond factors lj:    0        0        1       
  special bond factors coul:  0        0        1       
     4 = max # of 1-2 neighbors
     6 = max # of 1-3 neighbors
     8 = max # of special neighbors
  special bonds CPU = 0.003 seconds
  read_data CPU = 0.197 seconds
PPPM Kokkos initialization ...
  using 12-bit tables for long-range coulomb
  G vector (1/distance) = 0.29787195
  grid = 30 30 30
  stencil order = 5
  estimated absolute RMS force accuracy = 0.00038971281
  estimated relative force accuracy = 1.1736085e-06
  using double precision cuFFT
  3d grid and FFT values/proc = 50653 27000
Generated 10 of 10 mixed pair_coeff terms from sixthpower/sixthpower mixing rule
Neighbor list info ...
  update: every = 1 steps, delay = 0 steps, check = yes
  max neighbors/atom: 4000, page size: 100000
  master list distance cutoff = 11.5
  ghost atom cutoff = 11.5
  binsize = 11.5, bins = 4 4 4
  1 neighbor lists, perpetual/occasional/extra = 1 0 0
  (1) pair lj/class2/coul/long/kk, perpetual
      attributes: full, newton off, kokkos_device
      pair build: full/bin/kk/device
      stencil: full/bin/3d
      bin: kk/device
Setting up Verlet run ...
  Unit style    : real
  Current step  : 0
  Time step     : 1
Per MPI rank memory allocation (min/avg/max) = 34.7 | 34.7 | 34.7 Mbytes
   Step          Time           Temp          Press         Enthalpy        TotEng         KinEng         PotEng         E_bond        E_angle        E_dihed        E_impro         E_vdwl         E_coul         E_long         E_tail         Volume           Lx             Ly             Lz          Density          Pxx            Pyy            Pzz      
         0   0              401.39612      1374.8238      12108.462      10447.729      9570.6883      877.04034      3574.8108      7080.4416     -9371.113      -78.605463     -2812.1669      7900.1557     -5416.4824     -503.62956      82827.954      43.590546      43.590546      43.590546      1.0072389      1842.8465      237.40512      2044.2196    
      1000   1000           398.62742     -245.82067      9807.2702      10106.352      9504.6728      601.67887      3533.8404      6915.0143     -9349.6448     -77.355801     -2865.8835      7869.2001     -5423.4918     -500.02643      83424.801      43.694998      43.694998      43.694998      1.0000328     -591.73779      558.25889     -703.98312    
      2000   2000           401.32789     -309.49931      10080.189      10453.639      9569.0613      884.57768      3658.3946      7074.8192     -9368.8173     -76.173614     -2852.1874      7867.4119     -5418.8697     -504.18729      82736.33       43.574467      43.574467      43.574467      1.0083543      324.58087     -273.10885     -979.96995    
      3000   3000           399.47963      586.45294      11047.663      10338.952      9524.9924      813.95909      3609.4543      7010.5167     -9333.0979     -77.173519     -2834.2535      7861.3371     -5422.8241     -503.41708      82862.912      43.596678      43.596678      43.596678      1.0068139      573.28917      1086.7142      99.355489    
      4000   4000           399.66691      928.91454      11428.982      10296.387      9529.4577      766.92885      3530.3697      6930.8137     -9282.3846     -77.534017     -2774.4049      7865.4538     -5425.3848     -498.95896      83603.28       43.726136      43.726136      43.726136      0.99789787     231.8131       847.88347      1707.0471    
      5000   5000           396.47231      255.72958      10804.041      10490.488      9453.2874      1037.2005      3619.7992      7209.6928     -9394.398      -77.788899     -2792.325       7892.3249     -5420.1045     -496.17413      84072.512      43.80779       43.80779       43.80779       0.99232833    -434.27221      1295.5792     -94.118246    
      6000   6000           393.16802     -424.29744      9803.7734      10321.636      9374.5015      947.13427      3585.8135      7097.1546     -9336.5035     -78.014733     -2804.9466      7896.9648     -5413.3338     -498.44826      83688.938      43.741065      43.741065      43.741065      0.9968765      262.88028     -1087.1443     -448.62833    
      7000   7000           404.57211     -627.88383      9711.1169      10478.094      9646.4149      831.679        3662.8557      6872.3584     -9306.06       -79.238617     -2785.443       7883.5348     -5416.3283     -498.03625      83758.172      43.753124      43.753124      43.753124      0.99605249     311.65804     -480.13251     -1715.177     
      8000   8000           396.78858      79.963846      10416.173      10318.687      9460.8282      857.85838      3598.9953      7058.3664     -9373.4026     -80.821723     -2817.7433      7887.5142     -5415.05       -499.01599      83593.726      43.724471      43.724471      43.724471      0.99801193    -348.29365     -30.93173       619.11692    
      9000   9000           393.93253     -2096.3059      7441.1724      10010.205      9392.7301      617.47519      3513.3658      6929.6223     -9311.1552     -78.155917     -2875.9742      7862.6708     -5422.8983     -496.41971      84030.922      43.800565      43.800565      43.800565      0.99281947    -2146.3395     -2021.0082     -2121.57      
     10000   10000          400.67576     -330.33666      9893.8908      10294.385      9553.5124      740.87235      3546.9034      6990.5064     -9319.395      -78.34339      -2837.498       7864.9893     -5426.2904     -501.79329      83131.055      43.643653      43.643653      43.643653      1.0035664     -667.04766     -21.662009     -302.3003     
     11000   11000          393.93253     -1361.0508      8594.1653      10257.344      9392.73        864.6142       3669.8581      6981.6304     -9335.1031     -80.756813     -2822.7509      7874.1508     -5422.4143     -497.85102      83789.335      43.758549      43.758549      43.758549      0.99568204    -1317.2326     -1833.2764     -932.64342    
     12000   12000          390.50848      554.52676      10718.277      10049.125      9311.0887      738.03583      3530.2644      6891.5141     -9240.2674     -73.976709     -2804.0151      7864.536      -5430.0195     -504.15204      82742.114      43.575482      43.575482      43.575482      1.0082838      599.20075      20.227403      1044.1521    
     13000   13000          397.74722     -160.59313      10075.461      10271.369      9483.6856      787.68389      3623.3263      6938.0002     -9357.4552     -78.271708     -2800.0845      7881.186      -5419.0172     -498.69726      83647.153      43.733784      43.733784      43.733784      0.99737448     61.882991     -479.97974     -63.682633    
     14000   14000          405.91916     -276.54442      10191.862      10527.713      9678.5333      849.17938      3674.8135      7045.1534     -9332.8916     -79.542506     -2909.4407      7871.9926     -5420.9054     -500.93692      83273.171      43.668509      43.668509      43.668509      1.0018537     -1122.187      -158.36202      450.91578    
     15000   15000          395.73588     -590.79357      9419.9664      10134.437      9435.7282      698.70915      3644.983       6968.7574     -9378.6814     -77.388856     -2919.6357      7881.0004     -5420.3257     -503.05471      82922.603      43.607144      43.607144      43.607144      1.0060892     -1197.672      -1543.2586      968.54986    
     16000   16000          396.08548      817.46056      11191.206      10199.659      9444.0641      755.59453      3627.2179      7013.4013     -9359.9148     -78.869469     -2865.0799      7843.2142     -5424.3746     -501.5534       83170.816      43.65061       43.65061       43.65061       1.0030867      539.17195      1817.3097      95.89998     
     17000   17000          399.13611     -433.83052      9677.3845      10206.366      9516.8017      689.56382      3604.6346      7050.4554     -9421.2178     -79.31303      -2910.1521      7864.901      -5419.7442     -498.93513      83607.273      43.726833      43.726833      43.726833      0.99785021     264.30201     -711.24252     -854.55104    
     18000   18000          391.1808       147.78253      10408.474      10228.423      9327.1194      901.30331      3656.5557      6941.5376     -9319.9115     -75.706534     -2745.127       7869.3353     -5425.3802     -499.33379      83540.522      43.715192      43.715192      43.715192      0.99864753    -96.32475      -723.04623      1262.7186    
     19000   19000          398.39897      1710.189       12403.048      10310.719      9499.2256      811.49296      3572.0873      6945.1531     -9305.431      -74.161188     -2771.6919      7867.4863     -5421.9496     -497.2538       83889.968      43.776061      43.776061      43.776061      0.99448762     811.80687      2196.9873      2121.7727    
     20000   20000          394.25497      418.28984      10687.645      10176.994      9400.4182      776.57625      3574.6411      6927.0957     -9362.853      -79.419835     -2740.9829      7879.6251     -5421.53       -498.33035      83708.74       43.744515      43.744515      43.744515      0.99664068    -359.28863      533.18306      1080.9751    
     21000   21000          402.87127     -135.37427      10286.314      10451.505      9605.8609      845.64375      3666.9442      6959.5575     -9306.1679     -78.461564     -2817.3415      7847.4179     -5426.3048     -498.55712      83670.665      43.737881      43.737881      43.737881      0.99709421    -965.66158      78.733324      480.80545    
     22000   22000          390.47296      745.74937      11045.35       10135.347      9310.2419      825.10524      3610.5848      6981.6081     -9366.0986     -81.880806     -2751.6037      7857.1917     -5424.6963     -498.55619      83670.821      43.737908      43.737908      43.737908      0.99709235     2134.7569      234.06761     -131.57638    
     23000   23000          402.643       -454.93703      9799.5444      10349.629      9600.4182      749.21102      3663.3259      6927.5103     -9279.9271     -76.785609     -2920.8491      7860.5405     -5424.6039     -503.13631      82909.154      43.604786      43.604786      43.604786      1.0062524      1482.1434      688.87476     -3535.8293    
     24000   24000          398.32105      835.87594      11357.347      10336.52       9497.3677      839.1525       3649.1888      7061.1014     -9411.894      -81.46502      -2815.3518      7871.1318     -5433.5587     -498.14275      83740.265      43.750005      43.750005      43.750005      0.99626548     1924.2594      130.27466      453.09381    
     25000   25000          403.05141     -448.6723       9815.1065      10358.806      9610.1561      748.64975      3588.214       6999.2311     -9334.7307     -78.064779     -2848.3085      7850.9401     -5428.6315     -502.03558      83090.935      43.636631      43.636631      43.636631      1.004051      -1458.8128     -143.17777      255.97371    
     26000   26000          392.39383      442.89735      10562.75       10022.673      9356.042       666.63144      3570.7024      6775.5776     -9295.9169     -75.789133     -2751.6801      7871.3021     -5427.5645     -498.89799      83613.498      43.727918      43.727918      43.727918      0.99777593     770.50842      827.56068     -269.37707    
     27000   27000          398.95215     -1123.6777      8842.8679      10209.971      9512.4154      697.55579      3534.1305      6988.9721     -9303.9774     -76.290778     -2859.2576      7845.2983     -5431.3193     -500.03965      83422.596      43.694613      43.694613      43.694613      1.0000592     -890.02442     -1757.5076     -723.50092    
     28000   28000          395.32282     -1140.5735      8927.5339      10321.045      9425.8795      895.16555      3634.2905      7012.936      -9283.2949     -76.815281     -2818.424       7854.556      -5428.0828     -497.93984      83774.389      43.755947      43.755947      43.755947      0.99585967    -1148.0052     -1760.7664     -512.94891    
     29000   29000          400.16658      1016.7396      11649.189      10410.141      9541.3717      868.76944      3588.8877      7069.1205     -9356.9087     -83.409869     -2787.0463      7864.4417     -5426.3156     -499.2129       83560.752      43.718721      43.718721      43.718721      0.99840575     1836.9519      1239.6706     -26.403712    
     30000   30000          394.40311     -1025.0418      8957.5792      10208.759      9403.9503      804.80891      3645.5851      7035.0392     -9363.8045     -75.777368     -2869.8212      7854.433      -5420.8452     -498.40891      83695.546      43.742216      43.742216      43.742216      0.99679779    -2171.2848     -862.6604      -41.180282    
     31000   31000          396.67003     -212.66911      9989.1829      10248.975      9458.0018      790.97365      3533.3194      6977.4843     -9304.2003     -80.427038     -2786.3503      7872.2253     -5421.0777     -498.01433      83761.859      43.753766      43.753766      43.753766      0.99600864     1417.4835     -1271.0452     -784.44572    
     32000   32000          396.72973     -129.84084      10200.891      10358.76       9459.4251      899.33459      3661.6372      6935.5691     -9280.5409     -77.545201     -2784.8832      7868.9315     -5423.8339     -500.35709      83369.671      43.685371      43.685371      43.685371      1.0006941     -163.42934     -1269.0889      1042.9957    
     33000   33000          396.87682     -1907.725       8040.1796      10359.391      9462.9322      896.45929      3597.0351      7020.8543     -9252.2966     -81.218999     -2830.9432      7867.7373     -5424.7086     -500.42542      83358.287      43.683383      43.683383      43.683383      1.0008307     -865.91658     -1769.5226     -3087.7356    
     34000   34000          398.31225     -1027.8898      9092.5694      10358.539      9497.158       861.38136      3678.0197      6915.164      -9302.1406     -80.140764     -2771.6621      7847.9531     -5425.812      -493.9548       84450.249      43.873301      43.873301      43.873301      0.98788976    -2362.5516      1062.7664     -1783.8842    
     35000   35000          390.60048     -196.90103      9842.471       10082.787      9313.2824      769.50423      3553.0271      7020.7851     -9352.3782     -80.911955     -2807.0643      7859.2072     -5423.1608     -498.45952      83687.049      43.740736      43.740736      43.740736      0.996899      -385.6306       358.69837     -563.77085    
     36000   36000          399.74866     -107.7129       10242.519      10373.928      9531.4071      842.52121      3589.3092      6942.8018     -9305.721      -72.407742     -2752.0337      7864.2094     -5423.6367     -498.66232      83653.013      43.734805      43.734805      43.734805      0.99730461    -386.86807      45.681167      18.048202    
     37000   37000          397.95321     -47.071932      10080.596      10137.658      9488.5972      649.06037      3525.9234      6865.131      -9290.387      -81.520612     -2818.4615      7875.1464     -5426.7714     -501.86367      83119.397      43.641613      43.641613      43.641613      1.0037072      920.882       -771.20788     -290.88991    
     38000   38000          397.45684     -776.40146      9429.8523      10372.828      9476.762       896.066        3635.2482      7068.53       -9349.8024     -85.206642     -2826.9968      7875.8932     -5421.5997     -500.89866      83279.531      43.669621      43.669621      43.669621      1.0017772     -475.03791     -667.94191     -1186.2246    
     39000   39000          393.91045      1045.5219      11518.328      10255.682      9392.2036      863.4785       3672.3423      6917.6957     -9208.2458     -83.547368     -2896.1772      7885.476      -5424.0651     -503.75058      82808.055      43.587055      43.587055      43.587055      1.0074809      1193.6485      58.779095      1884.1382    
     40000   40000          394.4783      -997.36992      8898.2258      10121.545      9405.7432      715.80195      3514.8045      7022.6512     -9384.2088     -84.386652     -2792.1616      7862.8188     -5423.7155     -495.99859      84102.267      43.812957      43.812957      43.812957      0.99197725    -95.222482     -1459.0016     -1437.8856    
     41000   41000          395.66704      937.0559       11325.56       10183.07       9434.0868      748.98348      3587.063       6960.6055     -9297.2014     -82.941282     -2853.7012      7866.5769     -5431.4181     -498.97327      83600.883      43.725719      43.725719      43.725719      0.99792649     1138.8394      723.12559      949.2027     
     42000   42000          401.91251      812.10126      11236.82       10254.29       9583.0007      671.28891      3572.5993      6995.1205     -9416.7929     -80.042996     -2856.5131      7878.4841     -5421.566      -502.83836      82958.281      43.613397      43.613397      43.613397      1.0056565      244.11515      1282.3623      909.82632    
     43000   43000          393.7145       491.73806      10632.797      10031.28       9387.5315      643.74838      3434.8089      6977.1329     -9331.6775     -77.63987      -2808.6094      7872.8257     -5423.0923     -497.33599      83876.106      43.773649      43.773649      43.773649      0.99465199     798.38757     -83.489186      760.31581    
     44000   44000          402.27386     -364.06262      9989.2544      10437.054      9591.6165      845.43783      3639.5354      7082.1503     -9365.9219     -76.099335     -2867.4946      7858.9541     -5425.6861     -494.60225      84339.702      43.854149      43.854149      43.854149      0.98918462    -1456.5571     -671.49273      1035.8619    
     45000   45000          396.36208      603.8724       10769.739      10036.587      9450.6591      585.92747      3461.5709      6951.7922     -9350.7238     -79.364461     -2832.0367      7856.1696     -5421.4803     -501.08938      83247.835      43.66408       43.66408       43.66408       1.0021586      553.36038      1533.5062     -275.24943    
     46000   46000          392.99222      676.97856      11000.143      10174.897      9370.3098      804.58698      3600.513       7046.0176     -9344.7533     -78.820555     -2838.9899      7847.5649     -5426.9448     -499.06296      83585.859      43.723099      43.723099      43.723099      0.99810586     64.144178      1191.9736      774.8179     
     47000   47000          393.6304       437.20148      10762.581      10234.43       9385.5263      848.90353      3583.1965      7075.892      -9279.9281     -77.904741     -2878.0153      7859.4576     -5433.7945     -503.60234      82832.43       43.591331      43.591331      43.591331      1.0071844      933.902        225.32049      152.38195    
     48000   48000          394.86151      1904.0096      12412.47       10110.341      9414.8803      695.46105      3478.1232      6989.618      -9302.5178     -71.752568     -2819.3487      7847.6431     -5426.3041     -503.15701      82905.742      43.604188      43.604188      43.604188      1.0062938      1490.2896      2494.8829      1726.8563    
     49000   49000          388.16127     -725.73945      9098.5857      9978.7349      9255.123       723.6119       3535.6122      6955.9117     -9266.7659     -83.275071     -2846.7684      7853.5288     -5424.6314     -501.63572      83157.168      43.648223      43.648223      43.648223      1.0032513     -1026.6935      279.14734     -1429.6722    
     50000   50000          391.21791     -865.4599       9110.3022      10174.964      9328.004       846.96003      3545.6522      7144.3582     -9401.9        -79.538654     -2819.2265      7877.5419     -5419.9271     -494.53759      84350.729      43.85606       43.85606       43.85606       0.9890553      105.06932      832.26663     -3533.7156    
     51000   51000          395.61548      1744.7131      12147.152      10033.457      9432.8575      600.5998       3558.1319      6931.2664     -9383.9993     -82.794768     -2870.8318      7871.9032     -5423.0758     -502.16417      83069.657      43.632906      43.632906      43.632906      1.0043082      1796.994       2305.7994      1131.3459    
     52000   52000          394.00347      670.68055      11027.678      10210.949      9394.4215      816.52698      3594.8151      6919.2027     -9250.9399     -82.544441     -2798.3869      7857.5824     -5423.202      -499.57577      83500.058      43.708133      43.708133      43.708133      0.99913147     1006.4389      1434.2218     -428.61907    
     53000   53000          389.1514       1048.7946      11294.56       10016.211      9278.7312      737.48008      3539.6283      7043.8756     -9406.6598     -82.581772     -2809.8603      7877.8246     -5424.7466     -499.1203       83576.256      43.721424      43.721424      43.721424      0.99822055    -175.16224      1965.7734      1355.7726    
     54000   54000          394.86644      529.97065      10761.925      10119.763      9414.9977      704.76495      3556.4459      6901.9588     -9355.4989     -74.923921     -2779.2904      7874.7328     -5418.6593     -502.07795      83083.924      43.635404      43.635404      43.635404      1.0041357      1008.4207     -369.18535      950.67657    
     55000   55000          395.05135      472.39412      10771.826      10195.037      9419.4068      775.63063      3596.3628      7059.1676     -9379.5616     -76.816924     -2880.4697      7877.211      -5420.2625     -498.25545      83721.324      43.746707      43.746707      43.746707      0.99649087     1657.2678      1057.1978     -1297.2833    
     56000   56000          395.92333     -593.72993      9263.8636      9985.4765      9440.1977      545.27886      3549.2359      6870.3067     -9323.0782     -75.132354     -2898.4807      7853.1936     -5430.7661     -500.55136      83337.313      43.679719      43.679719      43.679719      1.0010826     -870.28901      94.40709      -1005.3079    
     57000   57000          394.33501      360.12999      10288.867      9857.282       9402.3266      454.95536      3525.1997      6858.8386     -9331.6508     -75.271412     -2969.3989      7871.7872     -5424.5491     -507.64166      82173.33       43.475404      43.475404      43.475404      1.0152629      301.18353      1501.6245     -722.41805    
     58000   58000          397.22493      131.01369      10321.886      10163.754      9471.2325      692.52193      3601.606       6953.7046     -9337.6395     -79.832504     -2889.3073      7871.0635     -5427.0729     -504.03657      82761.07       43.57881       43.57881       43.57881       1.0080529     -444.16294      1010.4494     -173.24539    
     59000   59000          391.86809      101.86399      10152.722      10029.293      9343.5066      685.78637      3605.0377      6936.2926     -9320.4602     -73.638986     -2907.7183      7874.7149     -5428.4414     -502.07228      83084.861      43.635568      43.635568      43.635568      1.0041244     -526.17477      959.3495      -127.58275    
     60000   60000          391.34155     -330.31066      9624.1504      10026.275      9330.9521      695.32252      3664.6238      6772.4609     -9285.4636     -77.406048     -2830.4287      7877.6533     -5426.1171     -499.71965      83476.017      43.703938      43.703938      43.703938      0.99941921    -77.078365     -1195.3737      281.52008    
     61000   61000          405.55606      30.746657      10577.08       10539.766      9669.8757      869.88995      3554.4133      7110.4034     -9293.2943     -81.97875      -2864.7372      7875.6464     -5430.5629     -501.28282      83215.71       43.658463      43.658463      43.658463      1.0025455      884.57143     -705.37251     -86.958952    
     62000   62000          393.42854      568.80126      10847.114      10151.941      9380.7133      771.22802      3588.1906      6864.3483     -9260.6539     -75.380734     -2797.9736      7878.3384     -5425.641      -497.7738       83802.333      43.760812      43.760812      43.760812      0.9955276      1291.3721      1411.6186     -996.5869     
     63000   63000          391.36656      1555.1631      11748.221      9852.9485      9331.5484      521.40012      3494.4991      6875.5743     -9365.084      -76.225828     -2850.6064      7867.229      -5423.986      -499.19272      83564.131      43.71931       43.71931       43.71931       0.99836538     2712.2394      2000.6525     -47.402439    
     64000   64000          390.36081     -804.97628      9169.3824      10149.512      9307.5679      841.94454      3637.418       6939.64       -9318.5401     -78.673605     -2776.9573      7863.7978     -5424.7403     -499.64711      83488.135      43.706053      43.706053      43.706053      0.99927415    -2488.4685      587.51041     -513.97075    
     65000   65000          392.30866      828.29897      10902.509      9899.5956      9354.0114      545.58422      3582.6973      6758.0606     -9347.0601     -77.507511     -2804.0689      7860.7365     -5427.2737     -502.44387      83023.415      43.624808      43.624808      43.624808      1.0048675      293.64584      1125.5676      1065.6835    
     66000   66000          395.4717      -134.92311      9862.0007      10026.019      9429.4292      596.58978      3518.8441      6905.2948     -9330.6061     -74.878383     -2860.6329      7869.1051     -5430.5367     -500.44694      83354.703      43.682756      43.682756      43.682756      1.0008738      890.08233     -453.80782     -841.04385    
     67000   67000          395.02852      524.44699      10802.187      10163.429      9418.8623      744.5665       3556.9814      6995.6487     -9321.1001     -80.296211     -2845.237       7864.0457     -5425.476      -499.49244      83513.988      43.710564      43.710564      43.710564      0.99896481     761.82485     -155.80389      967.32002    
     68000   68000          387.61534      1123.5696      11287.746      9920.569       9242.1062      678.4628       3508.6535      7062.3168     -9441.1594     -79.485492     -2814.6771      7863.5401     -5420.7256     -499.96448      83435.139      43.696803      43.696803      43.696803      0.99990887     1009.7818      2029.8483      331.07853    
     69000   69000          393.52509     -428.90258      9657.7706      10182.478      9383.0153      799.46233      3528.3787      7156.7875     -9374.2889     -80.565607     -2865.5287      7858.591      -5423.9117     -497.28547      83884.626      43.775131      43.775131      43.775131      0.99455096    -802.03028     -1029.7592      545.08173    
     70000   70000          391.16323      858.76878      10820.825      9786.7372      9326.7003      460.03686      3440.444       6888.0693     -9312.8079     -76.737807     -2935.5842      7876.9257     -5420.2722     -505.22246      82566.808      43.544686      43.544686      43.544686      1.0104246      3019.4688      2187.8447     -2631.0071    
     71000   71000          389.41076     -93.326436      9834.9454      9948.0049      9284.9154      663.08949      3533.7812      6921.1479     -9323.5968     -76.578618     -2847.3639      7881.1166     -5425.4168     -502.18292      83066.556      43.632363      43.632363      43.632363      1.0043457      454.25202     -925.37038      191.13906    
     72000   72000          391.74582     -1344.881       8342.4535      9991.1146      9340.5914      650.52321      3572.5402      6879.7922     -9341.3587     -76.437375     -2846.0577      7883.1723     -5421.1277     -496.26824      84056.569      43.80502       43.80502       43.80502       0.99251655    -2648.5312     -584.0317      -802.07996    
     73000   73000          395.56395      352.01615      10492.309      10065.214      9431.6288      633.58544      3527.3057      6921.8074     -9344.0447     -78.489358     -2831.228       7865.8042     -5427.5699     -501.42053      83192.856      43.654466      43.654466      43.654466      1.0028209      1397.839       581.68095     -923.47152    
     74000   74000          389.11703      1345.446       11528.385      9899.3601      9277.9117      621.44838      3518.3412      6875.2764     -9324.8545     -75.905906     -2829.2863      7879.1738     -5421.2962     -502.46129      83020.536      43.624304      43.624304      43.624304      1.0049024      822.79434      2621.5347      592.00902    
     75000   75000          392.86082     -99.146624      9824.1335      9945.1444      9367.1769      577.96749      3459.8921      6960.7121     -9337.9655     -75.25509      -2878.8581      7876.8685     -5427.4265     -498.44519      83689.454      43.741155      43.741155      43.741155      0.99687035     1128.265      -195.02967     -1230.6752    
     76000   76000          391.12867     -1233.3648      8532.0252      10038.515      9325.8763      712.6387       3553.3932      6932.3072     -9290.3696     -81.07268      -2823.644       7852.9582     -5430.9335     -498.06887      83752.686      43.752168      43.752168      43.752168      0.99611773    -1166.2941     -1980.3972     -553.40323    
     77000   77000          386.73088      270.34833      10134.451      9805.0896      9221.0176      584.07199      3454.5663      6960.9729     -9387.6562     -78.99025      -2817.9197      7877.716      -5424.617      -499.36151      83535.885      43.714384      43.714384      43.714384      0.99870296    -257.10919      466.25323      601.90097    
     78000   78000          394.59337      135.93822      10319.234      10153.237      9408.4869      744.74961      3616.8177      6863.7574     -9301.9021     -76.249064     -2797.1736      7866.1862     -5426.687      -498.2009       83730.491      43.748303      43.748303      43.748303      0.99638177    -1186.9815      1833.9988     -239.20273    
     79000   79000          392.54039     -352.31143      9559.7765      9991.4537      9359.5367      631.917        3550.095       7010.8049     -9407.3197     -80.598564     -2863.7178      7853.6987     -5431.0456     -496.5142       84014.93       43.797786      43.797786      43.797786      0.99300845     208.1416      -1162.6379     -102.43801    
     80000   80000          393.60895     -717.04703      8972.121       9846.3956      9385.015       461.38065      3491.5126      6831.4489     -9335.2631     -74.641373     -2853.6975      7836.1251     -5434.104      -498.95779      83603.476      43.726171      43.726171      43.726171      0.99789554    -582.15936      1140.8872     -2709.869     
     81000   81000          388.00576     -1644.2268      7746.6407      9762.6144      9251.4152      511.19926      3504.4518      6726.0027     -9237.1086     -75.545916     -2832.0167      7858.5314     -5433.1155     -496.18186      84071.202      43.807562      43.807562      43.807562      0.99234379    -1348.6587     -2570.0845     -1013.9371    
     82000   82000          392.31632      446.67178      10604.655      10053.893      9354.194       699.69931      3495.2454      6955.8881     -9316.2714     -79.579104     -2787.9192      7858.2999     -5425.9644     -493.38828      84547.216      43.890087      43.890087      43.890087      0.98675674    -823.9119       712.61534      1451.3119    
     83000   83000          389.48652      568.20357      10440.441      9748.5962      9286.7217      461.87451      3476.0764      6814.7924     -9384.661      -76.922        -2797.0457      7853.4625     -5423.8281     -499.64267      83488.878      43.706183      43.706183      43.706183      0.99926526     238.47097      229.43443      1236.7053    
     84000   84000          388.98838      465.13686      10564.975      10001.64       9274.8443      726.79556      3532.3453      7073.5748     -9394.1221     -78.032053     -2841.3103      7856.5782     -5422.2383     -502.31687      83044.406      43.628484      43.628484      43.628484      1.0046136      782.87262     -339.86136      952.39932    
     85000   85000          394.87855      273.73263      10147.629      9817.7279      9415.2865      402.44141      3483.6829      6876.6583     -9410.1884     -81.510094     -2909.5682      7869.9282     -5426.5613     -504.78474      82638.405      43.557269      43.557269      43.557269      1.0095492      139.72585      379.85388      301.61817    
     86000   86000          399.06385     -522.06794      9463.7248      10100.216      9515.0788      585.13733      3533.9838      6945.2217     -9444.631      -77.558229     -2789.0873      7850.5017     -5433.2934     -498.99769      83596.791      43.725005      43.725005      43.725005      0.99797534    -501.6512       1214.6212     -2279.1738    
     87000   87000          392.32773     -341.37131      9404.8739      9820.1635      9354.4661      465.69739      3490.7701      6799.825      -9338.1275     -76.735797     -2841.8528      7856.1828     -5424.3644     -500.08059      83415.766      43.693421      43.693421      43.693421      1.0001411     -280.28047      684.70594     -1428.5394    
     88000   88000          397.43202      578.67557      10686.358      9987.7126      9476.1702      511.5424       3441.629       6981.1753     -9332.484      -80.425742     -2908.5935      7840.6624     -5430.4212     -503.89736      82783.934      43.582823      43.582823      43.582823      1.0077745      608.09868      844.03009      283.89793    
     89000   89000          387.62706     -19.496846      9712.2017      9735.9322      9242.3856      493.54657      3444.5484      6972.4039     -9368.6602     -79.662191     -2886.8136      7841.5116     -5429.7813     -499.82972      83457.633      43.70073       43.70073       43.70073       0.99963937     399.66163     -2020.495       1562.3428    
     90000   90000          390.78056     -230.55531      9644.6164      9925.2459      9317.5762      607.66971      3439.3964      7014.242      -9315.9946     -80.981719     -2868.5612      7845.7353     -5426.1665     -499.81113      83460.738      43.701272      43.701272      43.701272      0.99960218    -1133.0977      668.64086     -227.20911    
     91000   91000          388.08523      1452.0573      11407.433      9664.864       9253.3099      411.5541       3415.2527      6788.4237     -9259.5705     -77.583351     -2880.6894      7859.0644     -5433.3435     -506.94138      82286.843      43.495414      43.495414      43.495414      1.0138624      4008.9686     -260.82843      608.03166    
     92000   92000          393.65861     -8.4006212      9965.7595      9975.9688      9386.1989      589.7699       3570.409       6964.5977     -9409.4411     -79.405233     -2874.5743      7847.3285     -5429.1447     -500.58822      83331.177      43.678647      43.678647      43.678647      1.0011563     -1490.4665      51.631521      1413.6331    
     93000   93000          393.05001      888.51987      10926.682      9840.292       9371.6876      468.60433      3491.1426      6834.1065     -9377.3919     -74.810894     -2830.5197      7854.1678     -5428.0901     -497.56         83838.343      43.767079      43.767079      43.767079      0.9951        -958.92262      2391.7913      1232.691     
     94000   94000          395.02134      1080.979       11217.269      9922.4665      9418.6912      503.77538      3525.1348      6944.0963     -9421.0757     -75.816313     -2913.9654      7870.3874     -5424.9857     -507.8996       82131.599      43.468043      43.468043      43.468043      1.0157788      1136.8441      2292.2684     -186.17539    
     95000   95000          397.75603      372.1613       10293.059      9845.4173      9483.8957      361.52169      3534.2306      6780.2726     -9386.0833     -72.881334     -2921.6656      7856.0266     -5428.3779     -505.78415      82475.114      43.528561      43.528561      43.528561      1.011548      -37.837729      783.04108      371.28056    
     96000   96000          379.75781      547.93496      10270.954      9606.4676      9054.7553      551.71235      3551.261       6884.2676     -9371.894      -75.08874      -2862.5566      7860.6727     -5434.9496     -501.65717      83153.613      43.647601      43.647601      43.647601      1.0032942     -190.07608      2184.8455     -350.96454    
     97000   97000          389.90866      313.59261      10195.552      9816.2495      9296.787       519.46252      3614.43        6798.8596     -9357.7127     -74.6215       -2893.3002      7860.1093     -5428.3021     -502.97262      82936.136      43.609516      43.609516      43.609516      1.005925       2430.8389      223.72146     -1713.7826    
     98000   98000          388.21336      264.13333      9927.9614      9610.3567      9256.365       353.9917       3417.3236      6891.3053     -9409.7386     -78.956833     -2917.8069      7870.6504     -5418.7852     -505.9415       82449.464      43.524048      43.524048      43.524048      1.0118627     -1494.8931      1444.8997      842.39338    
     99000   99000          385.56718     -405.32737      9283.2065      9770.0148      9193.271       576.7438       3537.6031      7008.6923     -9408.544      -80.338158     -2920.9532      7871.8031     -5431.5193     -506.53805      82352.364      43.506955      43.506955      43.506955      1.0130557     -1078.4801     -880.51678      743.0148     
    100000   100000         390.50054     -419.11646      9123.0948      9624.1346      9310.8995      313.23506      3462.2643      6795.3993     -9395.1095     -79.271102     -2924.5593      7881.2123     -5426.7009     -508.89309      81971.256      43.439738      43.439738      43.439738      1.0177657      359.06615     -1795.0109      178.59543    
    101000   101000         392.67784     -897.28927      8715.4228      9795.8998      9362.8138      433.08598      3556.8149      6824.2224     -9377.8156     -77.499591     -2929.2011      7867.3591     -5430.7941     -505.22052      82567.125      43.544742      43.544742      43.544742      1.0104207      111.94991     -1474.2039     -1329.6138    
    102000   102000         396.96494      677.87421      10595.183      9777.6858      9465.0333      312.65242      3460.0259      6766.5534     -9388.9911     -79.710047     -2895.5218      7873.7847     -5423.4885     -504.46038      82691.54       43.566603      43.566603      43.566603      1.0089005      1020.4549      632.42584      380.74186    
    103000   103000         387.13278     -828.03263      8596.2656      9591.3553      9230.6003      360.75493      3501.5656      6882.9876     -9415.0076     -79.415577     -2949.7408      7848.0813     -5427.7155     -506.23161      82402.215      43.515732      43.515732      43.515732      1.0124429     -1589.1527      174.70529     -1069.6505    
    104000   104000         396.19366     -369.88389      9517.1667      9964.7249      9446.6433      518.08158      3594.4508      6812.274      -9364.823      -74.603143     -2871.294       7850.9042     -5428.8272     -502.78218      82967.55       43.615021      43.615021      43.615021      1.0055442     -1235.3815     -344.54251      470.27237    
    105000   105000         387.07254      61.90775       9760.1534      9685.5275      9229.164       456.36356      3510.335       6879.3041     -9377.8801     -76.163341     -2889.9124      7841.5202     -5430.8399     -504.68451      82654.816      43.560152      43.560152      43.560152      1.0093487      390.79303     -359.6224       154.55262    
    106000   106000         392.07138     -133.85667      9453.9694      9616.8999      9348.3539      268.546        3437.0342      6906.4176     -9470.8599     -72.334347     -2959.7706      7855.6156     -5427.5565     -499.80616      83461.567      43.701416      43.701416      43.701416      0.99959224     716.31571     -664.16241     -453.72333    
    107000   107000         391.39728      907.89765      10919.023      9813.0075      9332.2809      480.72663      3470.2493      6886.6982     -9356.6473     -73.076315     -2878.1695      7854.358      -5422.6857     -499.38989      83531.138      43.713556      43.713556      43.713556      0.99875971     2009.6451      710.88079      3.1670403    
    108000   108000         388.33591      175.01237      10070.489      9859.6816      9259.2871      600.39448      3518.2866      7094.7422     -9386.2339     -80.760925     -2971.1918      7844.7507     -5419.1984     -505.06493      82592.561      43.549213      43.549213      43.549213      1.0101096     -131.05369     -296.60578      952.69657    
    109000   109000         382.6629       1103.1673      10952.035      9614.6307      9124.0226      490.60806      3502.452       6826.2669     -9344.2249     -75.86037      -2833.8301      7845.9324     -5430.1277     -501.81396      83127.632      43.643054      43.643054      43.643054      1.0036077      1404.674       506.14119      1398.6867    
    110000   110000         391.06088      511.4188       10448.087      9833.2978      9324.26        509.03782      3553.7089      6883.0318     -9368.9679     -76.028583     -2916.3162      7862.9207     -5429.3109     -506.07432      82427.826      43.52024       43.52024       43.52024       1.0121283     -123.24907      709.86818      947.63728    
    111000   111000         390.44923      351.06669      10145.28       9718.4961      9309.6761      408.82002      3539.7837      6720.0096     -9361.5637     -75.27503      -2848.9919      7862.2181     -5427.3607     -500.43265      83357.083      43.683172      43.683172      43.683172      1.0008452      1814.2453     -484.47224     -276.57304    
    112000   112000         394.09859      1507.8705      11639.547      9828.775       9396.6895      432.08551      3534.5008      6801.8845     -9335.7764     -77.43507      -2924.4871      7863.0426     -5429.6439     -506.59901      82342.454      43.50521       43.50521       43.50521       1.0131777      3391.2488      555.04475      577.31781    
    113000   113000         386.53081     -224.35929      9409.3324      9679.6012      9216.2473      463.35391      3509.3159      6842.6468     -9291.116      -76.828845     -2964.6768      7871.8601     -5427.8471     -505.02426      82599.212      43.550382      43.550382      43.550382      1.0100282      19.439179      329.36057     -1021.8776    
    114000   114000         385.85016     -561.54221      8898.6821      9577.3624      9200.0182      377.34419      3505.0487      6852.8021     -9431.7023     -74.206745     -2893.039       7849.6211     -5431.1797     -503.36287      82871.837      43.598243      43.598243      43.598243      1.0067055     -964.90903     -392.23243     -327.48517    
    115000   115000         392.27395      391.84411      10442.53       9970.8807      9353.1838      617.69695      3610.8581      6901.39       -9349.8518     -78.466868     -2917.3832      7875.198      -5424.0472     -505.4267       82533.443      43.53882       43.53882       43.53882       1.0108331      71.665673      144.01932      959.84735    
    116000   116000         386.75222     -1068.2782      8305.6231      9601.4852      9221.5264      379.95879      3494.4436      6917.4958     -9434.3292     -78.491247     -2947.2115      7858.9865     -5430.9352     -501.52154      83176.1        43.651535      43.651535      43.651535      1.0030229     -1931.9089     -448.61535     -824.31024    
    117000   117000         389.11365     -655.27678      8803.0802      9592.5917      9277.8312      314.76055      3523.8093      6737.3746     -9382.8168     -73.072684     -2905.3014      7846.6618     -5431.8943     -504.929        82614.794      43.55312       43.55312       43.55312       1.0098377     -1614.48        763.797       -1115.1473    
    118000   118000         389.12461     -267.14645      9198.2287      9521.8444      9278.0925      243.75194      3449.2977      6881.8299     -9459.5672     -75.303319     -2983.001       7854.9872     -5424.4913     -502.20827      83062.364      43.631629      43.631629      43.631629      1.0043964     -39.126235      376.13712     -1138.4502    
    119000   119000         382.83999     -229.03028      9264.4759      9541.5495      9128.2452      413.30433      3432.3593      6881.8858     -9351.5788     -73.581575     -2914.9857      7866.0143     -5426.809      -502.87687      82951.928      43.612284      43.612284      43.612284      1.0057335      350.55925     -229.43473     -808.21536    
    120000   120000         394.69401      11.072366      9811.1883      9797.8696      9410.8864      386.98318      3483.6042      6815.0175     -9356.2329     -75.870967     -2929.5565      7875.5681     -5425.5462     -505.75921      82479.182      43.529276      43.529276      43.529276      1.0114981     -718.26466      795.33636     -43.854603    
    121000   121000         382.03368      361.22054      9960.1117      9524.0526      9109.02        415.03262      3522.1888      6797.6873     -9382.6208     -78.16384      -2890.9183      7869.6215     -5422.7621     -503.95431      82774.579      43.581181      43.581181      43.581181      1.0078884      1061.5963     -206.31862      228.38397    
    122000   122000         381.64065     -1130.2678      8212.5473      9585.7524      9099.6487      486.1037       3544.1138      6786.8003     -9384.0571     -75.857477     -2833.1499      7875.3554     -5427.1012     -500.73735      83306.359      43.67431       43.67431       43.67431       1.0014546     -257.93579     -2590.6521     -542.21566    
    123000   123000         384.32515     -26.710011      9398.1525      9430.303       9163.6567      266.64635      3366.6448      6809.4345     -9324.2226     -81.033459     -2932.1766      7856.0707     -5428.0709     -505.41711      82535.008      43.539095      43.539095      43.539095      1.0108139     -718.59075     -362.70729      1001.168     
    124000   124000         389.08696      490.81115      10287.488      9694.203       9277.1947      417.00821      3455.2042      6788.5246     -9369.2963     -76.889952     -2841.1471      7883.5358     -5422.9231     -503.28613      82884.474      43.600459      43.600459      43.600459      1.006552       1085.7489      1221.6313     -834.94667    
    125000   125000         383.81007      1649.0218      11561.94       9572.5531      9151.3753      421.17776      3483.3099      6886.8708     -9469.8533     -77.219759     -2879.8973      7896.0382     -5418.0707     -504.27934      82721.227      43.571816      43.571816      43.571816      1.0085384      1318.8708      595.03338      3033.1613    
    126000   126000         384.14101     -541.15113      8978.1099      9633.0163      9159.2659      473.75035      3543.3069      6899.3336     -9435.3845     -78.402457     -2899.2318      7870.6568     -5426.528      -502.69367      82982.158      43.617581      43.617581      43.617581      1.0053671     -2158.0887     -313.60872      848.244      
    127000   127000         394.52444      845.03507      10881.272      9858.6209      9406.8433      451.77766      3480.544       6827.6775     -9350.879      -77.494607     -2859.3041      7855.6947     -5424.4608     -502.70269      82980.669      43.61732       43.61732       43.61732       1.0053852     -10.408869      2044.4055      501.10856    
    128000   128000         386.79341      819.26103      10665.067      9678.2004      9222.5086      455.69184      3504.5734      6802.6391     -9349.2763     -75.565573     -2860.3298      7863.4948     -5429.8437     -505.04263      82596.208      43.549854      43.549854      43.549854      1.010065       925.65306      1384.4692      147.66083    
    129000   129000         382.72227      44.848091      9447.484       9392.9642      9125.4382      267.52605      3410.6373      6743.3147     -9417.4807     -77.376134     -2815.2074      7856.5708     -5432.9326     -500.44224      83355.485      43.682893      43.682893      43.682893      1.0008644     -456.81535     -967.35944      1558.7191    
    130000   130000         381.21195      6.8627932      9517.6328      9509.3766      9089.427       419.94952      3531.3526      6801.6373     -9375.3993     -72.225981     -2901.915       7862.7168     -5426.2168     -505.68455      82491.359      43.531419      43.531419      43.531419      1.0113488     -314.04782      1151.0221     -816.38593    
    131000   131000         381.72398      516.39679      10196.131      9572.5469      9101.6355      470.91143      3546.854       6863.5152     -9426.6805     -73.288684     -2877.5953      7864.4489     -5426.342      -503.79338      82801.02       43.585821      43.585821      43.585821      1.0075665      1103.7923     -471.29888      916.6969     
    132000   132000         388.46926     -46.674768      9725.8726      9782.3775      9262.4667      519.91076      3505.5771      6884.906      -9361.6943     -71.922594     -2857.9594      7852.5432     -5431.5392     -502.52784      83009.542      43.622378      43.622378      43.622378      1.0050355     -998.01649      355.61689      502.3753     
    133000   133000         390.92531      395.38763      10186.7        9705.483       9321.0275      384.45545      3413.1658      6863.2349     -9465.8968     -77.306011     -2792.787       7872.4359     -5428.3913     -499.8578       83452.946      43.699911      43.699911      43.699911      0.99969552     1689.9063     -297.67307     -206.07033    
    134000   134000         391.04083     -584.49912      8980.0177      9691.824       9323.7819      368.04218      3455.9069      6799.8653     -9412.8201     -81.803973     -2830.0945      7864.0061     -5427.0174     -499.55811      83503.01       43.708648      43.708648      43.708648      0.99909615    -306.608        111.12684     -1558.0162    
    135000   135000         393.82783     -513.12376      9139.0887      9758.5279      9390.2338      368.29416      3480.1121      6824.6113     -9397.0523     -72.296404     -2884.6817      7852.3174     -5434.7164     -503.95001      82775.285      43.581305      43.581305      43.581305      1.0078798      162.61058      977.50537     -2679.4872    
    136000   136000         386.44101     -544.68534      8893.8994      9554.9664      9214.106       340.86043      3505.4305      6758.5245     -9364.0247     -75.733449     -2930.4727      7875.1391     -5428.0029     -501.2614       83219.266      43.659085      43.659085      43.659085      1.0025027     -955.8627       274.52434     -952.71766    
    137000   137000         385.33485      234.85613      9859.6049      9578.637       9187.7313      390.90575      3498.096       6796.5698     -9309.0238     -78.328184     -2962.4615      7869.3424     -5423.289      -508.5214       82031.171      43.450319      43.450319      43.450319      1.0170224     -476.84149      510.69566      670.71423    
    138000   138000         390.79826      1145.1405      11083.635      9689.2199      9317.9981      371.22183      3457.335       6740.897      -9360.2323     -77.368688     -2853.7946      7886.8406     -5422.4552     -499.60957      83494.41       43.707148      43.707148      43.707148      0.99919906     2181.5513      1613.8832     -360.01289    
    139000   139000         386.67855     -395.73325      9048.3183      9523.4947      9219.77        303.72474      3521.2344      6665.0486     -9360.4643     -80.047641     -2866.9139      7854.8205     -5429.9529     -506.65433      82333.464      43.503627      43.503627      43.503627      1.0132883     -492.98308     -110.35115     -583.8655     
    140000   140000         384.49964      805.82813      10637.488      9663.2192      9167.8169      495.40229      3465.3639      6928.6418     -9437.2567     -79.795042     -2836.6131      7878.6166     -5423.5551     -503.18521      82901.096      43.603374      43.603374      43.603374      1.0063502      500.08042      804.7232       1112.6808    
    141000   141000         383.97545      55.116088      9466.6912      9400.4598      9155.3186      245.14124      3363.3763      6920.1043     -9492.431      -76.652358     -2901.2448      7858.1685     -5426.1797     -506.26532      82396.728      43.514766      43.514766      43.514766      1.0125103      517.5668      -990.99337      638.77483    
    142000   142000         386.53406      152.36788      9800.8305      9616.5866      9216.3247      400.2619       3502.481       6793.7629     -9367.9669     -75.728026     -2929.3624      7892.9805     -5415.905      -503.11159      82913.227      43.6055        43.6055        43.6055        1.006203       395.92341     -324.20612      385.38634    
    143000   143000         385.67494      121.66329      9745.8816      9597.643       9195.8402      401.80277      3454.9222      6930.7262     -9448.87       -76.74522      -2899.866       7862.7823     -5421.1468     -499.30098      83546.012      43.71615       43.71615       43.71615       0.9985819      618.9047       503.9595      -757.87431    
    144000   144000         386.48075      387.88521      10135.43       9667.8723      9215.0537      452.81858      3550.7133      6716.7051     -9275.6149     -75.759035     -2915.0961      7872.9601     -5421.0899     -504.6988       82652.477      43.559741      43.559741      43.559741      1.0093773     -773.16713      1789.9782      146.84462    
    145000   145000         381.01839      638.92356      10182.299      9411.0735      9084.8119      326.26157      3513.0127      6799.9877     -9415.2435     -79.420113     -2955.3349      7886.7138     -5423.4541     -504.00104      82766.904      43.579834      43.579834      43.579834      1.0079818      827.0154       973.94487      115.8104     
    146000   146000         394.76081      640.45704      10522.588      9753.8926      9412.4791      341.41351      3490.8369      6739.8699     -9305.1503     -75.32506      -2957.4799      7869.9574     -5421.2954     -506.87364      82297.841      43.497351      43.497351      43.497351      1.0137269      1150.1502      138.51746      632.70344    
    147000   147000         381.72271     -1.3157111      9400.0976      9401.694       9101.6053      300.08877      3404.8802      6886.4108     -9426.7042     -78.233962     -2916.6953      7857.048      -5426.6167     -501.38109      83199.4        43.65561       43.65561       43.65561       1.002742      -1004.2523      1823.3331     -823.02795    
    148000   148000         385.13173      811.10309      10524.403      9542.8677      9182.8881      359.97954      3496.6865      6783.7201     -9422.8185     -75.299574     -2858.7953      7860.8491     -5424.3627     -502.72905      82976.318      43.616558      43.616558      43.616558      1.0054379      169.63985      1532.1793      731.4901     
    149000   149000         382.43844     -127.44271      9442.7268      9595.8065      9118.6707      477.13578      3567.3751      6762.7521     -9347.255      -73.924726     -2855.2715      7854.7115     -5431.2516     -506.4791       82361.949      43.508643      43.508643      43.508643      1.0129379      712.70087     -1111.5544      16.525369    
    150000   150000         382.76266     -1253.1656      7967.7001      9479.2963      9126.4014      352.89485      3487.306       6809.0006     -9422.9949     -75.344005     -2903.7502      7882.5894     -5423.912      -504.35544      82708.746      43.569624      43.569624      43.569624      1.0086906     -1982.2691     -2277.659       500.43134    
    151000   151000         384.49435     -870.62832      8531.7711      9585.4365      9167.6908      417.74575      3467.6246      6846.1537     -9378.4068     -83.389977     -2893.3641      7888.3883     -5429.2601     -502.68286      82983.943      43.617894      43.617894      43.617894      1.0053455     -272.18086     -679.93279     -1659.7713    
    152000   152000         375.07174     -181.884        9133.3353      9354.7294      8943.0228      411.70655      3421.5553      6866.8519     -9387.2767     -76.035313     -2871.6186      7875.9847     -5417.7547     -499.7956       83463.331      43.701724      43.701724      43.701724      0.99957113     469.60598     -341.50778     -673.75021    
    153000   153000         384.58177      969.60328      10721.522      9551.3764      9169.7753      381.60109      3502.3558      6794.2857     -9345.3199     -79.173878     -2948.494       7880.6138     -5422.6664     -504.10175      82750.368      43.576931      43.576931      43.576931      1.0081833     -847.95786      2681.3772      1075.3905    
    154000   154000         384.54321     -165.81811      9355.6267      9555.9526      9168.8559      387.09664      3455.8768      6840.2527     -9389.8943     -79.100895     -2881.7084      7865.9613     -5424.2906     -503.569        82837.915      43.592294      43.592294      43.592294      1.0071178      1340.1961      513.58607     -2351.2365    
    155000   155000         384.80895      246.88843      9833.9887      9534.9171      9175.1921      359.72499      3454.4657      6731.3038     -9365.6621     -70.804729     -2849.0295      7880.7037     -5421.2519     -502.21493      83061.263      43.631436      43.631436      43.631436      1.0044097      281.34216     -220.81486      680.13798    
    156000   156000         378.63076      19.364277      9472.3842      9449.0101      9027.8824      421.12777      3451.5006      6855.5908     -9360.7096     -82.208152     -2897.2667      7869.3639     -5415.143      -504.00079      82766.946      43.579841      43.579841      43.579841      1.0079813     -1061.5955      696.25439      423.43394    
    157000   157000         388.70962     -1282.8514      8079.6274      9639.7125      9268.1976      371.51488      3487.3646      6871.5368     -9420.2396     -77.910291     -2960.3329      7891.2017     -5420.1053     -500.25574      83386.562      43.688321      43.688321      43.688321      1.0004914     -1534.8865     -626.15859     -1687.5091    
    158000   158000         385.44218     -921.06817      8433.6436      9550.0384      9190.2905      359.74788      3502.0963      6778.6744     -9435.8178     -78.444766     -2883.1319      7889.6349     -5413.2632     -501.92407      83109.396      43.639863      43.639863      43.639863      1.003828       624.1084      -2194.3507     -1192.9623    
    159000   159000         381.78743     -464.69964      9047.8705      9610.6268      9103.1485      507.47831      3565.2552      6758.8458     -9385.2878     -73.368078     -2848.476       7906.5296     -5416.0204     -502.36107      83037.099      43.627205      43.627205      43.627205      1.0047019      173.55543     -691.70071     -875.95366    
    160000   160000         378.75601     -249.4304       9135.2459      9436.916       9030.8688      406.04716      3430.4121      6846.2505     -9391.1942     -75.644685     -2872.3295      7888.9642     -5420.4113     -503.01526      82929.107      43.608284      43.608284      43.608284      1.0060103      733.1872      -1544.1029      62.624507    
    161000   161000         383.21182     -22.770464      9444.3892      9472.093       9137.111       334.982        3392.6428      6787.0822     -9379.5174     -74.69635      -2875.3029      7903.3401     -5418.5664     -500.03069      83424.091      43.694874      43.694874      43.694874      1.0000413     -1649.3349     -99.098398      1680.1219    
    162000   162000         386.48378     -543.41355      9137.4457      9794.3091      9215.1258      579.18326      3547.2761      6896.2425     -9371.9906     -79.922568     -2875.6402      7885.088      -5421.87       -503.29136      82883.612      43.600308      43.600308      43.600308      1.0065625     -1512.5932      255.43726     -373.08471    
    163000   163000         383.78671      215.82818      9766.997       9504.0038      9150.8183      353.18553      3379.7481      6775.4213     -9355.6201     -75.699373     -2831.5274      7883.5258     -5422.663      -499.26116      83552.675      43.717312      43.717312      43.717312      0.99850227    -67.884594      184.00665      531.36249    
    164000   164000         384.06999     -201.92142      9225.664       9469.5217      9157.5725      311.94919      3427.9923      6875.8986     -9459.8696     -77.999102     -2894.7571      7870.5092     -5429.8251     -503.74404      82809.13       43.587244      43.587244      43.587244      1.0074678      75.297476     -610.66812     -70.393606    
    165000   165000         391.80654      451.67155      10217.002      9672.541       9342.0391      330.50186      3475.8737      6842.8483     -9424.3852     -74.010837     -2932.851       7870.2546     -5427.2276     -504.6842       82654.867      43.560161      43.560161      43.560161      1.0093481      1129.2749      884.48917     -658.74938    
    166000   166000         382.82454     -249.08994      9103.0177      9402.6339      9127.8769      274.75705      3428.1348      6797.5883     -9401.3249     -74.445442     -2939.0271      7886.4526     -5422.6212     -505.77217      82477.068      43.528904      43.528904      43.528904      1.011524       820.30827     -895.19695     -672.38114    
    167000   167000         379.19539     -466.49082      8976.4633      9542.608       9041.3452      501.26287      3466.858       6918.6806     -9382.4746     -79.596675     -2871.9767      7873.2101     -5423.4378     -501.27916      83216.318      43.658569      43.658569      43.658569      1.0025382      130.97888     -1619.855       89.403676    
    168000   168000         388.53411      1662.8096      11518.944      9527.464       9264.013       263.451        3476.2283      6773.1098     -9379.2615     -75.678024     -2978.4549      7875.9859     -5428.4786     -507.96126      82121.628      43.466284      43.466284      43.466284      1.0159021      1558.3957      2031.5612      1398.4719    
    169000   169000         382.02617      916.71255      10443.983      9344.9802      9108.8409      236.13928      3408.6635      6697.7057     -9313.2125     -78.562328     -2914.8064      7867.2355     -5430.8842     -507.45586      82203.418      43.48071       43.48071       43.48071       1.0148913     -773.89303      2349.3945      1174.6362    
    170000   170000         388.80728     -1409.9136      7888.1892      9593.51        9270.5262      322.98374      3476.2984      6771.428      -9316.7305     -75.681949     -2967.1838      7863.8503     -5428.9967     -502.97968      82934.971      43.609312      43.609312      43.609312      1.0059392     -1767.8494     -164.85032     -2297.041     
    171000   171000         386.71288      246.09797      9554.7534      9259.1725      9220.5883      38.584171      3431.478       6663.4789     -9484.1136     -75.191073     -2937.9418      7868.7439     -5427.8702     -506.51888      82355.481      43.507504      43.507504      43.507504      1.0130174      739.40299      881.97215     -883.08123    
    172000   172000         386.14013     -314.52351      9147.1812      9526.075       9206.9321      319.14291      3489.5886      6711.5401     -9320.787      -75.366689     -2926.4528      7864.5438     -5423.923      -505.0096       82601.609      43.550803      43.550803      43.550803      1.0099989      963.37308     -230.46422     -1676.4794    
    173000   173000         380.89602     -378.88918      8914.4779      9371.5507      9081.8942      289.65649      3502.1445      6834.5479     -9450.3416     -82.007077     -2976.5668      7881.4924     -5419.6129     -504.30227      82717.466      43.571155      43.571155      43.571155      1.0085843      2011.1035     -1575.2245     -1572.5466    
    174000   174000         387.17084     -1093.6044      8240.8869      9558.8531      9231.5077      327.34542      3474.1956      6743.7414     -9333.1807     -74.25635      -2964.6818      7898.1794     -5416.6522     -504.8008       82635.775      43.556807      43.556807      43.556807      1.0095813      99.518891     -1679.7374     -1700.5948    
    175000   175000         380.50203      499.71934      10019.868      9419.2583      9072.5         346.75831      3441.1318      6806.9602     -9361.7993     -73.275396     -2922.7589      7880.4432     -5423.9433     -506.17155      82411.993      43.517453      43.517453      43.517453      1.0123228      689.68003      1267.0496     -457.57163    
    176000   176000         380.95907     -124.72019      9263.5036      9414.1259      9083.3974      330.72851      3536.1666      6674.4455     -9362.213      -77.420619     -2882.8919      7868.1123     -5425.4705     -503.74575      82808.849      43.587194      43.587194      43.587194      1.0074713     -118.41824     -207.07457     -48.667755    
    177000   177000         387.63286      1266.0401      11279.972      9749.6782      9242.5238      507.1544       3511.8683      6878.0782     -9360.9827     -76.601064     -2905.1269      7879.5919     -5419.6734     -503.31125      82880.337      43.599734      43.599734      43.599734      1.0066023      552.3912       2247.4086      998.32058    
    178000   178000         386.38782     -618.80826      8630.1903      9376.4522      9212.8377      163.61447      3390.4061      6683.0838     -9353.3413     -77.934121     -2939.7676      7881.0822     -5419.9146     -504.46247      82691.197      43.566542      43.566542      43.566542      1.0089047     -128.65423     -145.56531     -1582.2052    
    179000   179000         382.16848      114.87808      9682.5364      9542.9372      9112.2339      430.70333      3431.4254      6837.9706     -9369.3873     -75.909804     -2839.5972      7869.8684     -5423.6668     -500.63176      83323.93       43.67738       43.67738       43.67738       1.0012434      1806.0637     -1377.7956     -83.633911    
    180000   180000         380.1603       740.90419      10340.829      9449.7992      9064.352       385.4472       3497.3153      6781.0692     -9365.8633     -76.817961     -2880.2106      7853.7565     -5423.802      -505.86413      82462.075      43.526267      43.526267      43.526267      1.0117079      1010.7295      1086.5231      125.46001    
    181000   181000         381.84046     -422.9144       8766.3545      9280.7298      9104.4129      176.31685      3293.6297      6789.034      -9363.045      -74.313726     -2916.9371      7872.5326     -5424.5835     -500.19167      83397.243      43.690186      43.690186      43.690186      1.0003632      277.62813     -67.927308     -1478.444     
    182000   182000         387.70424      952.36572      10584.809      9436.5804      9244.2258      192.35455      3323.0951      6813.8102     -9442.9512     -75.42465      -2862.2709      7859.0971     -5423.0011     -504.59082      82670.165      43.562848      43.562848      43.562848      1.0091614      828.09267      950.71059      1078.2939    
    183000   183000         382.328       -1683.7502      7306.57        9340.6793      9116.0376      224.64164      3434.786       6827.0289     -9429.9179     -75.316644     -2981.4165      7872.4166     -5422.9388     -503.57878      82836.306      43.592011      43.592011      43.592011      1.0071373     -2461.2306     -868.04331     -1721.9766    
    184000   184000         382.24065      2491.6439      12482.042      9472.4748      9113.9548      358.51993      3383.108       6809.2392     -9356.3092     -78.239528     -2872.851       7890.0691     -5416.4968     -503.66987      82821.325      43.589383      43.589383      43.589383      1.0073195      2696.6921      913.17885      3865.0606    
    185000   185000         377.83758      666.26014      10032.519      9230.5686      9008.9703      221.59836      3373.424       6751.3394     -9409.2263     -78.157464     -2865.0649      7870.6333     -5421.3498     -505.42952      82532.983      43.538739      43.538739      43.538739      1.0108387     -49.558117      2068.6216     -20.283103    
    186000   186000         376.72047     -785.05189      8303.021       9257.9664      8982.3343      275.63216      3384.9394      6906.6548     -9461.8888     -80.98327      -2923.4393      7871.0298     -5420.6806     -500.1311       83407.343      43.69195       43.69195       43.69195       1.0002421     -499.94364     -1988.1748      132.96279    
    187000   187000         378.50646      837.82688      10442.464      9426.4299      9024.9187      401.51122      3448.9241      6873.3801     -9396.3294     -77.833668     -2884.1626      7867.5674     -5430.0348     -501.66073      83153.022      43.647497      43.647497      43.647497      1.0033013      1859.1824      486.13172      168.16657    
    188000   188000         381.99547      1504.0317      11075.521      9265.2078      9108.1089      157.0989       3341.0403      6746.5398     -9432.7704     -76.658975     -2873.8439      7877.6417     -5424.8496     -505.43737      82531.701      43.538514      43.538514      43.538514      1.0108544      803.69229      418.84892      3289.5539    
    189000   189000         387.05623      574.83364      10206.229      9517.2147      9228.775       288.43976      3455.3459      6867.7617     -9399.9887     -73.334596     -2988.2893      7858.2499     -5431.3053     -507.54868      82188.384      43.478059      43.478059      43.478059      1.015077       495.66441      539.00013      689.83638    
    190000   190000         380.57453      413.11812      9917.4306      9419.9744      9074.2287      345.74568      3558.7953      6711.7269     -9352.8145     -73.42268      -2935.2466      7868.1814     -5431.4742     -505.2234       82566.655      43.544659      43.544659      43.544659      1.0104265     -672.4682      -242.24822      2154.0708    
    191000   191000         376.52905     -323.32837      8902.3271      9291.0735      8977.7703      313.30326      3508.5369      6778.7354     -9435.0963     -74.186389     -2895.2879      7858.9866     -5428.3851     -505.9894       82441.659      43.522674      43.522674      43.522674      1.0119585     -111.60169      346.19909     -1204.5825    
    192000   192000         384.64236     -1214.6737      7950.6081      9410.4895      9171.22        239.26955      3493.0938      6699.1163     -9341.4013     -79.126903     -2975.2554      7870.0471     -5427.2042     -506.18128      82410.408      43.517174      43.517174      43.517174      1.0123422     -2091.242      -978.56366     -574.21533    
    193000   193000         379.54531     -746.25472      8266.5417      9164.176       9049.6883      114.48764      3362.567       6799.1535     -9487.4812     -76.235335     -2949.6014      7885.2169     -5419.1318     -505.7684       82477.683      43.529013      43.529013      43.529013      1.0115165     -157.49424     -1435.4479     -645.82204    
    194000   194000         382.25982      115.8211       9619.4589      9480.8829      9114.4119      366.47101      3454.1101      6836.869      -9330.6825     -73.502676     -2977.1758      7878.6375     -5421.7846     -508.46809      82039.771      43.451837      43.451837      43.451837      1.0169158     -418.77151     -854.26808      1620.5029    
    195000   195000         373.87134      8.628044       9305.8459      9295.3305      8914.401       380.92946      3449.8547      6832.1675     -9386.2834     -77.405934     -2869.3803      7855.8278     -5423.8509     -499.17118      83567.736      43.719939      43.719939      43.719939      0.99832231    -61.562705     -119.34892      206.79576    
    196000   196000         376.21285      1397.5382      11023.181      9337.7528      8970.2309      367.52191      3408.3685      6831.5244     -9353.091      -74.6319       -2888.1628      7870.958      -5427.4433     -504.44914      82693.383      43.566926      43.566926      43.566926      1.008878       2306.9362      629.10599      1256.5724    
    197000   197000         381.60245      276.56801      9643.6677      9309.9159      9098.7378      211.17812      3390.6528      6548.4575     -9257.3755     -75.043226     -2841.8008      7873.1727     -5426.8852     -504.12973      82745.777      43.576125      43.576125      43.576125      1.0082392      1036.9673     -184.46631     -22.796963    
    198000   198000         380.78594     -759.85515      8404.8205      9331.1936      9079.2695      251.92413      3366.894       6890.43       -9426.8024     -79.188304     -2928.0644      7858.1059     -5429.4507     -499.00958      83594.799      43.724658      43.724658      43.724658      0.99799912    -2138.3934     -880.29082      739.11872    
    199000   199000         381.62328     -973.94687      8149.4735      9321.3251      9099.2345      222.09067      3378.4859      6808.0228     -9403.6067     -70.834844     -2934.8491      7871.9967     -5427.1241     -505.62283      82501.429      43.53319       43.53319       43.53319       1.0112253     -2507.8388      1576.0304     -1990.0322    
    200000   200000         379.61533     -1125.5304      8273.5425      9624.9134      9051.358       573.55544      3645.1908      6802.5769     -9399.4109     -74.175239     -2849.7496      7874.1762     -5425.0526     -506.69509      82326.84       43.50246       43.50246       43.50246       1.0133698     -1106.0982     -2386.8454      116.35239    
    201000   201000         381.69529      190.56392      9458.7867      9226.8595      9100.9514      125.90805      3359.4978      6688.6254     -9399.37       -74.236267     -2887.7141      7868.0801     -5428.9749     -499.86537      83451.681      43.699691      43.699691      43.699691      0.99971066     1195.1577     -473.80526     -149.66063    
    202000   202000         372.99001      147.36359      9527.2532      9349.465       8893.3872      456.07777      3494.0165      6739.3181     -9296.5643     -69.351931     -2863.5898      7877.6772     -5425.4281     -504.25613      82725.035      43.572484      43.572484      43.572484      1.008492      -1014.6236      549.20956      907.50484    
    203000   203000         381.52008     -1100.9662      7984.4332      9320.2696      9096.7738      223.49583      3364.3723      6824.7949     -9358.0462     -80.156626     -2949.5924      7855.87       -5433.7463     -501.4005       83196.179      43.655047      43.655047      43.655047      1.0027809     -2877.3597      1122.5305     -1548.0695    
    204000   204000         375.86087      620.50818      9964.5188      9216.4022      8961.8384      254.5638       3386.9865      6772.0604     -9374.236      -80.465817     -2885.2095      7867.7601     -5432.3319     -504.59416      82669.617      43.562752      43.562752      43.562752      1.009168       738.8612       760.12612      362.53722    
    205000   205000         375.07934      994.00174      10356.797      9155.5745      8943.204       212.3705       3308.8313      6795.9518     -9357.643      -75.591777     -2903.3863      7869.6279     -5425.4194     -503.41693      82862.938      43.596683      43.596683      43.596683      1.0068136      836.86379     -146.87664      2292.0181    
    206000   206000         376.78842     -1882.4022      6972.1052      9251.9414      8983.9545      267.98691      3470.567       6784.8169     -9375.2401     -76.218678     -2972.6634      7865.1458     -5428.4205     -502.31113      83045.354      43.628651      43.628651      43.628651      1.0046021     -2678.5661     -731.82964     -2236.8108    
    207000   207000         374.73481     -1795.797       6895.5356      9073.5265      8934.9894      138.53715      3403.2133      6681.958      -9342.0249     -75.842611     -2976.4721      7870.4439     -5422.7384     -501.60888      83161.618      43.649001      43.649001      43.649001      1.0031976     -3053.9715     -1478.2834     -855.13607    
    208000   208000         385.44461     -174.91565      9284.3784      9495.3523      9190.3485      305.00379      3526.7354      6657.9818     -9354.7826     -76.166949     -2886.6381      7861.9916     -5424.1174     -504.38724      82703.531      43.568708      43.568708      43.568708      1.0087542     -167.35521     -217.78185     -139.60989    
    209000   209000         377.62698     -673.63483      8367.6843      9180.6245      9003.9488      176.67571      3443.6188      6711.6446     -9360.7105     -78.001585     -2972.3269      7855.5886     -5423.1372     -504.11543      82748.123      43.576537      43.576537      43.576537      1.0082106     -2766.0864      935.89998     -190.71807    
    210000   210000         380.09472      683.27741      10020.207      9195.0159      9062.7884      132.22749      3449.1572      6565.1387     -9314.9878     -69.449391     -2929.6672      7859.816      -5427.7801     -503.7403       82809.745      43.587352      43.587352      43.587352      1.0074604      1083.3403     -166.87812      1133.3701    
    211000   211000         376.58758     -218.39443      9101.5506      9365.0132      8979.1657      385.84744      3457.8432      6988.1303     -9515.407      -80.218317     -2879.8348      7846.7071     -5431.373      -504.29727      82718.286      43.571299      43.571299      43.571299      1.0085743      887.47376     -762.22836     -780.42869    
    212000   212000         375.70672      778.51873      10184.121      9239.6223      8958.1629      281.45931      3389.9972      6834.0792     -9384.6393     -75.873954     -2903.4481      7852.4962     -5431.152      -501.45445      83187.229      43.653481      43.653481      43.653481      1.0028887     -1206.4428      57.528077      3484.4709    
    213000   213000         381.79739     -345.08786      8853.0928      9275.5365      9103.3859      172.15063      3430.7294      6696.1405     -9405.4704     -75.318223     -2894.5363      7854.8825     -5434.2769     -496.96395      83938.896      43.78457       43.78457       43.78457       0.99390794    -301.15005     -1484.2281      750.11459    
    214000   214000         382.60762     -44.979314      9295.0916      9349.5465      9122.7047      226.8418       3455.5272      6625.5905     -9311.8514     -73.95186      -2900.2757      7858.8983     -5427.0951     -502.5042       83013.447      43.623062      43.623062      43.623062      1.0049882     -970.38631     -32.754377      868.20275    
    215000   215000         380.06634      2070.3715      11679.213      9187.5864      9062.1115      125.47482      3358.3423      6707.0027     -9407.1323     -74.573312     -2908.744       7873.2515     -5422.672      -505.50959      82519.91       43.53644       43.53644       43.53644       1.0109989      2795.8426      1955.4844      1459.7876    
    216000   216000         375.83156     -554.1332       8360.0461      9030.3218      8961.1397      69.182103      3402.8204      6617.2254     -9367.9066     -69.151068     -2935.4179      7853.9756     -5432.3636     -502.94991      82939.882      43.610172      43.610172      43.610172      1.0058796     -756.47997     -823.93804     -81.981583    
    217000   217000         382.21192     -245.6724       9054.8867      9351.9071      9113.2697      238.63745      3478.9878      6815.7641     -9404.0811     -74.881528     -3028.0688      7870.1256     -5419.2087     -503.1923       82899.928      43.603169      43.603169      43.603169      1.0063644     -865.51567     -639.4585       767.95697    
    218000   218000         377.54923     -1194.2585      7757.9192      9200.6471      9002.095       198.55216      3441.7943      6718.0769     -9364.0546     -78.251967     -2981.6026      7886.2321     -5423.642      -503.59095      82834.304      43.59166       43.59166       43.59166       1.0071617     -550.10884     -2149.5334     -883.13316    
    219000   219000         390.1366       1324.3831      11151.008      9556.7604      9302.2219      254.53854      3384.9607      6750.0145     -9340.0513     -75.787832     -2926.3062      7886.4202     -5424.7114     -505.38451      82540.334      43.540032      43.540032      43.540032      1.0107487      1695.2284      76.580492      2201.3405    
    220000   220000         376.3747      -880.60492      8128.3797      9192.0116      8974.09        217.92154      3443.588       6673.4513     -9370.4639     -75.390668     -2922.5237      7892.2179     -5422.9575     -503.67895      82819.832      43.589121      43.589121      43.589121      1.0073377     -1411.7614     -420.5621      -809.49123    
    221000   221000         379.42349      424.76302      9680.5183      9170.5792      9046.7839      123.79522      3385.8617      6700.0481     -9375.1934     -74.621204     -2975.086       7880.7072     -5417.9211     -506.74844      82318.174      43.500933      43.500933      43.500933      1.0134765      1417.0532     -120.67896     -22.085169    
    222000   222000         378.43269      586.58123      9886.014       9174.0889      9023.1596      150.92932      3398.187       6601.7707     -9372.4586     -74.392723     -2852.1251      7870.0425     -5420.0945     -501.25406      83220.485      43.659298      43.659298      43.659298      1.002488      -656.671        1355.2248      1061.1899    
    223000   223000         374.17026      999.2774       10176.917      8981.7729      8921.5285      60.244347      3406.6281      6595.2057     -9365.238      -76.248439     -2930.8506      7856.8575     -5426.11       -508.66257      82008.405      43.446299      43.446299      43.446299      1.0173047      2837.0145     -53.457456      214.27519    
    224000   224000         382.1662      -83.459354      9189.8099      9289.5722      9112.1797      177.39257      3348.3376      6769.3071     -9344.2215     -76.940779     -2943.2839      7852.6455     -5428.4514     -508.94683      81962.601      43.438209      43.438209      43.438209      1.0178732     -923.39985     -189.07339      862.09518    
    225000   225000         384.53379      223.18258      9660.9836      9391.8862      9168.6312      223.25504      3471.8155      6673.5742     -9341.402      -77.21637      -2940.2033      7861.108      -5424.4209     -504.56237      82674.826      43.563667      43.563667      43.563667      1.0091045      138.8101      -690.6253       1221.3629    
    226000   226000         377.06697      245.09219      9385.034       9089.5028      8990.5962      98.906631      3399.6966      6653.828      -9415.1059     -73.27104      -2910.1496      7868.9379     -5425.0294     -504.53369      82679.524      43.564492      43.564492      43.564492      1.0090471     -341.63151      745.39436      331.51371    
    227000   227000         374.90611     -849.23291      8133.2753      9156.7654      8939.0737      217.6917       3384.3478      6830.2366     -9331.5154     -80.364707     -3020.237       7863.5988     -5428.3744     -504.78588      82638.218      43.557236      43.557236      43.557236      1.0095515     -1785.656      -201.89808     -560.14464    
    228000   228000         382.54283      328.38076      9724.5967      9329.2728      9121.1597      208.11306      3444.6432      6689.2327     -9341.4804     -74.064989     -2955.2575      7873.3143     -5428.2742     -505.34576      82546.662      43.541144      43.541144      43.541144      1.0106712      1050.3792      184.72676     -249.96369    
    229000   229000         371.14744     -491.46902      8380.3849      8972.0581      8849.4539      122.60419      3352.3054      6779.9379     -9386.7337     -74.150954     -2987.3228      7865.5113     -5426.943      -505.33374      82548.626      43.54149       43.54149       43.54149       1.0106472      835.53089     -1192.9626     -1116.9754    
    230000   230000         384.03915      701.1877       10115.961      9276.8638      9156.8373      120.02658      3412.9104      6690.4415     -9399.606      -75.653914     -2937.2036      7855.7401     -5426.6019     -508.37713      82054.45       43.454429      43.454429      43.454429      1.0167338      1043.9686      216.24319      843.35136    
    231000   231000         375.03979     -2217.7728      6461.5426      9137.8986      8942.2611      195.63752      3438.6495      6720.5523     -9333.1246     -75.155989     -2988.5282      7860.5508     -5427.3062     -504.12381      82746.749      43.576296      43.576296      43.576296      1.0082274     -2182.0325     -1944.4924     -2526.7935    
    232000   232000         372.33249      162.02646      9104.7665      8909.1216      8877.7097      31.411979      3356.4079      6799.5715     -9489.9915     -75.078775     -2995.7761      7861.3388     -5425.0599     -503.82701      82795.493      43.584851      43.584851      43.584851      1.0076338     -35.378447      134.26078      387.19704    
    233000   233000         377.72664     -138.86442      8962.0101      9128.0667      9006.3251      121.74164      3344.9925      6747.8827     -9375.5292     -79.646544     -2957.1785      7873.7672     -5432.5466     -508.74341      81995.374      43.443998      43.443998      43.443998      1.0174664      1597.1583     -626.88697     -1386.8646    
    234000   234000         376.4106       672.51812      10045.973      9232.2035      8974.9459      257.25762      3449.4475      6778.1489     -9449.4224     -74.123428     -2897.0774      7872.3009     -5422.0167     -502.7668       82970.088      43.615466      43.615466      43.615466      1.0055134     -490.36541      1881.9272      625.99257    
    235000   235000         375.71733      631.3802       9808.6048      9047.4587      8958.416       89.04267       3366.6087      6741.5598     -9473.2398     -76.564255     -2906.8725      7858.7763     -5421.2257     -504.64614      82661.101      43.561256      43.561256      43.561256      1.009272      -37.799162      729.41153      1202.5282    
    236000   236000         378.66374     -1524.5664      7290.4699      9127.8513      9028.6688      99.182491      3430.2896      6675.1211     -9363.1628     -75.045041     -2995.2621      7854.2071     -5426.9653     -504.79037      82637.483      43.557107      43.557107      43.557107      1.0095605     -1968.7648     -793.80756     -1811.1269    
    237000   237000         376.8285      -935.31855      8047.6824      9182.0765      8984.9102      197.16624      3428.3035      6740.3642     -9371.8844     -75.484284     -2963.0054      7864.1749     -5425.3023     -501.60243      83162.687      43.649188      43.649188      43.649188      1.0031847     -2071.0069     -2012.5661      1277.6173    
    238000   238000         367.66105     -281.34224      8463.9616      8802.7618      8766.3261      36.435655      3420.4771      6551.4101     -9361.2402     -71.807266     -2929.0848      7852.6836     -5426.003      -505.19069      82572          43.545599      43.545599      43.545599      1.0103611      858.99817     -2007.5546      304.52973    
    239000   239000         374.56747     -704.07184      8263.4472      9109.6606      8930.9993      178.66132      3390.3194      6698.583      -9326.0836     -72.291231     -2955.0098      7869.9595     -5426.8159     -506.17545      82411.357      43.517341      43.517341      43.517341      1.0123306     -122.40982     -637.56222     -1352.2435    
    240000   240000         375.50451      444.15733      9523.3432      8991.1063      8953.3416      37.764671      3386.187       6670.1567     -9424.7098     -72.138138     -2939.742       7848.5567     -5430.5459     -507.68682      82166.021      43.474115      43.474115      43.474115      1.0153532     -67.644818      1250.8369      149.27987    
    241000   241000         380.57312     -693.61773      8446.1114      9286.7818      9074.195       212.58678      3407.0276      6717.3572     -9399.9704     -77.044664     -2872.2234      7855.5224     -5418.0819     -501.94766      83105.489      43.639179      43.639179      43.639179      1.0038752     -447.29202     -1441.5843     -191.97685    
    242000   242000         378.1549      -133.3962       9006.7434      9167.6182      9016.5362      151.08208      3365.9554      6740.3958     -9439.136      -73.796331     -2867.4195      7854.4071     -5429.3245     -504.4514       82693.011      43.566861      43.566861      43.566861      1.0088825      19.186225      426.25164     -845.62645    
    243000   243000         372.31132     -1471.4131      7329.2064      9093.089       8877.2049      215.88415      3509.5669      6680.9278     -9323.2767     -73.724039     -3013.4309      7866.9041     -5431.0831     -507.49171      82197.611      43.479686      43.479686      43.479686      1.014963      -2905.8046     -776.65067     -731.78402    
    244000   244000         372.51016     -1447.4717      7257.5232      9003.5553      8881.9458      121.6095       3403.1832      6617.8742     -9360.1398     -78.079962     -2867.1483      7835.7841     -5429.864      -504.33824      82711.566      43.570119      43.570119      43.570119      1.0086562     -2134.5298     -1360.6687     -847.21675    
    245000   245000         376.9998       237.29195      9374.7017      9089.2735      8988.9947      100.27884      3347.8532      6802.0533     -9382.2126     -72.869012     -3007.6913      7841.5221     -5428.3769     -505.76657      82477.981      43.529065      43.529065      43.529065      1.0115128      864.61966      85.750667     -238.49447    
    246000   246000         369.31994     -508.75926      8325.4765      8940.7912      8805.8799      134.91138      3346.6965      6761.8656     -9382.7028     -72.544641     -2929.7641      7843.8754     -5432.5146     -503.01282      82929.509      43.608354      43.608354      43.608354      1.0060054      460.07398     -1340.5982     -645.75358    
    247000   247000         373.84912      361.87376      9412.3944      8976.6001      8913.8713      62.728792      3384.4176      6668.7085     -9399.3504     -73.47         -2929.3931      7845.663      -5433.8469     -505.17239      82574.992      43.546125      43.546125      43.546125      1.0103245      648.5121      -475.81265      912.92182    
    248000   248000         374.31639     -1408.7407      7296.5292      9006.4666      8925.0127      81.453836      3389.8423      6782.2386     -9426.6206     -75.459971     -2988.0673      7836.3072     -5436.7864     -501.20444      83228.723      43.660739      43.660739      43.660739      1.0023887     -876.22861     -2576.3061     -773.68745    
    249000   249000         373.27145      1474.1015      10835.191      9054.3258      8900.0978      154.22803      3368.3068      6660.1137     -9332.8939     -71.656315     -2884.3002      7847.4146     -5432.7566     -503.5705       82837.667      43.59225       43.59225       43.59225       1.0071208      709.16322      1515.0505      2198.0908    
    250000   250000         369.17966      7.7180669      8938.0638      8928.7395      8802.535       126.20451      3370.2722      6822.1559     -9434.1735     -78.375628     -2989.4069      7858.3678     -5422.6353     -503.5689       82837.931      43.592296      43.592296      43.592296      1.0071176      266.45339     -1694.0856      1450.7864    
Loop time of 515.533 on 1 procs for 250000 steps with 8000 atoms

Performance: 41.898 ns/day, 0.573 hours/ns, 484.935 timesteps/s, 3.879 Matom-step/s
99.9% CPU use with 1 MPI tasks x 1 OpenMP threads

MPI task timing breakdown:
Section |  min time  |  avg time  |  max time  |%varavg| %total
---------------------------------------------------------------
Pair    | 65.365     | 65.365     | 65.365     |   0.0 | 12.68
Bond    | 57.095     | 57.095     | 57.095     |   0.0 | 11.07
Kspace  | 244.21     | 244.21     | 244.21     |   0.0 | 47.37
Neigh   | 47.835     | 47.835     | 47.835     |   0.0 |  9.28
Comm    | 7.819      | 7.819      | 7.819      |   0.0 |  1.52
Output  | 2.8161     | 2.8161     | 2.8161     |   0.0 |  0.55
Modify  | 80.053     | 80.053     | 80.053     |   0.0 | 15.53
Other   |            | 10.34      |            |       |  2.01

Nlocal:           8000 ave        8000 max        8000 min
Histogram: 1 0 0 0 0 0 0 0 0 0
Nghost:          20630 ave       20630 max       20630 min
Histogram: 1 0 0 0 0 0 0 0 0 0
Neighs:              0 ave           0 max           0 min
Histogram: 1 0 0 0 0 0 0 0 0 0
FullNghs:  4.91925e+06 ave 4.91925e+06 max 4.91925e+06 min
Histogram: 1 0 0 0 0 0 0 0 0 0

Total # of neighbors = 4919254
Ave neighs/atom = 614.90675
Ave special neighs/atom = 5.7025
Neighbor list builds = 9011
Dangerous builds = 0
System init for write_data ...
PPPM Kokkos initialization ...
  using 12-bit tables for long-range coulomb
  G vector (1/distance) = 0.29786882
  grid = 30 30 30
  stencil order = 5
  estimated absolute RMS force accuracy = 0.00038975847
  estimated relative force accuracy = 1.173746e-06
  using double precision cuFFT
  3d grid and FFT values/proc = 50653 27000
Generated 10 of 10 mixed pair_coeff terms from sixthpower/sixthpower mixing rule
System init for write_restart ...
PPPM Kokkos initialization ...
  using 12-bit tables for long-range coulomb
  G vector (1/distance) = 0.29786882
  grid = 30 30 30
  stencil order = 5
  estimated absolute RMS force accuracy = 0.00038975847
  estimated relative force accuracy = 1.173746e-06
  using double precision cuFFT
  3d grid and FFT values/proc = 50653 27000
Generated 10 of 10 mixed pair_coeff terms from sixthpower/sixthpower mixing rule
STAGE COMPLETE: NPT T=400.0->375.0K P=1.0->1.0atm steps=250000
