LAMMPS (22 Jul 2025 - Update 3)
KOKKOS mode with Kokkos version 4.6.2 is enabled
  will use up to 1 GPU(s) per node
  using 1 OpenMP thread(s) per MPI task
Reading data file ...
  orthogonal box = (4.198376 4.198376 4.198376) to (48.007334 48.007334 48.007334)
  1 by 1 by 1 MPI processor grid
  reading atoms ...
  6500 atoms
  reading velocities ...
  6500 velocities
  scanning bonds ...
  4 = max bonds/atom
  scanning angles ...
  16 = max angles/atom
  scanning dihedrals ...
  38 = max dihedrals/atom
  scanning impropers ...
  12 = max impropers/atom
  orthogonal box = (4.198376 4.198376 4.198376) to (48.007334 48.007334 48.007334)
  1 by 1 by 1 MPI processor grid
  reading bonds ...
  6970 bonds
  reading angles ...
  11760 angles
  reading dihedrals ...
  17500 dihedrals
  reading impropers ...
  4800 impropers
Finding 1-2 1-3 1-4 neighbors ...
  special bond factors lj:    0        0        1       
  special bond factors coul:  0        0        1       
     4 = max # of 1-2 neighbors
    10 = max # of 1-3 neighbors
    14 = max # of special neighbors
  special bonds CPU = 0.004 seconds
  read_data CPU = 0.277 seconds
PPPM Kokkos initialization ...
  using 12-bit tables for long-range coulomb
  G vector (1/distance) = 0.29720213
  grid = 30 30 30
  stencil order = 5
  estimated absolute RMS force accuracy = 0.00035478454
  estimated relative force accuracy = 1.0684231e-06
  using double precision cuFFT
  3d grid and FFT values/proc = 50653 27000
Generated 28 of 28 mixed pair_coeff terms from sixthpower/sixthpower mixing rule
Neighbor list info ...
  update: every = 1 steps, delay = 0 steps, check = yes
  max neighbors/atom: 4000, page size: 100000
  master list distance cutoff = 11.5
  ghost atom cutoff = 11.5
  binsize = 11.5, bins = 4 4 4
  1 neighbor lists, perpetual/occasional/extra = 1 0 0
  (1) pair lj/class2/coul/long/kk, perpetual
      attributes: full, newton off, kokkos_device
      pair build: full/bin/kk/device
      stencil: full/bin/3d
      bin: kk/device
Setting up Verlet run ...
  Unit style    : real
  Current step  : 0
  Time step     : 1
Per MPI rank memory allocation (min/avg/max) = 43.88 | 43.88 | 43.88 Mbytes
   Step          Time           Temp          Press         Enthalpy        TotEng         KinEng         PotEng         E_bond        E_angle        E_dihed        E_impro         E_vdwl         E_coul         E_long         E_tail         Volume           Lx             Ly             Lz          Density          Pxx            Pyy            Pzz      
         0   0              703.95038     -1794.3063      28463.155      30663.35       13637.127      17026.223      5836.8496      5247.7148      4145.4933      511.03682      728.09947      4885.4864     -4328.4573     -468.4196       84079.238      43.808958      43.808958      43.808958      1.0491967     -977.03667     -1034.7961     -3371.0861    
      1000   1000           700.21578      543.78428      31829.209      31150.861      13564.779      17586.082      5907.4243      5453.2536      4291.2487      534.72361      826.43645      4897.6135     -4324.6183     -460.44071      85536.229      44.060562      44.060562      44.060562      1.0313251     -388.4111      -572.99538      2592.7593    
      2000   2000           697.0921       312.1893       31083.313      30698.62       13504.267      17194.354      5776.5531      5206.5426      4310.0793      528.39882      793.6041       4900.6717     -4321.4958     -466.12648      84492.866      43.88068       43.88068       43.88068       1.0440605      1239.9778     -707.85264      404.44275    
      3000   3000           707.42818      183.21052      31323.643      31096.617      13704.5        17392.117      5937.6966      5300.9662      4188.8629      519.67131      878.83945      4886.9208     -4320.8405     -463.52552      84966.978      43.962602      43.962602      43.962602      1.0382347     -153.53752     -594.89598      1298.0651    
      4000   4000           704.596        468.30266      31492.044      30911.351      13649.634      17261.717      5893.7574      5288.1527      4133.5165      535.04537      810.75966      4918.7067     -4318.2215     -463.21183      85024.517      43.972524      43.972524      43.972524      1.0375321      970.55614      1463.4609     -1029.109     
      5000   5000           698.11057     -102.83801      30687.142      30814.218      13523.997      17290.222      5820.3267      5362.2014      4165.9793      528.71369      857.57322      4883.6422     -4328.2147     -464.82416      84729.595      43.921623      43.921623      43.921623      1.0411434     -432.61413      174.25048     -50.150369    
      6000   6000           702.04116     -1355.3108      29136.753      30823.782      13600.141      17223.641      5717.9147      5245.9971      4318.2925      519.65738      851.38458      4894.8474     -4324.4531     -461.44091      85350.826      44.028705      44.028705      44.028705      1.0335654     -963.00388     -1674.7239     -1428.2047    
      7000   7000           707.18718     -1651.8157      28750.791      30795.718      13699.831      17095.886      5837.0275      5313.0096      4127.9963      533.30564      728.79939      4882.3337     -4326.5857     -463.96325      84886.815      43.948772      43.948772      43.948772      1.0392151     -2521.7867     -1170.2172     -1263.4433    
      8000   8000           709.50657     -784.81009      29976.885      30955.655      13744.763      17210.892      5924.883       5303.6182      4095.914       533.53316      779.44379      4896.9285     -4323.4285     -460.55702      85514.629      44.056853      44.056853      44.056853      1.0315856     -678.56764     -451.604       -1224.2586    
      9000   9000           695.68239      1417.6685      32460.658      30695.126      13476.957      17218.169      5849.7123      5274.1431      4145.546       530.36976      836.59809      4904.963      -4323.1634     -461.20997      85393.564      44.036052      44.036052      44.036052      1.0330481     -230.57965      1468.3418      3015.2434    
     10000   10000          707.59332      1497.1805      32899.682      31031.906      13707.699      17324.207      5780.5715      5390.9489      4251.9385      525.87595      800.22325      4900.7188     -4326.0695     -460.41471      85541.06       44.061392      44.061392      44.061392      1.0312669     -1047.1461      4118.4744      1420.2134    
     11000   11000          694.76356      428.96703      31087.763      30561.313      13459.157      17102.156      5795.6859      5317.6094      4149.6285      512.48071      753.74852      4901.1602     -4328.1573     -468.02222      84150.625      43.821353      43.821353      43.821353      1.0483067      638.69653     -623.34407      1271.5486    
     12000   12000          689.8935       1210.4753      31975.226      30484.654      13364.813      17119.841      5857.8337      5339.8082      4055.3586      517.09923      757.98788      4910.5938     -4318.8405     -466.4473       84434.752      43.870617      43.870617      43.870617      1.0447791      1811.5389      2663.0431     -843.15613    
     13000   13000          702.92823      2251.2918      33582.9        30818.543      13617.326      17201.218      5784.0239      5232.9424      4276.0139      554.96996      797.08041      4885.3575     -4329.1703     -467.77551      84195.007      43.829056      43.829056      43.829056      1.0477541      1080.797       3404.9431      2268.1354    
     14000   14000          696.20135     -856.81593      29726.144      30788.839      13487.011      17301.828      5898.3052      5309.7009      4204.0775      534.67748      770.14857      4908.1482     -4323.2294     -463.10381      85044.351      43.975943      43.975943      43.975943      1.0372901     -1747.6875      996.49616     -1819.2565    
     15000   15000          705.28246     -2453.2185      27651.574      30689.635      13662.932      17026.702      5750.1671      5190.876       4277.9564      520.78444      700.716        4909.9014     -4323.6992     -463.80931      84914.989      43.953634      43.953634      43.953634      1.0388703     -2866.4462     -1998.7908     -2494.4183    
     16000   16000          693.56143      958.27044      31755.62       30567.235      13435.869      17131.365      5819.8511      5312.9468      4034.1513      509.96349      860.55457      4914.2397     -4320.3418     -463.15943      85034.138      43.974182      43.974182      43.974182      1.0374147      227.21538      1380.2277      1267.3682    
     17000   17000          698.51065      219.21078      31252.34       30982.545      13531.747      17450.798      5988.3437      5427.683       4125.4503      523.62809      808.13738      4904.563      -4327.0073     -466.68865      84391.088      43.863054      43.863054      43.863054      1.0453196     -261.57418     -955.58011      1874.7866    
     18000   18000          701.49209      723.76403      31652.395      30758.377      13589.504      17168.872      5963.6892      5294.2544      4083.9076      496.22709      766.76246      4891.102      -4327.0705     -464.99703      84698.095      43.916179      43.916179      43.916179      1.0415307      834.32829      376.69928      960.26452    
     19000   19000          702.7347       1215.4499      32144.396      30650.154      13613.576      17036.578      5780.4316      5320.2674      4056.516       516.0908       795.47642      4889.3077     -4321.5123     -467.21392      84296.21       43.846609      43.846609      43.846609      1.0464962      673.44002      2241.5742      731.33557    
     20000   20000          699.4213       2232.8571      33474.113      30748.581      13549.388      17199.193      5933.3172      5314.0428      4133.7971      541.3532       705.20593      4897.0603     -4325.5835     -470.55387      83697.883      43.742623      43.742623      43.742623      1.0539772      762.01996      2757.415       3179.1365    
     21000   21000          699.58618     -1532.5091      29129.887      31038.486      13552.582      17485.904      5965.2873      5441.0478      4199.3612      532.4604       779.05161      4892.2024     -4323.5071     -461.19858      85395.672      44.036415      44.036415      44.036415      1.0330226     -2848.7948     -808.53904     -940.1934     
     22000   22000          692.25542     -848.04327      29649.504      30687.818      13410.569      17277.249      5615.3024      5420.8672      4338.054       531.30994      815.21321      4883.2421     -4326.7395     -469.12537      83952.745      43.786977      43.786977      43.786977      1.0507776      356.92661     -2562.7022     -338.35421    
     23000   23000          693.88039      267.52305      31186.926      30855.932      13442.048      17413.884      5920.5869      5324.65        4220.7179      528.19304      852.89167      4891.8362     -4324.9915     -464.23896      84836.401      43.94007       43.94007       43.94007       1.0398327     -617.31743      1295.7688      124.11778    
     24000   24000          704.43122      678.65181      31506.383      30665.927      13646.442      17019.485      5870.489       5254.8722      4046.6577      509.44828      776.7654       4885.8033     -4324.5507     -463.80122      84916.471      43.95389       43.95389       43.95389       1.0388522     -1106.2074      288.77308      2853.3897    
     25000   25000          691.70024     -620.62961      29794.617      30551.996      13399.814      17152.182      5709.4907      5342.827       4282.7256      533.9004       708.7978       4900.3077     -4325.8674     -470.67276      83676.74       43.73894       43.73894       43.73894       1.0542435     -463.01213      256.62011     -1655.4968    
     26000   26000          705.88605     -235.96054      30797.851      31094.527      13674.625      17419.901      5891.8271      5428.9385      4166.2191      510.50567      860.16204      4888.8168     -4326.5678     -456.83209      86211.9        44.176273      44.176273      44.176273      1.0232423     -307.9184      -421.80185      21.838625    
     27000   27000          696.13635     -359.33043      30488.918      30932.341      13485.752      17446.589      5979.7598      5359.5741      4273.0885      518.45461      741.34599      4903.9885     -4329.6223     -465.45321      84615.085      43.901827      43.901827      43.901827      1.0425524      281.89372      32.431329     -1392.3163    
     28000   28000          686.8675       2677.3799      33745.18       30462.654      13306.193      17156.461      5828.8676      5323.4054      4022.1009      523.70263      881.16239      4902.9475     -4325.7251     -468.49123      84066.381      43.806725      43.806725      43.806725      1.0493572      4094.0162      753.91906      3184.2046    
     29000   29000          690.92332     -1628.9566      28737.572      30728.518      13384.763      17343.755      5906.5514      5377.0612      4175.6158      540.67021      770.41869      4900.0821     -4326.6443     -469.94794      83805.8        43.761415      43.761415      43.761415      1.05262       -2586.6936     -557.38455     -1742.7916    
     30000   30000          699.63925     -1474.0079      28961.486      30774.806      13553.611      17221.195      5881.7049      5355.6053      4204.3233      544.21936      663.18495      4897.3495     -4325.1924     -466.90141      84352.631      43.85639       43.85639       43.85639       1.0457962     -1180.9539      625.97698     -3867.0467    
     31000   31000          703.34564     -1944.6511      28136.724      30527.909      13625.412      16902.498      5701.207       5360.8398      4150.8391      524.8189       599.40927      4893.5798     -4328.1963     -467.11969      84313.215      43.849558      43.849558      43.849558      1.0462851     -1303.3453     -2062.5354     -2468.0727    
     32000   32000          700.2463      -777.24782      29946.792      30899.545      13565.37       17334.174      5942.5374      5338.3311      4182.4242      510.19487      784.48471      4904.4598     -4328.2577     -468.57498      84051.356      43.804115      43.804115      43.804115      1.0495448      285.20115     -2390.1919     -226.75273    
     33000   33000          687.41416      1926.2219      32781.743      30437.244      13316.783      17120.461      5850.4161      5289.5746      4120.5486      532.85791      759.48386      4897.6329     -4330.0528     -471.90643      83457.991      43.700792      43.700792      43.700792      1.0570068      2346.835       1272.8398      2158.9911    
     34000   34000          687.64322     -1632.7135      28837.113      30857.729      13321.22       17536.509      6001.9252      5451.1868      4178.2857      519.28809      798.08382      4910.3384     -4322.5991     -464.11538      84858.991      43.94397       43.94397       43.94397       1.0395559      73.238941     -2426.0873     -2545.2922    
     35000   35000          701.53686      1569.6894      32858.369      30914.717      13590.372      17324.345      6047.9611      5254.18        4098.6714      523.17193      811.30902      4907.2529     -4318.201      -463.86855      84904.145      43.951763      43.951763      43.951763      1.039003       2160.3593      2069.2497      479.45924    
     36000   36000          690.22003     -73.84764       30635.02       30725.425      13371.139      17354.286      6014.2132      5230.0731      4257.5086      526.51834      726.22319      4917.627      -4317.8775     -469.18503      83942.071      43.785122      43.785122      43.785122      1.0509112      95.858117      791.37464     -1108.7757    
     37000   37000          704.51174      742.28145      31802.488      30893.426      13648.002      17245.424      5933.5422      5233.8544      4175.4134      515.32475      812.48071      4898.3224     -4323.5138     -469.00222      83974.79       43.79081       43.79081       43.79081       1.0505017     -1089.5579      1175.7283      2140.6739    
     38000   38000          703.258        1323.4376      32204.852      30566.847      13623.714      16943.132      5875.0162      5334.0682      3896.0241      507.36176      741.77899      4908.5279     -4319.6447     -464.07464      84866.439      43.945256      43.945256      43.945256      1.0394646      617.5938       1658.1657      1694.5532    
     39000   39000          690.41001     -1014.9741      29585.063      30839.384      13374.819      17464.565      5985.2217      5387.8625      4318.528       547.09389      647.25484      4905.3686     -4326.7643     -464.77838      84737.94       43.923065      43.923065      43.923065      1.0410409      1780.4379     -2577.4797     -2247.8804    
     40000   40000          678.83924     -19.29883       30267.906      30291.656      13150.667      17140.989      5718.0061      5325.2319      4199.9301      555.34041      763.66494      4902.716      -4323.9003     -466.73938      84381.915      43.861464      43.861464      43.861464      1.0454333      1922.125      -1155.8975     -824.12403    
     41000   41000          697.9882       446.20012      31165.948      30613.328      13521.626      17091.702      5810.5732      5279.383       4102.5794      514.21792      814.38752      4895.6804     -4325.1199     -463.77022      84922.147      43.954869      43.954869      43.954869      1.0387828      1043.8253      832.33129     -537.55624    
     42000   42000          693.67898     -2633.3344      27241.72       30497.248      13438.146      17059.101      5870.3567      5148.7982      4249.0356      527.35864      697.67475      4894.0125     -4328.1352     -464.60544      84769.481      43.928514      43.928514      43.928514      1.0406536     -2444.4523     -1116.4357     -4339.115     
     43000   43000          703.34182     -1432.7579      28706.058      30449.78       13625.338      16824.443      5547.4615      5316.2737      4132.069       529.78497      721.75608      4903.5899     -4326.4925     -471.94915      83450.437      43.699474      43.699474      43.699474      1.0571025     -1828.3039     -2813.7652      343.7953     
     44000   44000          697.7973      -1704.3231      28722.003      30817.907      13517.928      17299.98       5983.7132      5281.1124      4231.6149      514.59358      693.18506      4915.4421     -4319.6816     -467.06806      84322.535      43.851173      43.851173      43.851173      1.0461695     -1104.451      -2254.3783     -1754.1399    
     45000   45000          703.80871     -603.17919      29858.715      30598.425      13634.383      16964.042      5694.5506      5422.2964      4033.1619      508.32332      726.75773      4907.3409     -4328.3884     -468.36502      84089.035      43.810659      43.810659      43.810659      1.0490745     -121.67379     -850.66663     -837.19716    
     46000   46000          684.47236      599.94645      30916.58       30197.094      13259.793      16937.301      5643.1838      5486.496       4076.1728      538.77124      613.07304      4903.1021     -4323.4983     -478.94928      82230.759      43.48553       43.48553       43.48553       1.0727818      1987.5423     -1406.0548      1218.3519    
     47000   47000          703.97172      415.47483      31042.018      30539.588      13637.541      16902.048      5724.9053      5195.8837      4175.8691      530.15206      699.19761      4897.7254     -4321.6853     -474.97343      82919.086      43.606527      43.606527      43.606527      1.0638764      2614.4351      257.05639     -1625.067     
     48000   48000          687.63357     -746.10207      29551.077      30464.069      13321.033      17143.036      5858.7722      5379.6554      4159.914       525.7144       666.69735      4878.9423     -4326.6593     -469.38652      83906.037      43.778855      43.778855      43.778855      1.0513625      64.340362     -0.77977041    -2301.8668    
     49000   49000          696.39648      524.9148       30993.196      30358.371      13490.791      16867.58       5681.3221      5251.3228      4125.0653      530.42485      688.2495       4914.7402     -4323.5448     -474.93477      82925.835      43.60771       43.60771       43.60771       1.0637899      909.46332      789.10139     -123.82031    
     50000   50000          702.1042       2065.2831      33155.8        30635.362      13601.362      17034          5816.9705      5477.6508      3959.1536      515.05533      711.93848      4881.0573     -4327.8264     -470.6556       83679.791      43.739471      43.739471      43.739471      1.0542051      2991.346       1098.9498      2105.5534    
     51000   51000          684.87565     -295.72728      29971.133      30332.537      13267.606      17064.931      5759.6139      5195.0421      4312.0289      524.33539      704.27644      4893.6898     -4324.0551     -469.99953      83796.601      43.759814      43.759814      43.759814      1.0527356     -1089.093       870.94583     -669.03469    
     52000   52000          689.12593      776.82098      31279.399      30344.571      13349.944      16994.627      5808.4067      5251.6249      4137.7485      542.44038      698.37837      4878.1426     -4322.114      -477.29759      82515.319      43.535633      43.535633      43.535633      1.0690822      1940.8381      503.54946     -113.92468    
     53000   53000          696.79996      516.365        31305.207      30677.162      13498.607      17178.555      5798.6185      5435.4515      4085.0082      534.91355      757.07308      4893.1534     -4325.6634     -472.24334      83398.45       43.690397      43.690397      43.690397      1.0577614     -820.10216      1311.9311      1057.266     
     54000   54000          691.13649      59.339709      30637.928      30565.933      13388.893      17177.04       5668.2002      5456.0265      4262.1566      551.86825      664.63852      4898.0151     -4323.8654     -473.41311      83192.378      43.654382      43.654382      43.654382      1.0603815      2412.6646     -739.62307     -1495.0224    
     55000   55000          677.80106     -1333.1792      28485.464      30120.827      13130.555      16990.272      5794.5834      5279.0015      4154.5883      516.04643      667.25908      4900.713      -4321.9196     -468.2459       84110.428      43.814374      43.814374      43.814374      1.0488077     -2260.086      -2471.3776      731.92593    
     56000   56000          700.29732      3040.9419      34306.845      30578.94       13566.359      17012.581      5931.6904      5311.3039      3899.5743      514.30885      763.74845      4911.3807     -4319.4259     -468.53592      84058.363      43.805332      43.805332      43.805332      1.0494573      2206.4717      3302.9098      3613.444     
     57000   57000          687.73461      1336.076       31991.309      30371.652      13322.991      17048.661      5922.3317      5358.4462      3971.7979      513.52608      720.38598      4885.0841     -4322.911      -473.81387      83122.013      43.642071      43.642071      43.642071      1.0612792      4131.6884     -378.31999      254.85944    
     58000   58000          700.4154       855.90514      31378.035      30320.657      13568.646      16752.01       5843.2575      5209.6867      3887.3819      484.56171      755.92116      4898.162      -4326.9608     -464.93806      84708.838      43.918036      43.918036      43.918036      1.0413986     -686.74692      1015.2608      2239.2015    
     59000   59000          694.67974     -1483.0468      28621.983      30430.536      13457.534      16973.002      5700.2516      5254.3475      4199.9504      511.81496      740.12986      4889.0165     -4322.5087     -471.00263      83618.137      43.728726      43.728726      43.728726      1.0549824     -1198.4105     -1050.87       -2199.8597    
     60000   60000          696.48772     -251.84457      30452.44       30765.988      13492.558      17273.43       5768.799       5312.6463      4262.4825      520.41226      836.39673      4893.592      -4320.8991     -461.34691      85368.215      44.031695      44.031695      44.031695      1.0333549     -508.42494     -139.61137     -107.49741    
     61000   61000          692.08665      481.73478      30867.643      30277.49       13407.3        16870.19       5586.8584      5266.5321      4152.9893      516.48208      777.62801      4891.9148     -4322.2145     -468.85938      84000.372      43.795256      43.795256      43.795256      1.0501818     -628.90195      1253.8979      820.20834    
     62000   62000          683.93434     -51.366393      30397.658      30461.224      13249.371      17211.854      5849.1732      5316.4997      4159.217       522.0525       801.41838      4891.3381     -4327.8453     -464.14155      84854.205      43.943144      43.943144      43.943144      1.0396145      624.08933     -16.445226     -761.74329    
     63000   63000          698.15917      360.07311      31287.466      30847.391      13524.938      17322.453      5915.7242      5243.2743      4247.2639      535.02861      822.33137      4888.4828     -4329.652      -469.96333      83803.054      43.760937      43.760937      43.760937      1.0526545      1828.9758     -477.8451      -270.91134    
     64000   64000          689.83525     -1082.9628      29181.423      30517.942      13363.685      17154.258      5778.4562      5307.0307      4213.614       536.38271      758.13582      4888.9556     -4328.3173     -465.41226      84622.53       43.903115      43.903115      43.903115      1.0424607     -1736.4724      163.68795     -1676.1038    
     65000   65000          699.08101     -230.36329      30486.682      30773.605      13542.796      17230.809      5778.5365      5260.3684      4245.7165      549.91288      828.64981      4890.9966     -4323.3718     -461.15532      85403.682      44.037792      44.037792      44.037792      1.0329257      431.65147      1862.7956     -2985.537     
     66000   66000          693.76472     -853.72597      29394.764      30442.35       13439.808      17002.543      5810.5477      5175.3997      4181.2896      523.21121      743.37251      4896.9884     -4328.2665     -468.08886      84138.646      43.819273      43.819273      43.819273      1.0484559     -918.43937     -799.87416     -842.86437    
     67000   67000          681.64112      1553.1081      32227.88       30295.428      13204.946      17090.483      5811.848       5237.1652      4111.4043      524.19194      851.55255      4879.3021     -4324.9815     -461.62863      85316.118      44.022736      44.022736      44.022736      1.0339859      1042.0766      2403.5323      1213.7155    
     68000   68000          697.45594     -762.44476      29779.727      30711.331      13511.315      17200.016      5881.5286      5242.0778      4215.0702      529.8855       789.52518      4872.662      -4330.7329     -470.08521      83781.327      43.757155      43.757155      43.757155      1.0529275     -2936.5951      1001.1879     -351.927      
     69000   69000          684.51001     -2258.1244      27532.166      30301.302      13260.523      17040.78       5835.8238      5206.1318      4176.3746      470.98641      802.77766      4873.4964     -4324.8109     -468.38528      84085.398      43.810028      43.810028      43.810028      1.0491199     -805.0885      -2729.8463     -3239.4386    
     70000   70000          689.98002      10.714469      30495.43       30482.155      13366.489      17115.666      5722.3555      5294.698       4134.9162      529.07797      862.05077      4894.0122     -4321.4447     -463.60216      84952.932      43.96018       43.96018       43.96018       1.0384063     -187.536        1644.8317     -1425.1522    
     71000   71000          681.47144      541.55036      30943.486      30271.609      13201.659      17069.95       5731.8936      5307.8142      4099.1925      533.977        829.00726      4893.3056     -4325.2403     -462.96548      85069.76       43.980322      43.980322      43.980322      1.0369803      623.35956     -381.34365      1382.6352    
     72000   72000          687.50168      2177.9607      33452.93       30744.973      13318.478      17426.495      6016.0373      5298.8642      4123.6245      527.74885      882.19132      4900.5905     -4322.5615     -461.96396      85254.188      44.012081      44.012081      44.012081      1.034737       1100.3779      2417.0921      3016.412     
     73000   73000          692.5709      -269.5276       30422.579      30761.841      13416.681      17345.161      5928.5186      5315.1851      4155.8979      513.13935      853.17566      4902.9795     -4323.7356     -456.31802      86309.024      44.192856      44.192856      44.192856      1.0220908      303.48869      761.14241     -1873.2139    
     74000   74000          687.58949      254.84698      30622.777      30311.236      13320.179      16991.056      5843.7255      5154.3841      4178.6861      512.94125      747.55688      4880.7079     -4326.9454     -469.85425      83822.51       43.764324      43.764324      43.764324      1.0524102      597.10549     -420.33036      587.76581    
     75000   75000          691.81514     -114.83121      30484.145      30626.107      13402.04       17224.068      5809.8455      5336.9251      4192.8665      519.39025      803.06779      4887.6175     -4325.6451     -464.60695      84769.207      43.928466      43.928466      43.928466      1.0406569     -517.52694     -1105.4962      1278.5295    
     76000   76000          695.36994     -689.09313      29624.55       30464.168      13470.904      16993.264      5836.7125      5216.8996      4149.1592      506.52924      737.3007       4880.015      -4333.3528     -471.4068       83546.446      43.716226      43.716226      43.716226      1.0558877     -193.0608      -414.07846     -1460.1401    
     77000   77000          700.60092      45.248128      30933.862      30877.302      13572.24       17305.062      6002.722       5277.4042      4145.8371      514.24531      804.43699      4887.0781     -4326.6622     -459.50131      85711.1        44.090568      44.090568      44.090568      1.029221       1409.1943      629.13015     -1902.58      
     78000   78000          690.17717      86.750764      30554.249      30447.356      13370.309      17077.047      5793.9154      5298.5222      4097.4095      508.84046      823.7746       4886.8207     -4332.2358     -466.14847      84488.881      43.87999       43.87999       43.87999       1.0441097      48.305708     -451.09096      663.03754    
     79000   79000          693.67689      4.2789596      30511.774      30506.501      13438.106      17068.395      5821.8551      5389.8101      4000.2311      502.63276      782.2525       4895.4036     -4323.7906     -466.11379      84495.168      43.881078      43.881078      43.881078      1.044032       1457.3115     -758.89803     -685.57655    
     80000   80000          704.77266      2191.4441      33466.412      30758.873      13653.057      17105.816      5781.8583      5461.5753      3980.7013      507.36717      800.39319      4901.819      -4327.898      -464.89554      84716.586      43.919375      43.919375      43.919375      1.0413033      1171.8412      2315.3451      3087.146     
     81000   81000          681.7201       1842.7724      32336.838      30076.647      13206.476      16870.171      5623.1087      5269.9086      4072.6345      510.82526      835.47477      4885.0498     -4326.8305     -468.3022       84100.315      43.812618      43.812618      43.812618      1.0489338      877.78613      1355.8658      3294.6653    
     82000   82000          685.07389      64.461393      30648.301      30568.237      13271.446      17296.791      5824.9441      5409.7028      4174.5439      516.57828      803.79301      4891.9979     -4324.7692     -462.44578      85165.363      43.996791      43.996791      43.996791      1.0358162     -248.01653     -1412.516       1853.9167    
     83000   83000          673.02285     -255.47555      29778.57       30091.089      13037.99       17053.099      5701.1392      5272.083       4211.6464      524.74425      779.06132      4891.8233     -4327.3983     -469.53897      83878.795      43.774117      43.774117      43.774117      1.051704       1085.6464     -698.96428     -1153.1088    
     84000   84000          689.50359     -1445.3583      28588.817      30365.322      13357.26       17008.062      5669.7304      5292.112       4278.4281      505.12638      719.63161      4872.0714     -4329.0374     -467.31404      84278.149      43.843478      43.843478      43.843478      1.0467205     -3638.277       382.28497     -1080.0827    
     85000   85000          681.79375      1022.3248      31238.105      29983.033      13207.903      16775.131      5612.0436      5280.3804      4114.7841      524.51702      663.93195      4903.559      -4324.0851     -467.86435      84179.02       43.826281      43.826281      43.826281      1.0479531      2506.4232     -1048.9173      1609.4685    
     86000   86000          696.81585      144.50151      30763.996      30586.533      13498.915      17087.618      5782.0862      5190.3289      4269.871       541.16033      727.74533      4899.5885     -4323.1625     -467.69664      84209.206      43.831519      43.831519      43.831519      1.0475774      1557.4257      757.98005     -1881.9012    
     87000   87000          679.69492     -65.500272      30109.28       30189.617      13167.243      17022.373      5731.0231      5338.1329      4114.9584      518.56945      751.11961      4895.1403     -4326.5704     -468.30635      84099.57       43.812489      43.812489      43.812489      1.0489431     -49.580906     -1506.9237      1360.0038    
     88000   88000          693.64766      743.0318       31425.087      30495.578      13437.54       17058.038      5846.3907      5311.856       3973.6941      518.78083      823.17341      4905.8282     -4321.685      -459.14904      85776.859      44.10184       44.10184       44.10184       1.0284319     -113.14413      1932.4398      409.79968    
     89000   89000          690.87353     -550.96059      29811.567      30481.813      13383.799      17098.015      5783.7811      5290.9362      4212.3829      517.97513      725.95921      4891.1809     -4324.2006     -472.15622      83413.839      43.693084      43.693084      43.693084      1.0575663     -1070.0638      427.42081     -1010.2388    
     90000   90000          693.95908      1532.2374      32485.928      30599.32       13443.573      17155.747      5815.805       5244.5707      4156.0294      546.44566      801.74551      4913.1173     -4321.9666     -466.49192      84426.677      43.869219      43.869219      43.869219      1.044879      -517.54832      2260.1854      2854.0752    
     91000   91000          694.92503      1702.1512      32641.189      30537.084      13462.285      17074.799      5688.9415      5179.3376      4191.9216      550.83432      887.64613      4899.6531     -4323.5356     -464.65493      84760.454      43.926954      43.926954      43.926954      1.0407644      245.44859      726.05708      4134.9478    
     92000   92000          690.83822     -1191.5404      28984.15       30465.567      13383.115      17082.453      5701.7908      5240.4203      4280.6149      552.51647      716.49201      4908.797      -4318.179      -461.98834      85249.69       44.011307      44.011307      44.011307      1.0347916     -2839.2547      492.84969     -1228.2163    
     93000   93000          705.7547       348.93112      31276.19       30848.108      13672.081      17176.027      5929.6163      5140.7661      4213.8767      540.78684      775.47527      4896.7127     -4321.2063     -468.18033      84122.207      43.816419      43.816419      43.816419      1.0486608      1432.7245     -398.62991      12.69873     
     94000   94000          686.9155      -1319.3855      28723.127      30347.62       13307.122      17040.498      5742.5908      5354.9936      4130.7155      529.20445      701.98886      4902.8513     -4321.8468     -466.5021       84424.835      43.8689        43.8689        43.8689        1.0449018      569.86808     -3004.3032     -1523.7215    
     95000   95000          675.42354     -501.25459      29254.545      29875.223      13084.497      16790.726      5648.6968      5173.6479      4017.8001      523.10582      846.29151      4899.1633     -4317.9794     -463.86502      84904.791      43.951874      43.951874      43.951874      1.0389951      229.47126     -2262.9963      529.76131    
     96000   96000          697.06285      834.40927      31458.889      30425.946      13503.7        16922.246      5597.2714      5399.933       4051.0607      507.68881      784.45117      4904.5571     -4322.7156     -463.98348      84883.114      43.948133      43.948133      43.948133      1.0392604      2523.7693     -677.17205      656.63054    
     97000   97000          693.75573      1225.3955      31979.37       30494.218      13439.633      17054.585      5785.9555      5317.5139      4059.6324      505.84798      822.16092      4890.6611     -4327.1871     -473.92014      83103.373      43.638808      43.638808      43.638808      1.0615172      2080.623       1195.519       400.04441    
     98000   98000          681.37229      1436.9785      32056.156      30265.901      13199.738      17066.163      5885.4075      5087.7136      4148.3664      518.31144      852.50378      4894.531      -4320.671      -461.03621      85425.747      44.041584      44.041584      44.041584      1.032659       1919.8601      1918.2202      472.85525    
     99000   99000          687.72497      449.1898       30888.362      30326.061      13322.804      17003.257      5556.0869      5269.4368      4248.6206      526.05828      832.83115      4892.6554     -4322.432      -458.83959      85834.709      44.111753      44.111753      44.111753      1.0277388     -435.55485      1122.6877      660.43658    
    100000   100000         692.02375      616.60193      31342.295      30580.064      13406.081      17173.983      5781.7693      5392.8776      4063.6442      522.04912      839.68424      4898.9949     -4325.0362     -464.64173      84762.862      43.92737       43.92737       43.92737       1.0407348     -647.01375      2357.8488      138.97076    
    101000   101000         683.23538     -803.66115      29343.753      30332.556      13235.83       17096.726      5743.2562      5338.6418      4155.3257      518.2114       776.62772      4887.4267     -4322.7633     -466.83418      84364.779      43.858495      43.858495      43.858495      1.0456456      604.83658      874.40407     -3890.2241    
    102000   102000         689.35399     -981.61185      29551.902      30746.774      13354.362      17392.412      5796.7327      5391.8018      4285.3004      524.54807      826.39317      4897.2614     -4329.625      -471.8655       83465.231      43.702056      43.702056      43.702056      1.0569151     -2183.2978     -820.73274      59.194999    
    103000   103000         687.98411      135.9492       30583.163      30415.427      13327.824      17087.603      5772.8172      5246.4738      4182.7485      516.49322      807.67187      4889.8077     -4328.4089     -465.53343      84600.504      43.899305      43.899305      43.899305      1.0427321      1806.7481     -456.41151     -942.48902    
    104000   104000         686.35761      867.53351      31456.005      30378.967      13296.315      17082.652      5768.1707      5418.5133      4023.7689      503.73214      799.1336       4896.7049     -4327.3717     -462.65246      85127.316      43.990238      43.990238      43.990238      1.0362791      1859.3148     -342.01071      1085.2965    
    105000   105000         690.35658     -1883.147       28168.721      30510.311      13373.784      17136.527      5774.6251      5262.7669      4212.3128      515.15462      791.44432      4905.5411     -4325.3182     -461.92677      85261.052      44.013263      44.013263      44.013263      1.0346537     -1655.4238     -2733.1518     -1260.8656    
    106000   106000         688.68545     -327.11953      29862.824      30270.956      13341.411      16929.546      5653.3066      5384.5838      4039.8214      511.07819      777.01213      4893.9073     -4330.1635     -460.36837      85549.671      44.06287       44.06287       44.06287       1.0311631      1796.543      -1239.8918     -1538.0098    
    107000   107000         685.7426      -1225.1093      28575.575      30093.392      13284.401      16808.992      5694.3081      5112.8435      4153.0904      516.99538      745.08077      4909.435      -4322.7613     -463.61249      84951.039      43.959853      43.959853      43.959853      1.0384295     -1824.9543      457.54435     -2307.918     
    108000   108000         685.8223      -723.26976      29273.778      30167.718      13285.945      16881.773      5731.9976      5266.7916      4060.6838      511.38503      737.87355      4895.52       -4322.4783     -464.72018      84748.552      43.924898      43.924898      43.924898      1.0409106     -510.36481     -1008.8957     -650.54876    
    109000   109000         677.48688      768.41184      31215.387      30257.677      13124.469      17133.208      5852.8822      5175.8889      4098.6987      527.79544      913.97653      4890.3086     -4326.3424     -460.84998      85460.268      44.047515      44.047515      44.047515      1.0322418      1393.3457     -371.60955      1283.4994    
    110000   110000         677.95559      1225.3302      31608.827      30104.88       13133.549      16971.331      5783.537       5176.3377      4061.6389      503.63087      876.78385      4894.383      -4324.9798     -467.97244      84159.577      43.822907      43.822907      43.822907      1.0481952      490.55582      885.84096      2299.5937    
    111000   111000         696.1627      -771.26077      29669.669      30616.875      13486.262      17130.613      5823.7293      5357.916       4094.4092      522.22116      763.14982      4895.2601     -4326.0729     -467.68874      84210.628      43.831766      43.831766      43.831766      1.0475597      508.29375     -1671.9636     -1150.1125    
    112000   112000         686.75245     -60.204765      30111.505      30185.372      13303.964      16881.408      5777.3288      5225.8868      4005.1969      519.41806      789.45911      4890.9113     -4326.7929     -468.14559      84128.449      43.817503      43.817503      43.817503      1.048583       780.78481     -382.61419     -578.78491    
    113000   113000         684.73189     -1344.7009      28499.443      30160.844      13264.821      16896.023      5679.7304      5263.203       4137.1692      507.7724       712.92555      4914.127      -4318.9041     -464.8908       84717.449      43.919524      43.919524      43.919524      1.0412927     -1056.6537     -79.835609     -2897.6136    
    114000   114000         691.81886     -1235.4374      28713.598      30229.62       13402.112      16827.508      5618.4824      5261.295       4148.74        521.05606      697.86733      4903.3327     -4323.2655     -468.07455      84141.217      43.81972       43.81972       43.81972       1.0484239     -3291.6564     -552.34225      137.68637    
    115000   115000         694.84751      610.96001      31237.09       30480.001      13460.784      17019.217      5756.1795      5240.0717      4166.7215      516.34787      763.52479      4898.5728     -4322.2011     -463.51663      84968.607      43.962883      43.962883      43.962883      1.0382148     -763.78842      2351.8373      244.83118    
    116000   116000         698.85373      476.99104      31173.995      30584.028      13538.393      17045.634      5894.6065      5240.7524      4098.6254      497.81357      743.28765      4895.9874     -4325.4384     -464.3893       84808.936      43.935328      43.935328      43.935328      1.0401694     -580.08625      1745.3567      265.70266    
    117000   117000         688.17426      1186.0268      31468.851      30027.508      13331.508      16696.001      5710.392       5248.4972      3950.3358      504.4932       695.83686      4908.5434     -4322.0978     -472.63631      83329.11       43.678285      43.678285      43.678285      1.0586416      547.68338      2641.0455      369.35161    
    118000   118000         688.21072      1565.6096      32241.355      30304.652      13332.214      16972.438      5808.6911      5108.6574      4126.6141      536.8564       800.79232      4910.9446     -4320.1178     -464.32289      84821.065      43.937422      43.937422      43.937422      1.0400207      931.24364      1656.3894      2109.1957    
    119000   119000         687.37915     -1035.4644      28965.49       30244.996      13316.105      16928.892      5773.8407      5297.4862      4046.3114      519.20269      728.12145      4890.5635     -4326.6341     -464.82799      84728.896      43.921502      43.921502      43.921502      1.041152      -1972.8895      219.03834     -1352.5421    
    120000   120000         699.76938      2679.388       33869.887      30555.761      13556.132      16999.63       5811.2345      5314.0492      3992.3994      505.9343       805.72063      4898.0925     -4327.8006     -464.37234      84812.035      43.935863      43.935863      43.935863      1.0401314      3631.3359      1931.9857      2474.8425    
    121000   121000         685.97987      1405.5155      31932.796      30226.094      13288.997      16937.097      5782.7321      5279.9585      4054.6141      528.1665       725.5104       4895.1859     -4329.0703     -473.01813      83261.845      43.66653       43.66653       43.66653       1.0594968      1873.3304      1448.4098      894.80619    
    122000   122000         693.92307      44.299168      30530.418      30475.609      13442.875      17032.734      5707.2911      5467.89        4007.5803      496.34135      779.17338      4897.4746     -4323.0167     -464.24736      84834.866      43.939805      43.939805      43.939805      1.0398515     -1176.4093      479.90473      829.40205    
    123000   123000         697.73265     -593.91377      29766.149      30480.101      13516.675      16963.425      5806.3285      5285.0683      4106.6645      511.55622      684.17039      4892.7116     -4323.074      -477.80891      82427.016      43.520097      43.520097      43.520097      1.0702275      2108.5969     -3152.5411     -737.79716    
    124000   124000         694.06478     -1387.6356      28597.975      30300.892      13445.62       16855.271      5665.525       5279.6083      4121.4207      521.7461       692.31864      4898.1916     -4323.5389     -468.03865      84147.672      43.82084       43.82084       43.82084       1.0483435     -1370.9657     -1791.7385     -1000.2026    
    125000   125000         684.69961     -284.07645      29823.776      30170.456      13264.196      16906.261      5682.9638      5195.3586      4184.1148      524.78344      759.65151      4888.2303     -4328.8416     -470.65796      83679.371      43.739398      43.739398      43.739398      1.0542104      609.04772     -137.10619     -1324.1709    
    126000   126000         695.85758      781.29796      31100.506      30141.848      13480.351      16661.497      5521.8894      5196.5035      4185.4141      537.40536      650.07424      4898.6974     -4328.4873     -468.11519      84133.912      43.818452      43.818452      43.818452      1.0485149      1340.2468      676.51327      327.13375    
    127000   127000         682.22286      2183.5965      32902.716      30227.305      13216.215      17011.089      5926.7841      5220.5198      3942.6798      508.25586      805.99789      4928.2456     -4321.3936     -468.79336      84012.202      43.797312      43.797312      43.797312      1.0500339      2339.9373      3247.6049      963.24708    
    128000   128000         685.83446     -783.42666      29000.199      29972.339      13286.18       16686.159      5463.4773      5274.6442      4047.2222      517.9553       806.5597       4905.2428     -4328.9423     -462.88051      85085.377      43.983013      43.983013      43.983013      1.0367899     -916.19723      304.9876      -1739.0704    
    129000   129000         693.59541      125.0329       30473.335      30318.147      13436.528      16881.62       5731.6883      5299.8604      4019.9052      497.58133      759.03774      4901.4231     -4327.8762     -462.77278      85105.184      43.986426      43.986426      43.986426      1.0365486     -975.70975      424.04552      926.76293    
    130000   130000         680.11951      844.39747      31041.507      30005.618      13175.469      16830.149      5843.0208      5174.1793      3933.1744      504.34944      811.16057      4897.5113     -4333.2466     -468.20185      84118.34       43.815748      43.815748      43.815748      1.048709      -225.36501      946.98929      1811.5681    
    131000   131000         700.82371      396.22499      30921.37       30437.698      13576.556      16861.141      5766.1664      5323.1677      4020.6877      499.51475      683.5363       4893.9818     -4325.9133     -470.53319      83701.561      43.743264      43.743264      43.743264      1.0539309     -1113.9101      124.85014      2177.7349    
    132000   132000         689.2443      -568.84089      29576.551      30274.592      13352.237      16922.356      5713.4528      5253.9136      4009.6451      522.14232      841.50792      4907.6088     -4325.9148     -468.06852      84142.302      43.819908      43.819908      43.819908      1.0484104      204.47645     -2451.6357      540.63657    
    133000   133000         693.35707     -708.05116      29580.815      30460.105      13431.91       17028.195      5725.8904      5317.247       4079.3695      524.66155      818.36382      4892.2824     -4329.6199     -462.52158      85151.405      43.994387      43.994387      43.994387      1.035986      -2021.8355     -155.08604      52.768032    
    134000   134000         678.76774      230.275        30399.414      30117.955      13149.282      16968.673      5694.5583      5270.6315      4098.2102      521.54775      815.50304      4893.9428     -4325.7209     -469.92743      83809.457      43.762052      43.762052      43.762052      1.0525741      45.365687      1929.4501     -1283.9907    
    135000   135000         694.35511     -2098.4725      27998.817      30575.626      13451.245      17124.381      5766.6419      5273.4113      4292.1362      551.59747      666.52534      4899.5334     -4325.4646     -467.75747      84198.255      43.829619      43.829619      43.829619      1.0477137     -2007.1399     -1519.6957     -2768.5819    
    136000   136000         682.74392     -36.197019      30033.464      30077.717      13226.31       16851.407      5672.2843      5228.3573      4074.726       506.6906       807.85487      4892.7613     -4331.2668     -469.81427      83829.643      43.765565      43.765565      43.765565      1.0523206      262.894        1618.2639     -1989.7489    
    137000   137000         686.24142      1705.2133      32394.708      30317.838      13294.064      17023.774      5763.6544      5372.6425      4116.2166      509.59613      701.67971      4887.7412     -4327.7564     -471.59503      83513.099      43.710409      43.710409      43.710409      1.0563093      2287.4043      663.62292      2164.6127    
    138000   138000         685.89913      231.25922      30415.854      30131.002      13287.433      16843.569      5750.1942      5218.1263      4056.5345      505.75114      749.75964      4888.3785     -4325.1754     -466.31535      84458.646      43.874755      43.874755      43.874755      1.0444835      447.25533      257.96518     -11.442851    
    139000   139000         680.66633      2246.517       32959.573      30202.76       13186.062      17016.699      5837.2227      5317.5988      4032.4754      493.44108      766.13026      4896.4434     -4326.6132     -468.06062      84143.722      43.820155      43.820155      43.820155      1.0483927      2618.9686      2185.7288      1934.8536    
    140000   140000         668.13406     -788.30808      28862.968      29834.853      12943.283      16891.57       5682.936       5143.767       4168.7108      539.66636      793.15742      4892.9272     -4329.5949     -465.88717      84536.268      43.888192      43.888192      43.888192      1.0435244      409.01737      442.51872     -3216.4603    
    141000   141000         689.92543     -527.05928      29710.86       30364.671      13365.432      16999.239      5736.2369      5374.5583      4040.2856      523.65147      754.17037      4894.3184     -4323.9821     -463.028        85058.274      43.978342      43.978342      43.978342      1.0371203     -356.81678     -2460.685       1236.324     
    142000   142000         680.00787      1600.4953      31982.185      30031.663      13173.306      16858.357      5773.0623      5251.416       4019.4477      511.85527      722.35048      4901.9682     -4321.7428     -471.30627      83564.266      43.719334      43.719334      43.719334      1.0556625      703.56105      2023.8803      2074.0445    
    143000   143000         690.07776     -676.45197      29495.831      30322.746      13368.383      16954.364      5610.0529      5175.1482      4297.6352      552.63167      755.64284      4889.0154     -4325.7625     -469.86801      83820.056      43.763896      43.763896      43.763896      1.052441      -1511.6925     -701.93937      184.27596    
    144000   144000         683.48418     -3047.1697      26588.959      30383.363      13240.65       17142.712      5713.8763      5306.962       4239.2499      514.28079      791.93134      4901.6422     -4325.2301     -461.2675       85382.912      44.034221      44.034221      44.034221      1.033177      -1305.2581     -3536.5583     -4299.6926    
    145000   145000         688.26832     -945.89348      28969.383      30134.567      13333.33       16801.238      5591.3616      5253.8032      4169.0103      515.90944      698.56306      4899.0566     -4326.4664     -466.28046      84464.964      43.875849      43.875849      43.875849      1.0444054     -2009.0023      210.93346     -1039.6117    
    146000   146000         691.36227      1428.9059      32343.463      30561.074      13393.267      17167.807      5684.8672      5395.3852      4124.5852      531.68351      871.17864      4884.0062     -4323.8985     -460.46941      85530.899      44.059647      44.059647      44.059647      1.0313894      195.73534      624.22907      3466.7532    
    147000   147000         687.95755     -2335.0032      27344.093      30229.591      13327.309      16902.281      5727.9413      5168.6257      4203.8503      505.43981      741.58467      4881.8874     -4327.0481     -464.80039      84733.927      43.922371      43.922371      43.922371      1.0410902     -1235.3414     -3082.9529     -2686.7153    
    148000   148000         682.04567      160.01168      29979.029      29782.999      13212.783      16570.217      5514.5312      5139.1742      4105.8867      524.40141      726.31624      4886.7353     -4326.8284     -468.84616      84002.741      43.795668      43.795668      43.795668      1.0501522     -31.264638     -495.60572      1006.9054    
    149000   149000         683.81732      518.83907      30899.411      30262.7        13247.104      17015.596      5651.0697      5299.3471      4160.1844      529.49436      807.31612      4895.6593     -4327.4745     -468.04745      84146.089      43.820566      43.820566      43.820566      1.0483632      54.055107      293.81415      1208.6479    
    150000   150000         670.97698      70.508139      30168.507      30080.943      12998.357      17082.587      5831.691       5217.3599      4064.318       513.4968       911.26861      4876.2669     -4331.8149     -462.5039       85154.66       43.994948      43.994948      43.994948      1.0359464      21.284114     -377.13845      567.37876    
    151000   151000         683.63323      1759.368       32448.851      30296.421      13243.537      17052.884      5931.2768      5320.8855      4037.8631      505.3027       680.77919      4900.5176     -4323.741      -469.4911       83887.347      43.775605      43.775605      43.775605      1.0515968      956.54685      2128.2415      2193.3156    
    152000   152000         692.22085      766.54531      31122.237      30174.805      13409.899      16764.905      5900.3415      5044.8575      3919.1766      517.49879      816.01193      4897.7788     -4330.7598     -464.71804      84748.944      43.924966      43.924966      43.924966      1.0409057      1707.3632      678.75227     -86.479517    
    153000   153000         688.15717     -92.667409      30092.149      30205.339      13331.177      16874.163      5856.5949      5167.643       4025.0594      507.55554      762.10508      4886.5256     -4331.3208     -470.23712      83754.262      43.752443      43.752443      43.752443      1.0532677      3800.4667     -2957.3231     -1121.1458    
    154000   154000         682.46531      792.53971      31228.96       30254.996      13220.912      17034.084      5772.6924      5381.2844      3994.9723      519.1523       786.91521      4907.0442     -4327.9766     -467.38843      84264.735      43.841152      43.841152      43.841152      1.0468871     -381.52731     -93.06832       2852.2148    
    155000   155000         683.28596     -886.44027      28933.052      30027.343      13236.81       16790.533      5741.1005      5036.6208      4107.8598      512.34715      814.72549      4902.5796     -4324.6999     -465.28217      84646.19       43.907206      43.907206      43.907206      1.0421693     -1392.8899      123.84886     -1390.2797    
    156000   156000         683.46735     -2685.9541      27051.884      30320.341      13240.324      17080.017      5771.6057      5277.2874      4241.5521      512.92839      691.51758      4910.373      -4325.2471     -472.01473      83438.843      43.69745       43.69745       43.69745       1.0572493     -1760.6016     -1594.8928     -4702.3679    
    157000   157000         678.50595      390.91993      30365.904      29886.065      13144.21       16741.855      5854.6126      5076.0657      3956.19        508.04787      787.35621      4882.8448     -4323.2625     -467.94222      84165.013      43.82385       43.82385       43.82385       1.0481275     -841.51596      657.91212      1356.3636    
    158000   158000         675.58951      262.03904      30291.477      29972.681      13087.712      16884.969      5793.6997      5289.9762      3988.199       506.44705      743.46768      4887.4521     -4324.273      -472.12075      83420.106      43.694179      43.694179      43.694179      1.0574868     -2136.6354      1242.4058      1680.3467    
    159000   159000         687.53508     -1007.1639      28889.008      30140.003      13319.125      16820.878      5744.2572      5244.4491      4059.0145      503.26239      692.84028      4900.1215     -4323.0668     -462.42795      85168.646      43.997356      43.997356      43.997356      1.0357763     -2117.8669      746.87044     -1650.4952    
    160000   160000         680.80048      1477.3856      31902.337      30081.069      13188.661      16892.408      5819.8171      5108.6718      4099.5464      516.93952      778.05933      4893.7079     -4324.3339     -465.92888      84528.7        43.886882      43.886882      43.886882      1.0436179      3219.24        1669.4473     -456.5305     
    161000   161000         687.44419     -439.41917      29702.261      30240.799      13317.364      16923.434      5644.8652      5110.5306      4247.347       546.28576      810.77134      4885.7805     -4322.146      -468.6653       84035.158      43.801301      43.801301      43.801301      1.0497471      879.65459     -2583.9104      385.99828    
    162000   162000         676.79734      1158.4816      31517.083      30093.709      13111.111      16982.599      5789.3414      5140.0012      4087.0347      517.83027      886.04361      4891.8482     -4329.5008     -467.48727      84246.92       43.838062      43.838062      43.838062      1.0471085      1548.1636      1317.0113      610.26976    
    163000   163000         684.60948     -816.80983      29151.274      30157.727      13262.45       16895.277      5567.4988      5180.5133      4299.5846      524.20445      742.11475      4905.1612     -4323.7997     -466.15159      84488.315      43.879892      43.879892      43.879892      1.0441167     -96.33022      -686.70775     -1667.3915    
    164000   164000         690.07588      1365.296       31987.85       30311.773      13368.346      16943.426      5824.2567      5216.6455      4000.5992      526.86098      812.15694      4891.0751     -4328.1681     -467.87777      84176.605      43.825862      43.825862      43.825862      1.0479831      1704.7719      1411.7926      979.32352    
    165000   165000         682.46978     -338.76489      29620.844      30034.709      13220.999      16813.71       5686.1896      5217.9274      4050.1973      511.82877      792.18676      4887.3886     -4332.0081     -470.15302      83769.244      43.755051      43.755051      43.755051      1.0530794      1172.5882     -1646.9883     -541.8945     
    166000   166000         680.84814      1118.3952      31568.803      30185.527      13189.584      16995.943      5669.6974      5408.1657      4035.587       519.18582      782.60231      4904.6061     -4323.901      -464.39382      84808.11       43.935185      43.935185      43.935185      1.0401796      3302.1642      814.17923     -761.15772    
    167000   167000         683.59978     -1675.9966      28206.814      30261.692      13242.889      17018.803      5814.5687      5128.9827      4240.9016      534.19396      728.60514      4898.2332     -4326.6824     -468.47544      84069.215      43.807217      43.807217      43.807217      1.0493218     -1070.2903     -1818.8336     -2138.866     
    168000   168000         686.20211     -510.2694       29575.708      30194.684      13293.303      16901.381      5760.1228      5135.0736      4220.2999      544.17033      684.06364      4884.801      -4327.1502     -473.50618      83176.026      43.651522      43.651522      43.651522      1.06059       -790.61229     -11.617618     -728.57829    
    169000   169000         690.71709     -580.09721      29512.262      30227.754      13380.768      16846.986      5647.0877      5164.4371      4256.204       511.65718      683.81588      4909.2454     -4325.4611     -465.68886      84572.267      43.894421      43.894421      43.894421      1.0430803     -2231.9927      1512.4486     -1020.7475    
    170000   170000         679.8227       205.51668      30419.513      30165.772      13169.719      16996.053      5616.7454      5233.061       4267.7121      529.51454      773.12284      4900.5097     -4324.6127     -465.21691      84658.064      43.909259      43.909259      43.909259      1.0420232     -1354.6264     -55.376245      2026.5527    
    171000   171000         677.08952      1954.2429      32276.022      29871.47       13116.771      16754.699      5691.751       5123.8346      4024.3476      528.34412      828.27686      4884.7211     -4326.5763     -466.81426      84368.379      43.859119      43.859119      43.859119      1.045601       1809.1775      1721.3865      2332.1648    
    172000   172000         688.61489      1053.0954      31366.853      30076.661      13340.043      16736.618      5722.0476      5244.622       3936.947       491.46873      780.75187      4888.7109     -4327.9305     -468.82756      84006.074      43.796247      43.796247      43.796247      1.0501105      2315.5487      1606.3022     -762.56464    
    173000   173000         662.11258     -543.74321      29271.535      29948.529      12826.633      17121.896      5781.1193      5335.3358      4160.3771      530.71811      747.29573      4888.2642     -4321.2144     -461.32642      85372.008      44.032347      44.032347      44.032347      1.033309      -1898.2637     -852.17157      1119.2056    
    174000   174000         684.25507     -290.19966      29796.68       30157.415      13255.584      16901.832      5673.8113      5313.4398      4121.2594      503.57415      714.83724      4898.413      -4323.5033     -462.07052      85234.528      44.008698      44.008698      44.008698      1.0349757     -53.45746      -1159.7635      342.62195    
    175000   175000         684.38795      9.0824243      30302.132      30290.864      13258.158      17032.706      5620.9122      5279.4726      4154.5954      526.92831      880.89533      4895.5708     -4325.6688     -462.978        85067.46       43.979925      43.979925      43.979925      1.0370083      1046.2717     -317.35721     -701.66724    
    176000   176000         683.70359      1991.1339      32584.055      30131.487      13244.901      16886.587      5768.1348      5088.1863      4131.159       519.1762       812.62101      4895.4223     -4328.1128     -466.31481      84458.742      43.874772      43.874772      43.874772      1.0444823      518.12688      1970.9484      3484.3264    
    177000   177000         684.51493     -552.61081      29501.314      30190.741      13260.618      16930.123      5828.6579      5152.5149      4066.7988      488.47173      822.43285      4896.1223     -4324.8753     -460.39503      85544.717      44.062019      44.062019      44.062019      1.0312228     -641.76896     -1658.2082      642.14477    
    178000   178000         685.36858     -969.15855      28986.244      30188.088      13277.155      16910.932      5738.1777      5207.4145      4124.5736      538.19512      740.30303      4888.1679     -4325.8995     -463.17677      85030.953      43.973633      43.973633      43.973633      1.0374535      2031.4188     -1444.3432     -3494.5513    
    179000   179000         684.77161      684.48414      31281.406      30424.843      13265.59       17159.253      5748.6051      5359.9091      4128.6053      536.08622      803.55224      4907.0161     -4324.5216     -458.99054      85806.481      44.106916      44.106916      44.106916      1.0280769      558.31639      1707.6811     -212.54502    
    180000   180000         684.36907     -632.89283      29465.905      30246.271      13257.792      16988.479      5739.117       5289.6067      4097.0819      519.12599      771.608        4900.6871     -4328.7476     -465.8344       84545.844      43.889849      43.889849      43.889849      1.0434063      687.21494      632.07805     -3217.9715    
    181000   181000         684.54559      1295.0519      31615.234      30014.034      13261.212      16752.822      5512.0547      5346.7343      4025.7527      535.20048      771.7032       4887.8574     -4326.4811     -464.55936      84777.891      43.929966      43.929966      43.929966      1.0405503      1947.0917      1525.022       413.04186    
    182000   182000         690.77938     -1228.5073      28816.433      30356.361      13381.975      16974.387      5743.6447      5189.9967      4101.5604      505.86551      877.26024      4885.1301     -4329.071      -458.22316      85950.18       44.131524      44.131524      44.131524      1.0263581     -2444.5924     -886.44492     -354.48449    
    183000   183000         691.25311      1510.8056      32060.137      30202.289      13391.152      16811.137      5724.2354      5260.2366      4000.3874      499.13972      741.08267      4906.7471     -4320.6913     -467.08733      84319.055      43.85057       43.85057       43.85057       1.0462126      1509.8003     -201.7932       3224.4095    
    184000   184000         684.59523     -1369.1134      28444.629      30136.279      13262.174      16874.106      5663.957       5267.45        4202.1506      508.03727      674.62225      4887.0167     -4329.1278     -464.86684      84721.816      43.920278      43.920278      43.920278      1.041239      -1228.5886     -2734.9208     -143.83072    
    185000   185000         681.04376     -175.49032      29959.834      30177.221      13193.373      16983.847      5694.6847      5239.1211      4135.734       519.18313      800.57479      4914.6957     -4320.146      -463.68134      84938.424      43.957677      43.957677      43.957677      1.0385837     -25.085723     -598.36784      96.982606    
    186000   186000         680.10127      1095.2255      31390.976      30025.739      13175.115      16850.623      5813.9272      5163.527       3875.2156      481.19548      946.20691      4898.1434     -4327.5923     -460.78162      85472.946      44.049693      44.049693      44.049693      1.0320887     -327.61696      1127.5397      2485.7537    
    187000   187000         686.00706     -107.00965      29766.278      29896.248      13289.524      16606.724      5420.5102      5170.0339      4206.8028      522.95565      716.38339      4897.384      -4327.3463     -472.91177      83280.571      43.669803      43.669803      43.669803      1.0592586      839.16855      470.87329     -1631.0708    
    188000   188000         677.17083      176.66901      30301.4        30083.338      13118.346      16964.992      5817.2697      5224.9914      4009.3505      495.52058      841.19515      4899.5908     -4322.9257     -465.35149      84633.58       43.905026      43.905026      43.905026      1.0423246     -1870.654       2848.105      -447.44393    
    189000   189000         677.32986     -179.62509      29680.102      29899.577      13121.427      16778.151      5520.0932      5237.2911      4152.6826      511.22703      769.99571      4910.6359     -4323.7749     -470.09005      83780.464      43.757005      43.757005      43.757005      1.0529383      1257.0969     -866.64213     -929.33006    
    190000   190000         679.82844      972.26919      30852.33       29671.682      13169.83       16501.852      5659.423       5143.0527      3920.5332      489.86148      713.25959      4902.1151     -4326.3928     -473.0051       83264.14       43.666931      43.666931      43.666931      1.0594676      2067.7042      485.50578      363.59759    
    191000   191000         676.90075     -1375.5678      28408.403      30091.163      13113.114      16978.049      5797.9799      5374.9205      4014.2012      482.32937      729.10366      4903.5844     -4324.0699     -469.52584      83881.139      43.774525      43.774525      43.774525      1.0516746     -500.43926     -1052.5951     -2573.6691    
    192000   192000         671.6269      -1197.8029      28556.816      30023.802      13010.947      17012.855      5686.0391      5427.213       4090.8053      502.23745      730.39687      4902.0913     -4325.928      -468.98516      83977.844      43.791341      43.791341      43.791341      1.0504635     -594.93293     -999.70993     -1998.7658    
    193000   193000         684.78578      38.529572      30002.183      29955.645      13265.865      16689.78       5472.2109      5286.044       4248.6108      499.7616       626.07241      4885.131      -4328.0504     -475.54151      82820.032      43.589156      43.589156      43.589156      1.0651489      663.92878     -350.90028     -197.43979    
    194000   194000         682.20581     -733.00426      29111.232      29996.513      13215.885      16780.628      5711.4077      5273.8092      4085.5512      528.26317      611.88235      4897.0242     -4327.31       -475.58186      82813.004      43.587924      43.587924      43.587924      1.0652392      817.74054     -1476.1471     -1540.6062    
    195000   195000         677.71678     -209.49511      29908.972      30164.414      13128.922      17035.492      5750.1594      5286.1612      4136.1516      514.51483      761.41072      4912.868      -4325.7736     -471.06542      83606.992      43.726784      43.726784      43.726784      1.055123       1375.6989     -1156.7476     -847.43662    
    196000   196000         672.1127      -677.46175      28745.411      29577.799      13020.358      16557.441      5564.668       5285.2204      3966.8877      487.89643      667.95066      4906.3884     -4321.5707     -467.47527      84249.082      43.838437      43.838437      43.838437      1.0470816      356.99429      51.453674     -2440.8332    
    197000   197000         672.85147      1154.4405      31233.926      29827.054      13034.67       16792.384      5708.2628      5329.3782      4002.7815      490.94667      677.46232      4906.4348     -4322.8822     -471.32107      83561.643      43.718876      43.718876      43.718876      1.0556956      16.849964      1147.6847      2298.7867    
    198000   198000         686.56748     -106.28066      30089.073      30218.566      13300.38       16918.186      5646.5321      5445.59        4091.0156      518.09604      625.10002      4913.8506     -4321.9988     -471.41932      83544.226      43.715839      43.715839      43.715839      1.0559157     -445.26339     -2281.557       2407.9784    
    199000   199000         678.07331     -1142.1462      28404.365      29801.968      13135.829      16666.139      5587.329       5081.2298      4194.2344      517.61507      704.49797      4903.5994     -4322.3668     -469.39413      83904.676      43.778619      43.778619      43.778619      1.0513796     -531.24554     -2382.1175     -513.0757     
    200000   200000         660.53425     -1019.3933      28355.98       29587.151      12796.057      16791.094      5670.6051      5322.2832      4091.2504      518.47241      598.60044      4914.5773     -4324.6949     -475.5795       82813.415      43.587996      43.587996      43.587996      1.065234       109.2609      -2551.8424     -615.59824    
    201000   201000         688.81139      122.11181      30278.478      30127.882      13343.85       16784.032      5811.5239      5221.9757      3947.5022      500.96209      722.41392      4900.0802     -4320.426      -465.74217      84562.586      43.892746      43.892746      43.892746      1.0431997     -1931.1359      413.41784      1884.0535    
    202000   202000         677.12504     -329.46929      29263.865      29662.591      13117.459      16545.132      5538.7881      5175.8584      4096.0687      503.55836      654.71566      4901.7169     -4325.5738     -474.61307      82982.045      43.617561      43.617561      43.617561      1.0630693     -2078.1727      1933.0571     -843.29234    
    203000   203000         683.61903      871.75222      31430.189      30357.953      13243.262      17114.69       5764.0144      5289.4929      4042.328       517.41705      922.87176      4905.3045     -4326.7382     -466.98442      84337.637      43.853791      43.853791      43.853791      1.0459821      704.59766      1744.4307      166.22833    
    204000   204000         687.23763      1004.8843      31090.854      29870.078      13313.363      16556.715      5402.5776      5248.4094      4074.2813      522.30551      728.35663      4903.2742     -4322.4894     -472.80256      83299.809      43.673165      43.673165      43.673165      1.059014       1708.1175      831.6588       474.87646    
    205000   205000         684.22128     -667.7758       29048.023      29862.902      13254.929      16607.973      5536.8142      5214.1156      4047.0998      505.92844      735.34124      4898.2171     -4329.5436     -470.69255      83673.222      43.738327      43.738327      43.738327      1.0542879     -252.23444     -1545.6749     -205.41811    
    206000   206000         684.53869     -795.92799      28772.14       29751.109      13261.078      16490.031      5608.8722      5133.2098      3977.206       486.31127      699.01364      4909.3578     -4323.9398     -466.98677      84337.213      43.853718      43.853718      43.853718      1.0459874     -2044.1098     -1857.928       1514.2538    
    207000   207000         688.16473      251.87076      30249.95       29947.122      13331.323      16615.799      5568.0165      5264.5017      4059.8921      508.66599      634.4589       4904.9473     -4324.6836     -477.72892      82440.816      43.522526      43.522526      43.522526      1.0700484      810.36121     -1.0495173     -53.69942     
    208000   208000         678.9276      -565.25582      29190.081      29877.721      13152.379      16725.342      5695.9588      5166.3147      4108.8573      528.10638      646.56355      4902.6645     -4323.1233     -472.15398      83414.234      43.693153      43.693153      43.693153      1.0575613     -1745.5472      456.85642     -407.07663    
    209000   209000         671.7638       477.69316      30406.565      29829.503      13013.599      16815.903      5748.547       5269.7963      4026.9953      511.59723      679.29137      4902.3717     -4322.6957     -475.47294      82831.975      43.591252      43.591252      43.591252      1.0649953      495.96848     -549.81891      1486.9299    
    210000   210000         686.80341      444.32601      30503.88       29965.214      13304.951      16660.263      5715.6489      5271.7195      4026.9831      487.84522      581.25524      4899.1841     -4322.3732     -473.78546      83126.998      43.642943      43.642943      43.642943      1.0612155      1863.6692      1660.6359     -2191.3271    
    211000   211000         685.76081      311.80109      30381.616      30002.697      13284.754      16717.944      5604.0608      5210.1704      4180.9605      523.65754      638.89341      4886.5973     -4326.3962     -472.64139      83328.213      43.678129      43.678129      43.678129      1.058653       315.51626      1020.147      -400.25997    
    212000   212000         678.70451     -560.54187      29312.139      29999.916      13148.057      16851.859      5800.6928      5180.1142      4086.3209      504.93546      730.83774      4876.2621     -4327.3046     -468.12358      84132.404      43.81819       43.81819       43.81819       1.0485337     -363.40581     -1614.451       296.23119    
    213000   213000         671.46193      843.47907      30770.801      29757.601      13007.752      16749.85       5789.4472      5245.1773      3962.7993      521.49069      645.98599      4907.678      -4322.7286     -478.16645      82365.383      43.509248      43.509248      43.509248      1.0710284      1838.6516     -176.44534      868.23094    
    214000   214000         691.03476     -1111.7398      28565.407      29943.07       13386.922      16556.148      5604.5372      5121.1538      4007.3502      506.12122      754.60741      4885.479      -4323.1004     -463.51063      84969.708      43.963073      43.963073      43.963073      1.0382013     -2357.7126     -598.44596     -379.06091    
    215000   215000         677.23048     -1453.6342      28094.569      29855.81       13119.502      16736.309      5691.9526      5162.2271      4107.4934      516.09516      701.30502      4884.2689     -4327.0335     -474.0629       83078.349      43.634428      43.634428      43.634428      1.061837      -1420.4763     -1617.8147     -1322.6115    
    216000   216000         677.88649     -700.72738      28977.778      29838.333      13132.21       16706.123      5678.2728      5182.707       4058.776       535.72005      685.26771      4891.9293     -4326.5499     -467.70333      84208.002      43.83131       43.83131       43.83131       1.0475924     -570.09067     -1989.8459      457.75442    
    217000   217000         690.37054     -1889.18        27936.096      30244.138      13374.055      16870.083      5746.8748      5269.696       4090.8273      490.53888      711.86557      4887.5704     -4327.29       -470.14241      83771.133      43.75538       43.75538       43.75538       1.0530556      656.32995     -2815.8973     -3507.9727    
    218000   218000         670.23946     -637.45531      28967.676      29750.958      12984.069      16766.889      5531.8122      5175.243       4176.3274      515.01373      807.57276      4888.5665     -4327.6468     -467.44538      84254.469      43.839371      43.839371      43.839371      1.0470146     -3674.9583      623.88126      1138.7111    
    219000   219000         672.93921     -338.2761       29460.113      29878.018      13036.37       16841.648      5697.6744      5268.8908      4024.4712      521.66739      746.01886      4904.0829     -4321.1573     -464.93581      84709.247      43.918107      43.918107      43.918107      1.0413935     -605.10885      727.14609     -1136.8655    
    220000   220000         684.3786       688.16328      31077.286      30227.42       13257.977      16969.443      5767.3102      5292.3762      4062.4277      508.56211      780.84378      4883.7761     -4325.8535     -465.09408      84680.421      43.913124      43.913124      43.913124      1.041748       1274.427      -2381.8909      3171.9537    
    221000   221000         681.07955     -679.05373      28976.352      29807.516      13194.067      16613.449      5639.7466      5230.958       3957.0389      497.78952      741.36022      4876.6251     -4330.0687     -469.26344      83928.044      43.782683      43.782683      43.782683      1.0510868     -933.84544      317.34831     -1420.6641    
    222000   222000         668.67522     -1466.4549      27794.573      29601.459      12953.767      16647.692      5405.7         5348.7713      4100.516       502.7584       722.95185      4894.395      -4327.4002     -466.16278      84486.288      43.879541      43.879541      43.879541      1.0441418     -835.68962     -2322.7134     -1240.9617    
    223000   223000         683.53726      786.01854      30957.428      29996.487      13241.678      16754.809      5633.1775      5304.0297      4063.9804      490.40544      689.97616      4900.4735     -4327.2336     -469.82481      83827.763      43.765238      43.765238      43.765238      1.0523442      1455.6052     -663.49857      1565.949     
    224000   224000         675.83962     -259.03368      29383.371      29703.301      13092.557      16610.744      5607.4956      5216.7859      4064.5518      496.44381      661.82806      4892.6653     -4329.0269     -465.05103      84688.26       43.914479      43.914479      43.914479      1.0416516     -1316.7647     -297.16946      836.83315    
    225000   225000         678.51714     -2445.7844      27044.066      30032.871      13144.427      16888.444      5708.2356      5192.6763      4289.1616      494.77409      626.30188      4902.6701     -4325.3752     -470.02421      83792.201      43.759048      43.759048      43.759048      1.0527909     -1677.5129     -2106.7962     -3553.0441    
    226000   226000         668.57743     -56.781438      29905.621      29976.031      12951.872      17024.159      5829.9384      5339.7085      4016.9723      516.55976      761.91487      4885.9242     -4326.859      -463.20201      85026.321      43.972835      43.972835      43.972835      1.0375101      404.75414     -972.24327      397.14483    
    227000   227000         673.1927       939.13669      30927.982      29779.003      13041.28       16737.722      5795.8164      5173.5836      3972.2819      505.05251      711.0077       4901.9462     -4321.9659     -469.47926      83889.463      43.775973      43.775973      43.775973      1.0515702      722.8024       1044.8337      1049.774     
    228000   228000         667.85404     -596.47654      29007.563      29746.458      12937.859      16808.599      5710.8672      5197.2394      4053.2399      497.46802      794.32818      4882.3552     -4326.8985     -463.67153      84940.222      43.957987      43.957987      43.957987      1.0385617     -959.36775      2371.2426     -3201.3045    
    229000   229000         674.98191     -1465.9181      28066.07       29840.292      13075.942      16764.35       5720.9081      5151.0749      4233.3083      517.73907      568.20425      4896.3918     -4323.2761     -474.57144      82989.323      43.618836      43.618836      43.618836      1.062976       365.88659     -1619.3379     -3144.3031    
    230000   230000         691.01464      191.11833      30415.777      30182.11       13386.532      16795.578      5844.7709      5064.5841      4120.963       507.23596      688.35361      4897.6748     -4328.0049     -469.79115      83833.769      43.766283      43.766283      43.766283      1.0522688     -524.53426      1908.9519     -811.06271    
    231000   231000         673.28908     -1930.2744      27433.67       29799.759      13043.148      16756.612      5696.0256      5235.0461      4051.1738      489.35232      729.42405      4881.2212     -4325.6313     -468.58413      84049.714      43.80383       43.80383       43.80383       1.0495653     -1533.3893     -2343.5611     -1913.8729    
    232000   232000         668.51407      1554.2137      31790.005      29904.718      12950.645      16954.073      5835.9343      5284.8517      4008.5336      504.57452      751.85759      4893.9061     -4325.5849     -473.51393      83174.665      43.651284      43.651284      43.651284      1.0606074      2768.5518     -784.15469      2678.2438    
    233000   233000         677.47011     -2037.546       27607.548      30093.567      13124.144      16969.423      5773.0957      5172.7911      4188.9018      507.11669      758.88117      4894.0448     -4325.4084     -470.76345      83660.621      43.736131      43.736131      43.736131      1.0544467     -946.36759     -3405.518      -1760.7524    
    234000   234000         667.94088      246.88116      29820.363      29516.868      12939.541      16577.327      5569.4116      5193.9661      4026.0373      491.29129      725.7404       4896.7702     -4325.8896     -467.23623      84292.184      43.845911      43.845911      43.845911      1.0465462     -452.97261      1661.3928     -467.77668    
    235000   235000         672.31552      1605.2112      31730.765      29750.81       13024.287      16726.522      5537.1771      5237.5464      4100.3688      506.64682      755.89156      4912.2636     -4323.3721     -465.66816      84576.027      43.895071      43.895071      43.895071      1.0430339      1015.4824      1624.5731      2175.5781    
    236000   236000         672.14075     -1678.4849      27994.923      30045.865      13020.902      17024.964      5800.0264      5210.2444      4193.768       532.82447      710.73294      4903.0463     -4325.6789     -470.07131      83783.805      43.757586      43.757586      43.757586      1.0528963      696.10174     -3129.4324     -2602.1242    
    237000   237000         673.67617     -2261.8825      26885.866      29689.319      13050.646      16638.673      5565.9209      5203.5867      4104.561       483.15016      711.43939      4897.2383     -4327.2235     -463.42168      84986.017      43.965886      43.965886      43.965886      1.0380021     -1206.4549     -392.91548     -5186.2771    
    238000   238000         685.74937     -116.91069      29861.776      30004.956      13284.532      16720.424      5655.0964      5166.9664      4129.6874      485.96571      699.47733      4908.7297     -4325.4993     -469.00044      83975.108      43.790865      43.790865      43.790865      1.0504978     -164.81726      404.61377     -590.52859    
    239000   239000         676.97333     -544.00314      29458.017      30131.734      13114.52       17017.214      5854.5648      5257.0504      4072.628       494.16624      763.5306       4902.2929     -4327.0188     -463.79201      84918.157      43.95418       43.95418       43.95418       1.0388316     -800.83855     -937.2818       106.11094    
    240000   240000         674.57398     -1341.6297      28025.017      29659.037      13068.039      16590.998      5445.5015      5149.9838      4182.8342      504.81458      753.31778      4885.3156     -4330.7695     -471.60133      83511.984      43.710214      43.710214      43.710214      1.0563234     -1450.8673     -1263.2759     -1310.7459    
    241000   241000         674.25785     -765.1804       29126.638      30075.097      13061.915      17013.182      5571.6181      5313.7023      4266.0412      546.91994      766.73085      4880.526      -4332.3565     -463.38855      84992.093      43.966933      43.966933      43.966933      1.0379279      263.81766     -2260.8908     -298.46807    
    242000   242000         675.50407     -308.11283      29356.125      29730.216      13086.057      16644.159      5544.0651      5200.0325      4091.0097      533.48461      704.56314      4898.0982     -4327.0941     -473.07784      83251.338      43.664693      43.664693      43.664693      1.0596306      1108.7085     -547.76492     -1485.2821    
    243000   243000         676.77172      24.747409      29892.43       29862.056      13110.614      16751.442      5634.2319      5168.027       4075.2934      524.66393      774.6455       4900.6185     -4326.0382     -467.9899       84156.438      43.822362      43.822362      43.822362      1.0482343     -1328.5906     -923.35987      2326.1927    
    244000   244000         673.45834     -1531.7832      27923.447      29817.975      13046.427      16771.548      5633.2988      5244.6176      4103.0976      502.48419      717.56768      4898.5483     -4328.0659     -464.404        84806.252      43.934864      43.934864      43.934864      1.0402023     -2772.7412     -1111.066      -711.5424     
    245000   245000         683.59017     -83.039474      30061.024      30163.598      13242.703      16920.895      5709.6958      5192.3249      4150.5297      519.72569      772.64211      4899.5697     -4323.5926     -464.99231      84698.955      43.916328      43.916328      43.916328      1.0415201      64.562502     -2652.9938      2339.3129    
    246000   246000         672.20173     -487.54331      29250.561      29857.964      13022.083      16835.881      5736.5613      5258.4355      4009.5319      502.11948      738.61876      4912.1254     -4321.5116     -461.03741      85425.524      44.041545      44.041545      44.041545      1.0326616      163.96494      615.6584      -2242.2533    
    247000   247000         675.96316      668.61224      30716.422      29905.322      13094.951      16810.371      5660.3588      5224.5299      4125.2225      519.6244       716.58269      4893.624      -4329.5713     -473.4777       83181.029      43.652397      43.652397      43.652397      1.0605262      1278.7183     -972.97712      1700.0955    
    248000   248000         672.78327      191.2097       29966.235      29730.345      13033.349      16696.996      5660.3155      5079.2044      4081.003       522.62363      786.9974       4896.2981     -4329.4461     -465.58687      84590.793      43.897626      43.897626      43.897626      1.0428518     -527.29036      219.6503       881.26917    
    249000   249000         679.92439      99.451892      30054.849      29933.235      13171.689      16761.546      5673.6298      5124.5262      4145.2088      499.47657      760.24431      4888.809      -4330.3484     -469.70781      83848.642      43.768871      43.768871      43.768871      1.0520822      1010.5871     -1201.3285      489.09709    
    250000   250000         679.4735      -88.422087      29880.571      29987.875      13162.954      16824.921      5700.2078      5239.2792      4091.6443      513.81788      711.42606      4898.9693     -4330.4238     -473.30757      83210.929      43.657627      43.657627      43.657627      1.0601451     -382.39356     -502.44624      619.57354    
Loop time of 547.906 on 1 procs for 250000 steps with 6500 atoms

Performance: 39.423 ns/day, 0.609 hours/ns, 456.282 timesteps/s, 2.966 Matom-step/s
100.0% CPU use with 1 MPI tasks x 1 OpenMP threads

MPI task timing breakdown:
Section |  min time  |  avg time  |  max time  |%varavg| %total
---------------------------------------------------------------
Pair    | 49.976     | 49.976     | 49.976     |   0.0 |  9.12
Bond    | 67.7       | 67.7       | 67.7       |   0.0 | 12.36
Kspace  | 234.29     | 234.29     | 234.29     |   0.0 | 42.76
Neigh   | 93.075     | 93.075     | 93.075     |   0.0 | 16.99
Comm    | 13.461     | 13.461     | 13.461     |   0.0 |  2.46
Output  | 2.3108     | 2.3108     | 2.3108     |   0.0 |  0.42
Modify  | 76.79      | 76.79      | 76.79      |   0.0 | 14.02
Other   |            | 10.3       |            |       |  1.88

Nlocal:           6500 ave        6500 max        6500 min
Histogram: 1 0 0 0 0 0 0 0 0 0
Nghost:          16576 ave       16576 max       16576 min
Histogram: 1 0 0 0 0 0 0 0 0 0
Neighs:              0 ave           0 max           0 min
Histogram: 1 0 0 0 0 0 0 0 0 0
FullNghs:  3.22611e+06 ave 3.22611e+06 max 3.22611e+06 min
Histogram: 1 0 0 0 0 0 0 0 0 0

Total # of neighbors = 3226114
Ave neighs/atom = 496.32523
Ave special neighs/atom = 5.7630769
Neighbor list builds = 18063
Dangerous builds = 0
System init for write_data ...
PPPM Kokkos initialization ...
  using 12-bit tables for long-range coulomb
  G vector (1/distance) = 0.29745951
  grid = 30 30 30
  stencil order = 5
  estimated absolute RMS force accuracy = 0.00035130064
  estimated relative force accuracy = 1.0579314e-06
  using double precision cuFFT
  3d grid and FFT values/proc = 50653 27000
Generated 28 of 28 mixed pair_coeff terms from sixthpower/sixthpower mixing rule
System init for write_restart ...
PPPM Kokkos initialization ...
  using 12-bit tables for long-range coulomb
  G vector (1/distance) = 0.29745951
  grid = 30 30 30
  stencil order = 5
  estimated absolute RMS force accuracy = 0.00035130064
  estimated relative force accuracy = 1.0579314e-06
  using double precision cuFFT
  3d grid and FFT values/proc = 50653 27000
Generated 28 of 28 mixed pair_coeff terms from sixthpower/sixthpower mixing rule
STAGE COMPLETE: NPT T=700.0->675.0K P=1.0->1.0atm steps=250000
