Authorization required, but no authorization protocol specified

Authorization required, but no authorization protocol specified

Authorization required, but no authorization protocol specified

Authorization required, but no authorization protocol specified

LAMMPS (22 Jul 2025 - Update 3)
KOKKOS mode with Kokkos version 4.6.2 is enabled
  will use up to 1 GPU(s) per node
  using 1 OpenMP thread(s) per MPI task
Reading data file ...
  orthogonal box = (4.4013188 4.4013188 4.4013188) to (46.645233 46.645233 46.645233)
  1 by 1 by 1 MPI processor grid
  reading atoms ...
  6320 atoms
  reading velocities ...
  6320 velocities
  scanning bonds ...
  4 = max bonds/atom
  scanning angles ...
  12 = max angles/atom
  scanning dihedrals ...
  21 = max dihedrals/atom
  scanning impropers ...
  8 = max impropers/atom
  orthogonal box = (4.4013188 4.4013188 4.4013188) to (46.645233 46.645233 46.645233)
  1 by 1 by 1 MPI processor grid
  reading bonds ...
  6310 bonds
  reading angles ...
  11200 angles
  reading dihedrals ...
  13970 dihedrals
  reading impropers ...
  6300 impropers
Finding 1-2 1-3 1-4 neighbors ...
  special bond factors lj:    0        0        1       
  special bond factors coul:  0        0        1       
     4 = max # of 1-2 neighbors
     6 = max # of 1-3 neighbors
    10 = max # of special neighbors
  special bonds CPU = 0.003 seconds
  read_data CPU = 0.254 seconds
PPPM Kokkos initialization ...
  using 12-bit tables for long-range coulomb
  G vector (1/distance) = 0.3373449
  grid = 48 48 48
  stencil order = 5
  estimated absolute RMS force accuracy = 0.00033939922
  estimated relative force accuracy = 1.0220907e-06
  using double precision cuFFT
  3d grid and FFT values/proc = 166375 110592
Generated 21 of 21 mixed pair_coeff terms from sixthpower/sixthpower mixing rule
Neighbor list info ...
  update: every = 1 steps, delay = 0 steps, check = yes
  max neighbors/atom: 4000, page size: 100000
  master list distance cutoff = 11.5
  ghost atom cutoff = 11.5
  binsize = 11.5, bins = 4 4 4
  1 neighbor lists, perpetual/occasional/extra = 1 0 0
  (1) pair lj/class2/coul/long/kk, perpetual
      attributes: full, newton off, kokkos_device
      pair build: full/bin/kk/device
      stencil: full/bin/3d
      bin: kk/device
Setting up Verlet run ...
  Unit style    : real
  Current step  : 0
  Time step     : 1
Per MPI rank memory allocation (min/avg/max) = 43.94 | 43.94 | 43.94 Mbytes
   Step          Time           Temp          Press         Enthalpy        TotEng         KinEng         PotEng         E_bond        E_angle        E_dihed        E_impro         E_vdwl         E_coul         E_long         E_tail         Volume           Lx             Ly             Lz          Density          Pxx            Pyy            Pzz      
         0   0              599.73086     -759.80545      34473.577      35308.932      11296.374      24012.558      5026.3651      7756.9038     -5115.2354      396.14491     -2556.607       62404.266     -43899.28      -491.4924       75386.304      42.243914      42.243914      42.243914      1.1115969     -2579.081      -1692.3226      1991.9872    
      1000   1000           591.0479      -43.882685      34938.928      34987.519      11132.824      23854.695      5100.29        7549.5237     -5137.792       411.43989     -2505.4582      62368.21      -43931.518     -487.99651      75926.353      42.344549      42.344549      42.344549      1.1036903      802.23134      320.182       -1254.0614    
      2000   2000           591.56357     -212.48625      34926.105      35157.771      11142.537      24015.234      5229.9181      7577.5607     -5052.3399      388.69892     -2569.7918      62353.818     -43912.629     -495.6251       74757.707      42.126171      42.126171      42.126171      1.1209437     -114.52733     -441.6092      -81.322239    
      3000   3000           601.43502     -653.18216      34591.183      35317.289      11328.473      23988.816      5109.9402      7557.335      -5085.7549      416.23148     -2430.9189      62337.96      -43915.977     -486.09334      76223.624      42.39974       42.39974       42.39974       1.0993859     -1096.77       -1187.5933      324.81682    
      4000   4000           589.87307     -156.49917      35040.715      35211.183      11110.695      24100.488      5155.2797      7721.4051     -5069.6195      434.37459     -2550.0832      62334.265     -43925.133     -496.08206      74688.845      42.113233      42.113233      42.113233      1.1219772      547.96384     -218.40889     -799.05247    
      5000   5000           593.85113     -922.46523      34160.754      35181.417      11185.625      23995.792      5345.6568      7598.1649     -5206.3155      397.32241     -2480.3106      62269.757     -43928.483     -488.37428      75867.624      42.333628      42.333628      42.333628      1.1045447      392.70632     -3795.132       635.02999    
      6000   6000           585.15721      772.57957      36008.673      35155.707      11021.868      24133.839      5241.2907      7692.09       -5170.6136      438.26036     -2549.0709      62394.65      -43912.768     -489.43664      75702.947      42.302977      42.302977      42.302977      1.1069474     -751.81738      2186.8121      882.74401    
      7000   7000           594.30914     -831.54035      34195.701      35108.262      11194.252      23914.01       5228.9672      7523.111      -5208.8237      406.2763      -2431.8599      62317.46      -43921.121     -492.38716      75249.313      42.21831       42.21831       42.21831       1.1136205     -2251.6179     -321.84207      78.838909    
      8000   8000           602.80381      563.58505      36026.647      35409.607      11354.255      24055.352      5275.5114      7503.4845     -5160.3374      441.9123      -2416.2226      62341.782     -43930.778     -493.54998      75072.024      42.185128      42.185128      42.185128      1.1162505      55.832881      1495.0709      139.85132    
      9000   9000           593.62789      2.9428291      35187.476      35184.223      11181.42       24002.803      5018.7723      7660.979      -5088.1417      418.14552     -2455.6012      62369.875     -43921.226     -488.76082      75807.623      42.322465      42.322465      42.322465      1.1054189      223.46907      333.1142      -547.75478    
     10000   10000          604.86662      180.23453      35802.068      35605.709      11393.11       24212.6        5423.6355      7654.0389     -5042.196       411.63189     -2610.1299      62314.224     -43938.605     -495.99082      74702.584      42.115815      42.115815      42.115815      1.1217708     -2187.7643     -167.56875      2896.0367    
     11000   11000          586.22781      95.380457      35028.048      34923.164      11042.034      23881.13       4960.5551      7583.1315     -4983.7657      381.42975     -2511.0548      62368.287     -43917.452     -491.39926      75400.593      42.246583      42.246583      42.246583      1.1113862      1063.9368     -1138.0133      360.21789    
     12000   12000          590.1634       386.13599      35603.496      35180.257      11116.164      24064.094      5174.6383      7660.6839     -5075.3791      425.78582     -2529.985       62339.521     -43931.171     -492.99153      75157.064      42.201051      42.201051      42.201051      1.1149874      880.51468     -154.3982       432.29148    
     13000   13000          596.73257      633.44017      36030.7        35336.371      11239.899      24096.472      5255.8169      7639.1594     -5157.9113      428.55024     -2574.052       62416.388     -43911.48      -492.97564      75159.485      42.201504      42.201504      42.201504      1.1149515      702.27347     -468.02051      1666.0675    
     14000   14000          588.21777      1201.6196      36252.812      34927.191      11079.516      23847.674      5195.997       7542.7308     -5206.4251      389.22008     -2480.6568      62341.562     -43934.754     -489.81572      75644.358      42.292061      42.292061      42.292061      1.1078048      2305.4027      2113.2383     -813.78223    
     15000   15000          596.6116       681.85311      35961.261      35221.391      11237.62       23983.771      5348.4134      7402.578      -5197.5631      424.95751     -2406.4837      62332.113     -43920.244     -497.9901       74402.675      42.059378      42.059378      42.059378      1.1262926      237.28543      730.03701      1078.2369    
     16000   16000          596.46859      1021.1654      36296.34       35179.317      11234.926      23944.39       5259.891       7592.7774     -5175.1315      391.27892     -2563.2274      62355.936     -43917.134     -493.9911       75004.986      42.172568      42.172568      42.172568      1.1172481      3428.8142     -283.10086     -82.216991    
     17000   17000          593.27486     -113.56127      34910.933      35034.023      11174.77       23859.253      5170.0809      7585.5795     -5118.9799      420.87722     -2623.148       62350.096     -43925.253     -498.53133      74321.901      42.044152      42.044152      42.044152      1.1275167      1353.5409     -1990.4989      296.27422    
     18000   18000          601.23649      1013.5613      36694.658      35582.908      11324.733      24258.174      5283.9531      7809.2117     -5217.9641      458.62982     -2493.2994      62349.048     -43931.405     -492.63783      75211.025      42.211149      42.211149      42.211149      1.1141875     -871.59798      3796.3971      115.88469    
     19000   19000          596.52668      1687.033       36873.818      35024.772      11236.021      23788.752      5192.6103      7580.2292     -5226.5133      387.59655     -2528.4922      62297.898     -43914.577     -493.01603      75153.329      42.200352      42.200352      42.200352      1.1150428      1759.6029     -114.4453       3415.9415    
     20000   20000          592.73172     -415.68047      34752.901      35204.873      11164.54       24040.333      5272.5363      7729.7963     -5117.8758      389.92084     -2635.2458      62328.82      -43927.618     -496.97386      74554.818      42.088027      42.088027      42.088027      1.1239942     -327.07331     -463.91182     -456.05628    
     21000   21000          587.98934     -360.13801      34766.048      35160.05       11075.214      24084.837      5055.8488      7719.5551     -5044.2162      396.1853      -2567.9255      62439.817     -43914.428     -493.91834      75016.036      42.174639      42.174639      42.174639      1.1170836      358.15011     -1760.0563      321.49211    
     22000   22000          599.45088     -579.20774      34508.553      35136.245      11291.1        23845.145      5075.2797      7617.3131     -5052.8759      380.94477     -2518.3599      62283.176     -43940.333     -498.62398      74308.091      42.041548      42.041548      42.041548      1.1277262      657.01708     -1567.8306     -826.80973    
     23000   23000          587.99062     -667.74684      34148.168      34877.744      11075.238      23802.507      5102.4211      7592.1417     -5132.3046      413.48919     -2627.7179      62379.981     -43925.504     -494.56839      74917.436      42.156153      42.156153      42.156153      1.1185538     -948.41737     -2175.7579      1120.9348    
     24000   24000          602.74294     -339.22652      35096.2        35469.553      11353.108      24116.445      5172.6007      7615.969      -5064.0162      417.41959     -2449.9885      62365.263     -43940.802     -490.96981      75466.546      42.258897      42.258897      42.258897      1.110415      -1414.3272      1210.4173     -813.76964    
     25000   25000          588.48128      766.46926      35745.978      34901.81       11084.48       23817.331      5120.9337      7452.5933     -5137.5751      414.97795     -2472.4986      62363.884     -43924.985     -490.62675      75519.315      42.268744      42.268744      42.268744      1.1096391      212.19985     -75.806595      2163.0145    
     26000   26000          593.59631      180.44809      35410.391      35211.404      11180.825      24030.579      5109.9985      7614.2106     -5081.4994      412.45893     -2471.5896      62364.266     -43917.266     -490.02059      75612.733      42.286166      42.286166      42.286166      1.1082681      1652.1466     -326.10531     -784.69704    
     27000   27000          599.79419     -836.10725      34097.69       35010.952      11297.567      23713.386      5167.8972      7352.7225     -5098.097       384.09308     -2534.9358      62377.001     -43935.295     -494.711        74895.839      42.152101      42.152101      42.152101      1.1188763      872.05267     -2934.3501     -446.0243     
     28000   28000          589.98556     -792.46879      34406.431      35275.496      11112.814      24162.682      5225.6103      7694.4449     -5214.3801      419.19052     -2390.9821      62359.241     -43930.442     -492.73692      75195.9        42.208319      42.208319      42.208319      1.1144116     -1375.595      -68.324941     -933.48646    
     29000   29000          591.51        -1518.3208      33393.709      35059.263      11141.528      23917.735      5160.0394      7565.6601     -5211.7954      470.71622     -2507.2375      62377.26      -43936.908     -492.59517      75217.537      42.212367      42.212367      42.212367      1.114091      -1048.9614     -2853.0034     -652.99769    
     30000   30000          596.54771     -602.9656       34604.615      35266.086      11236.417      24029.67       5271.5093      7673.1395     -5210.6585      390.74895     -2507.5466      62339.619     -43927.142     -492.56824      75221.65       42.213136      42.213136      42.213136      1.1140301     -96.924755      988.38943     -2700.3615    
     31000   31000          589.05485     -514.52585      34594.638      35158.185      11095.283      24062.902      5047.0246      7748.5314     -5085.7845      404.73075     -2550.3665      62428.156     -43929.39      -493.35835      75101.183      42.190589      42.190589      42.190589      1.1158171     -1142.0488     -718.58506      317.0563     
     32000   32000          587.43703     -722.26179      34301.291      35098.977      11064.81       24034.167      5199.2605      7610.6554     -5156.205       408.71796     -2443.2387      62356.848     -43941.872     -489.26894      75728.893      42.307809      42.307809      42.307809      1.1065681     -459.74255     -3059.2142      1352.1714    
     33000   33000          582.61506     -366.25646      34368.037      34762.396      10973.985      23788.411      4962.5749      7573.9993     -5040.3624      450.99158     -2615.7231      62387.82      -43930.889     -501.85529      73829.64       41.951122      41.951122      41.951122      1.1350344      131.72798     -561.83904     -668.65834    
     34000   34000          593.06976      949.89581      36189.971      35149.556      11170.907      23978.649      5314.4912      7384.0155     -5117.4366      414.09424     -2441.9722      62357.879     -43932.422     -493.34934      75102.555      42.190846      42.190846      42.190846      1.1157967      1941.1297     -697.42288      1605.9806    
     35000   35000          584.13925     -14.435728      34605.352      34621.001      11002.694      23618.307      5092.845       7476.0752     -5135.9807      440.78642     -2633.0105      62314.018     -43936.427     -498.46785      74331.366      42.045937      42.045937      42.045937      1.1273731     -411.30512      1545.3201     -1177.3222    
     36000   36000          594.19854      170.46057      35056.866      34869.752      11192.168      23677.584      5122.2438      7411.093      -5197.6839      396.10706     -2472.2088      62347.99      -43929.957     -492.26977      75267.259      42.221666      42.221666      42.221666      1.113355       1859.1701     -89.65129      -1258.1371    
     37000   37000          594.1515      -971.9021       33974.238      35035.179      11191.282      23843.896      5240.9014      7478.9647     -5208.0631      431.1773      -2482.32        62300.89      -43917.654     -495.01302      74850.144      42.143527      42.143527      42.143527      1.1195594     -488.21951     -2349.2987     -78.188043    
     38000   38000          595.50791     -127.08152      34708.703      34846.655      11216.831      23629.823      5135.2552      7413.803      -5151.1638      432.31372     -2604.6121      62322.559     -43918.332     -497.78444      74433.415      42.06517       42.06517       42.06517       1.1258274      2374.421      -2234.2797     -521.38585    
     39000   39000          591.5615      -38.570454      35051.417      35094.28       11142.498      23951.782      5251.3434      7611.3042     -5208.9697      381.16392     -2489.9284      62335.34      -43928.472     -486.252        76198.752      42.395128      42.395128      42.395128      1.0997448     -1831.1616      743.81309      971.63719    
     40000   40000          591.44307      980.53371      36160.623      35085.868      11140.267      23945.601      5140.6111      7765.4782     -5293.1568      416.05694     -2520.4676      62338.807     -43901.727     -492.99026      75157.257      42.201087      42.201087      42.201087      1.1149846     -350.30442      2564.4242      727.48133    
     41000   41000          589.98586      1455.9581      36326.083      34728.969      11112.82       23616.149      5037.5872      7547.7862     -5183.2205      338.63937     -2512.2028      62307.926     -43920.366     -492.60417      75216.163      42.21211       42.21211       42.21211       1.1141113      1605.9467      1242.8079      1519.1198    
     42000   42000          597.71724     -277.33114      35029.142      35334.515      11258.446      24076.069      5209.5135      7600.3498     -5117.9262      465.40181     -2502.6898      62338.694     -43917.274     -490.74178      75501.612      42.265441      42.265441      42.265441      1.1098992      33.479304     -2167.5858      1302.1131    
     43000   43000          589.66684      195.41171      35148.953      34935.288      11106.811      23828.477      5003.6352      7567.7947     -5202.3956      467.64005     -2426.7885      62332.687     -43914.095     -494.1991       74973.418      42.16665       42.16665       42.16665       1.1177186      410.03851      160.48028      15.716327    
     44000   44000          592.91384      890.27629      35980.21       34991.077      11167.97       23823.107      5095.7639      7570.6044     -5171.5017      430.52795     -2533.4552      62352.512     -43921.344     -486.35702      76182.299      42.392077      42.392077      42.392077      1.0999823      3224.5033     -6.7068683     -546.96756    
     45000   45000          593.71761      2724.9537      38343.638      35341.204      11183.11       24158.094      5156.8738      7674.6624     -5168.9806      406.15515     -2342.7475      62353.265     -43921.135     -490.42286      75550.711      42.274601      42.274601      42.274601      1.1091779      2391.7794      2066.6621      3716.4196    
     46000   46000          580.91961     -741.10041      34051.013      34864.661      10942.05       23922.611      5086.1021      7447.358      -5033.6154      422.67059     -2504.1         62425.928     -43921.733     -492.18209      75280.667      42.224173      42.224173      42.224173      1.1131567     -1690.4089     -967.33295      434.44061    
     47000   47000          587.89346     -233.97034      34820.892      35078.615      11073.408      24005.208      5185.4063      7571.1993     -5129.8452      413.09619     -2474.2582      62372.302     -43932.693     -490.56058      75529.501      42.270645      42.270645      42.270645      1.1094894      785.07671      525.14752     -2012.1353    
     48000   48000          587.40473     -1563.9932      33293.237      35037.021      11064.202      23972.819      5272.5256      7547.2027     -5204.2949      386.49819     -2450.1707      62343.492     -43922.434     -484.64897      76450.788      42.441819      42.441819      42.441819      1.0961193     -486.29525     -2579.0472     -1626.6371    
     49000   49000          579.87967     -852.17591      33838.879      34776.133      10922.462      23853.671      5184.024       7564.9713     -5246.8229      428.03442     -2520.5989      62362.629     -43918.566     -491.31142      75414.074      42.249101      42.249101      42.249101      1.1111876     -270.7276      -1416.5374     -869.26278    
     50000   50000          598.53605      59.772096      35225.607      35160.123      11273.869      23886.254      5206.7522      7506.3951     -5115.2945      402.81532     -2508.4677      62309.306     -43915.252     -493.22854      75120.948      42.19429       42.19429       42.19429       1.1155235      1073.3773     -1334.6635      440.60244    
     51000   51000          600.23062     -781.55451      34345.261      35200.782      11305.787      23894.994      5280.8065      7517.346      -5240.3356      426.40069     -2476.1296      62300.374     -43913.468     -493.6442       75057.695      42.182444      42.182444      42.182444      1.1164635     -1246.1829     -1778.6856      680.20501    
     52000   52000          592.03617     -723.04505      34246.487      35039.783      11151.439      23888.344      5141.2355      7651.3843     -5156.1547      400.46418     -2534.8127      62310.689     -43924.462     -492.51022      75230.511      42.214794      42.214794      42.214794      1.1138989      328.08744     -1049.903      -1447.3196    
     53000   53000          588.2263      -279.11905      34839.029      35150.047      11079.677      24070.37       5317.3216      7543.3471     -5180.0935      387.42891     -2408.9232      62325.756     -43914.467     -484.94056      76404.819      42.433311      42.433311      42.433311      1.0967787     -714.35469     -154.73685      31.734379    
     54000   54000          589.59629      126.59304      35379.082      35239.294      11105.482      24133.812      5226.641       7626.6724     -5132.988       421.97967     -2415.701       62329.115     -43921.907     -489.35491      75715.59       42.305332      42.305332      42.305332      1.1067626      1858.8198     -886.92974     -592.11095    
     55000   55000          586.87391     -110.92106      34883.898      35005.688      11054.204      23951.484      5201.5085      7649.7817     -5203.8989      426.20255     -2501.7789      62307.15      -43927.481     -492.1399       75287.121      42.22538       42.22538       42.22538       1.1130613     -1121.4693      1005.0635     -216.35748    
     56000   56000          583.32901     -1494.8341      33211.166      34850.131      10987.433      23862.698      5109.3913      7566.3777     -5181.408       393.87071     -2493.7796      62386.101     -43917.856     -492.84286      75179.735      42.205294      42.205294      42.205294      1.1146512     -447.20793     -3342.9367     -694.35759    
     57000   57000          590.23506     -1516.6092      33469.669      35130.308      11117.513      24012.795      5251.0158      7658.7485     -5201.8778      416.08214     -2571.5293      62371.115     -43910.76      -493.49576      75080.272      42.186673      42.186673      42.186673      1.1161278     -448.88664     -2106.2516     -1994.6894    
     58000   58000          583.76004      2205.6392      37196.063      34809.048      10995.552      23813.496      4999.0152      7578.9669     -5157.1547      406.33306     -2525.0613      62434.312     -43922.915     -499.30333      74206.988      42.022472      42.022472      42.022472      1.1292627      2524.8141      2979.2413      1112.8622    
     59000   59000          590.76297      331.95037      35310.677      34945.673      11127.457      23818.216      5135.1779      7518.474      -5186.673       421.08367     -2531.0155      62374.741     -43913.572     -491.42928      75395.987      42.245723      42.245723      42.245723      1.1114541      654.36577      1049.8399     -708.35454    
     60000   60000          580.09891      1831.3986      36884.7        34874.124      10926.591      23947.532      5071.4551      7542.7359     -5127.3814      415.2117      -2421.7316      62379.18      -43911.937     -492.2067       75276.903      42.223469      42.223469      42.223469      1.1132124      2338.0955      987.20329      2168.8969    
     61000   61000          584.77285      250.23041      34857.624      34584.199      11014.629      23569.571      4929.889       7401.7263     -5149.2918      402.36535     -2535.1716      62430.408     -43910.355     -494.52413      74924.141      42.15741       42.15741       42.15741       1.1184537      622.5323       1839.9947     -1711.8358    
     62000   62000          588.83326     -1694.4658      33356.324      35226          11091.109      24134.89       5354.5019      7740.591      -5273.4166      407.19002     -2522.9006      62342.05      -43913.125     -489.7242       75658.494      42.294695      42.294695      42.294695      1.1075978      135.94212     -1427.3021     -3792.0373    
     63000   63000          584.5358       1698.524       36718.029      34876.635      11010.164      23866.472      5131.92        7565.8255     -5177.0684      388.84127     -2526.9735      62402.413     -43918.486     -498.43684      74335.989      42.046809      42.046809      42.046809      1.127303       1967.4191      831.29664      2296.8564    
     64000   64000          593.2817      -400.00669      34708.192      35146.004      11174.899      23971.105      5133.9718      7694.035      -5187.2958      400.72802     -2511.9127      62362.72      -43921.141     -493.70171      75048.952      42.180806      42.180806      42.180806      1.1165936      311.44759     -465.38521     -1046.0824    
     65000   65000          589.96414     -1003.6368      33816.688      34911.633      11112.41       23799.222      5090.6972      7571.7805     -5168.5757      409.87015     -2500.002       62317.329     -43921.877     -495.30152      74806.546      42.135343      42.135343      42.135343      1.1202119      389.2886      -2946.4418     -453.75732    
     66000   66000          582.2794      -214.05767      34629.336      34863.666      10967.663      23896.004      5106.8922      7619.1827     -5263.6809      447.15168     -2444.8639      62350.62      -43919.298     -493.61432      75062.238      42.183295      42.183295      42.183295      1.116396      -2248.6484      186.9254       1419.55      
     67000   67000          594.63634      1552.8528      36655.783      34969.546      11200.415      23769.132      5143.5053      7483.4416     -5196.2127      398.57421     -2509.3781      62370.237     -43921.036     -497.61904      74458.155      42.06983       42.06983       42.06983       1.1254534      1976.8239      942.5934       1739.1411    
     68000   68000          586.06399     -794.20874      33990.57       34865.979      11038.948      23827.031      5114.4975      7523.3445     -5152.0371      369.44034     -2530.7636      62427.36      -43924.811     -490.24013      75578.871      42.279853      42.279853      42.279853      1.1087647     -347.39583     -1547.178      -488.05237    
     69000   69000          587.91145     -610.83267      34464.69       35134.147      11073.746      24060.401      5345.6534      7667.0139     -5231.4635      430.12492     -2522.1626      62289.012     -43917.778     -493.04259      75149.28       42.199594      42.199594      42.199594      1.1151029     -1817.4243     -553.11613      538.04243    
     70000   70000          582.84979      994.47048      36161.934      35073.484      10978.406      24095.078      5252.3826      7522.7229     -5148.2725      424.12332     -2453.6483      62419.57      -43921.8       -493.70592      75048.311      42.180686      42.180686      42.180686      1.1166032      2293.4286     -596.85285      1286.8357    
     71000   71000          582.65651     -112.76785      34708.393      34831.559      10974.766      23856.793      5309.3268      7545.6484     -5208.2841      396.73889     -2559.6416      62289.707     -43916.703     -494.74685      74890.413      42.151083      42.151083      42.151083      1.1189574      2099.5483     -3093.9502      656.09836    
     72000   72000          573.12425      150.30226      34842.591      34679.373      10795.219      23884.154      5175.4525      7584.1488     -5144.2998      439.36944     -2537.6817      62306.385     -43939.22      -497.6018       74460.735      42.070316      42.070316      42.070316      1.1254144     -97.227891     -201.99968      750.13436    
     73000   73000          580.49747      585.16341      35702.344      35058.053      10934.099      24123.955      5306.5467      7663.4471     -5209.289       415.89101     -2479.2639      62355.9       -43929.277     -490.77273      75496.851      42.264553      42.264553      42.264553      1.1099692      1161.9474      2303.5447     -1710.0019    
     74000   74000          592.88776      882.31675      35804.499      34839.33       11167.479      23671.851      5123.3014      7505.668      -5209.0173      374.0308      -2585.9767      62384.605     -43920.759     -493.97658      75007.191      42.172981      42.172981      42.172981      1.1172153      1526.7306      1039.9414      80.27825     
     75000   75000          590.52409     -2779.6676      32029.321      35075.053      11122.957      23952.096      5153.4057      7811.6058     -5262.8794      417.77157     -2553.7104      62313.066     -43927.163     -493.15826      75131.654      42.196295      42.196295      42.196295      1.1153645     -4233.7067     -1433.5092     -2671.7868    
     76000   76000          592.3153       1348.7587      36550.957      35060.208      11156.696      23903.511      5155.788       7553.2709     -5214.4279      422.58471     -2447.1705      62361.58      -43928.114     -488.89415      75786.948      42.318618      42.318618      42.318618      1.1057205     -216.0166       1776.0275      2486.2653    
     77000   77000          580.11758      1026.2766      35794.148      34666.742      10926.943      23739.799      5069.8467      7576.4115     -5264.1399      428.03394     -2500.6822      62344.966     -43914.637     -491.89124      75325.179      42.232494      42.232494      42.232494      1.1124989      3081.215      -1403.6967      1401.3114    
     78000   78000          588.53598      1117.8252      36040.93       34821.278      11085.51       23735.768      5023.5353      7539.5525     -5176.3909      407.85126     -2518.2585      62376.482     -43917.003     -495.24862      74814.537      42.136843      42.136843      42.136843      1.1200922      1637.7556      1066.48        649.23986    
     79000   79000          591.95916     -2440.5949      32636.129      35311.471      11149.988      24161.482      5289.2326      7580.772      -5066.8908      422.24276     -2551.9966      62405.516     -43917.394     -492.94864      75163.603      42.202275      42.202275      42.202275      1.1148904     -3086.1085     -1387.18       -2848.4962    
     80000   80000          581.60892      838.61785      35805.363      34889.195      10955.034      23934.162      5057.459       7705.7083     -5142.2362      424.13145     -2568.5043      62372.818     -43915.215     -494.62323      74909.13       42.154595      42.154595      42.154595      1.1186778     -532.43464      1789.1604      1259.1278    
     81000   81000          602.11666     -21.758406      35073.316      35097.342      11341.312      23756.03       4969.446       7648.3951     -5194.7453      369.46555     -2461.9675      62348.024     -43922.588     -489.35327      75715.844      42.305379      42.305379      42.305379      1.1067589      2030.9023     -1896.9801     -199.19742    
     82000   82000          579.80485      119.08617      34844.651      34715.359      10921.053      23794.306      5177.7801      7698.2159     -5196.5184      408.90594     -2660.7889      62302.586     -43935.875     -497.70697      74445.001      42.067352      42.067352      42.067352      1.1256522      92.423839      638.94003     -374.10537    
     83000   83000          591.34646     -831.68513      33903.659      34808.183      11138.447      23669.735      5068.6734      7579.2052     -5175.3732      413.32908     -2641.0333      62345.634     -43920.7       -496.84898      74573.557      42.091553      42.091553      42.091553      1.1237117     -674.07029     -1382.0606     -438.9245     
     84000   84000          582.76009      2343.2103      37300.477      34742.647      10976.717      23765.931      5053.9016      7474.4205     -5192.8223      418.3171      -2421.3711      62360.432     -43926.947     -495.02243      74848.721      42.14326       42.14326       42.14326       1.1195807      2287.78        2135.7456      2606.1052    
     85000   85000          596.85742     -617.97635      34331.597      35010.246      11242.25       23767.996      5019.5531      7697.4501     -5190.1252      395.56917     -2539.0716      62326.533     -43941.913     -492.05284      75300.441      42.22787       42.22787       42.22787       1.1128644     -962.37378     -48.543754     -843.01153    
     86000   86000          571.99872      966.82454      35790.058      34740.911      10774.018      23966.892      5244.9498      7573.8918     -5155.636       399.60046     -2502.0888      62334.822     -43928.647     -497.96241      74406.813      42.060158      42.060158      42.060158      1.1262299      3335.7731     -1044.9199      609.62043    
     87000   87000          583.98964     -913.10577      33964.273      34966.763      10999.876      23966.887      5436.5821      7647.4712     -5292.0855      393.30602     -2522.1818      62233.137     -43929.342     -492.18245      75280.611      42.224163      42.224163      42.224163      1.1131576      1955.8286     -2331.1785     -2363.9674    
     88000   88000          588.58352      1242.4561      36120.951      34749.832      11086.405      23663.426      5137.7573      7449.0848     -5199.2496      415.50697     -2493.6541      62286.703     -43932.722     -489.65603      75669.029      42.296658      42.296658      42.296658      1.1074436      755.9855       1886.3559      1085.027     
     89000   89000          593.25452      1246.277       36242.776      34873.512      11174.387      23699.125      5020.2606      7561.6242     -5150.2052      397.75465     -2518.0834      62324.048     -43936.274     -491.82699      75335.02       42.234333      42.234333      42.234333      1.1123536      1566.6336      660.8134       1511.384     
     90000   90000          589.82174     -317.41618      34619.3        34963.807      11109.728      23854.079      5211.0301      7667.9058     -5172.3985      379.7361      -2602.0469      62297.229     -43927.376     -497.8703       74420.578      42.062752      42.062752      42.062752      1.1260216      808.97891     -183.1555      -1578.072     
     91000   91000          591.08355      111.31106      35011.736      34890.013      11133.495      23756.518      5228.8646      7568.2384     -5265.1485      422.72005     -2515.1049      62244.243     -43927.295     -494.13889      74982.554      42.168363      42.168363      42.168363      1.1175824      27.794867      32.891481      273.24685    
     92000   92000          583.42642     -37.009416      34710.978      34751.555      10989.268      23762.288      5133.7693      7562.4767     -5198.3035      404.49154     -2494.047       62273.075     -43919.174     -492.85452      75177.956      42.204961      42.204961      42.204961      1.1146776      124.64684      487.10917     -722.78426    
     93000   93000          592.38948     -747.15817      34209.696      35031.975      11158.093      23873.882      5197.3465      7507.9266     -5107.3978      407.66467     -2453.3332      62268.862     -43947.187     -490.99637      75462.464      42.258135      42.258135      42.258135      1.110475       392.15905     -486.66695     -2146.9666    
     94000   94000          579.30392     -192.64645      34534.597      34745.507      10911.617      23833.89       5205.5187      7524.6155     -5185.878       428.02027     -2508.5056      62317.434     -43947.315     -493.57122      75068.793      42.184523      42.184523      42.184523      1.1162985      1002.1126      970.56631     -2550.6182    
     95000   95000          587.43707      374.44219      35315.49       34902.939      11064.811      23838.128      5154.5817      7488.0277     -5155.9496      441.05015     -2479.257       62326.807     -43937.132     -490.44793      75546.849      42.273881      42.273881      42.273881      1.1092346     -193.90953      782.07755      535.15853    
     96000   96000          596.28962     -331.91039      34674.766      35038.578      11231.556      23807.023      5089.9052      7540.4673     -5104.8589      432.30529     -2565.5166      62349.08      -43934.359     -492.97895      75158.981      42.20141       42.20141       42.20141       1.114959      -726.20091      140.31281     -409.84306    
     97000   97000          584.06608      68.857998      34727.053      34651.431      11001.316      23650.115      5170.1253      7353.0885     -5200.5971      354.20705     -2445.6002      62337.121     -43918.23      -492.0268       75304.426      42.228615      42.228615      42.228615      1.1128055     -456.47559      586.31707      76.732512    
     98000   98000          585.80413     -767.32158      34106.872      34947.144      11034.053      23913.09       5194.434       7487.175      -5101.1256      401.09331     -2454.0809      62307.481     -43921.887     -493.44957      75087.3        42.18799       42.18799       42.18799       1.1160234     -685.05932      653.14259     -2270.048     
     99000   99000          591.41814     -21.180593      34913.019      34936.226      11139.798      23796.428      5054.313       7500.1604     -5102.4899      397.59835     -2499.9935      62379.193     -43932.354     -493.19354      75126.279      42.195288      42.195288      42.195288      1.1154443     -103.43445      833.15342     -793.26075    
    100000   100000         585.18296      1378.1513      36313.542      34791.741      11022.353      23769.387      5063.2553      7508.9862     -5211.9384      421.00113     -2444.8312      62357.346     -43924.431     -489.3551       75715.561      42.305326      42.305326      42.305326      1.106763       3292.12        2233.9579     -1391.6239    
    101000   101000         584.36887      371.02983      35479.018      35073.888      11007.019      24066.868      5263.3904      7723.4565     -5175.6376      455.7907      -2561.6966      62294.77      -43933.205     -494.87894      74870.423      42.147333      42.147333      42.147333      1.1192561      766.32273      281.71671      65.050035    
    102000   102000         585.21685     -877.29954      33789.786      34753.034      11022.992      23730.042      5139.7398      7541.8617     -5211.635       387.44312     -2525.0571      62311.599     -43913.909     -492.14722      75286          42.22517       42.22517       42.22517       1.1130779     -795.5437      -1615.289      -221.0659     
    103000   103000         587.97605     -456.18184      34511.729      35013.823      11074.963      23938.859      5017.8867      7677.9848     -5127.7136      409.6762      -2518.1028      62402.723     -43923.596     -490.95115      75469.414      42.259432      42.259432      42.259432      1.1103727      951.98848     -709.55003     -1610.984     
    104000   104000         585.2822      -858.82384      33788.462      34728.31       11024.223      23704.087      5146.4425      7528.6508     -5192.6379      394.97434     -2542.5885      62304.638     -43935.392     -493.77823      75037.321      42.178627      42.178627      42.178627      1.1167667     -1562.9486     -1032.1147      18.591781    
    105000   105000         585.38714     -1198.0269      33541.206      34853.936      11026.199      23827.737      5096.2629      7568.0685     -5185.4809      487.09916     -2573.9484      62364.683     -43928.947     -493.14689      75133.386      42.196619      42.196619      42.196619      1.1153388     -2734.1227     -1096.9359      236.97809    
    106000   106000         580.9568      -459.83982      34336.415      34844.836      10942.751      23902.085      5143.4031      7561.5466     -5284.0548      424.91168     -2414.8555      62374.359     -43903.225     -488.7294       75812.496      42.323372      42.323372      42.323372      1.1053479     -933.00915      554.80861     -1001.3189    
    107000   107000         578.19232      330.60096      35004.588      34642.338      10890.679      23751.659      5058.3153      7481.9427     -5098.4596      360.51354     -2434.5205      62313.836     -43929.968     -493.15272      75132.499      42.196453      42.196453      42.196453      1.115352      -1464.011       972.51907      1483.2948    
    108000   108000         577.31394     -444.20342      34174.093      34662.876      10874.135      23788.741      5129.7572      7538.5479     -5170.0609      401.6341      -2513.9726      62314.726     -43911.89      -491.07824      75449.883      42.255787      42.255787      42.255787      1.1106602     -3027.2807      1198.6602      496.01018    
    109000   109000         582.76329      45.514907      34767.535      34717.74       10976.777      23740.963      5207.2849      7563.324      -5151.9299      402.00855     -2658.9492      62311.328     -43932.103     -493.92049      75015.709      42.174577      42.174577      42.174577      1.1170884      242.25698     -544.82393      439.11167    
    110000   110000         582.1576      -1450.4038      33177.879      34772.041      10965.368      23806.673      4985.9342      7608.1691     -5143.3891      440.00208     -2534.7257      62368.289     -43917.607     -491.63375      75364.631      42.239865      42.239865      42.239865      1.1119166     -1018.3733     -1678.5302     -1654.3078    
    111000   111000         579.63217      543.25341      35289.158      34695.591      10917.8        23777.791      5114.874       7520.5622     -5202.5636      433.21602     -2503.5961      62328.708     -43913.41      -494.55808      74918.998      42.156446      42.156446      42.156446      1.1185305      709.50307      366.47723      553.77992    
    112000   112000         591.0988       431.02481      35438.706      34968.063      11133.783      23834.28       5239.9827      7573.834      -5273.8451      404.03649     -2480.2121      62310.424     -43939.94      -494.87547      74870.948      42.147431      42.147431      42.147431      1.1192483      1999.8606     -201.69859     -505.08755    
    113000   113000         582.31012      615.00859      35347.434      34678.387      10968.241      23710.145      5120.6099      7520.7484     -5184.3527      398.06854     -2592.3601      62367.421     -43919.99      -496.71761      74593.28       42.095264      42.095264      42.095264      1.1234146     -2127.7342      1551.9793      2420.7806    
    114000   114000         592.82238     -1031.5994      33914.573      35048.951      11166.248      23882.703      5234.1723      7652.1604     -5182.2994      355.92227     -2525.1146      62269.401     -43921.539     -491.40355      75399.935      42.24646       42.24646       42.24646       1.1113959     -348.58384     -2065.4033     -680.81108    
    115000   115000         592.14396     -1898.8178      32883.899      34959.238      11153.469      23805.769      5154.0859      7470.8176     -5139.3851      404.56069     -2513.4108      62338.276     -43909.175     -494.4013       74942.755      42.160901      42.160901      42.160901      1.1181759     -3595.032      -1883.6145     -217.80706    
    116000   116000         579.42692     -664.47926      33875.833      34607.161      10913.934      23693.227      5173.5438      7566.2157     -5221.6346      398.45168     -2621.3263      62327.196     -43929.219     -490.96966      75466.569      42.258901      42.258901      42.258901      1.1104146     -1060.0456     -1874.6801      941.28794    
    117000   117000         579.96724     -1810.6794      32466.048      34457.075      10924.111      23532.964      4988.6974      7571.2711     -5185.9949      389.71058     -2572.2573      62269.953     -43928.416     -491.41609      75398.012      42.246101      42.246101      42.246101      1.1114243     -955.92528     -2842.0194     -1634.0935    
    118000   118000         591.03976     -813.16296      33955.155      34841.785      11132.67       23709.115      5063.2401      7509.5893     -5165.011       414.9205      -2561.0683      62369.22      -43921.776     -495.58739      74763.395      42.12724       42.12724       42.12724       1.1208584      726.54832     -891.93975     -2274.0974    
    119000   119000         579.5768      -1389.5976      33066.889      34578.077      10916.757      23661.32       5127.2924      7360.9396     -5163.1081      444.94129     -2535.5864      62347.284     -43920.443     -496.88487      74568.17       42.09054       42.09054       42.09054       1.1237929     -2391.2428     -903.0562      -874.49371    
    120000   120000         589.63831      905.28056      35916.154      34928.712      11106.273      23822.439      5070.825       7622.341      -5299.7829      414.17329     -2424.2441      62351.193     -43912.066     -495.40092      74791.536      42.132525      42.132525      42.132525      1.1204367      1036.0728      1143.6393      536.12964    
    121000   121000         588.36145      510.98409      35266.602      34710.848      11082.223      23628.626      5048.3379      7482.8845     -5133.1325      375.25722     -2605.3131      62383.942     -43923.351     -496.83249      74576.032      42.092019      42.092019      42.092019      1.1236744     -596.87268      1234.2371      895.58782    
    122000   122000         590.79148      10.480865      34934.778      34923.302      11127.994      23795.308      5242.5595      7435.3789     -5195.8578      429.49952     -2463.5793      62279.288     -43931.981     -493.52793      75075.378      42.185757      42.185757      42.185757      1.1162006      422.85995      499.84049     -891.25784    
    123000   123000         576.20077     -1210.9531      33267.162      34576.625      10853.167      23723.458      5110.9182      7612.3672     -5216.2537      432.24861     -2617.1718      62326.869     -43925.52      -499.71159      74146.361      42.011025      42.011025      42.011025      1.130186      -583.85562     -629.54764     -2419.4562    
    124000   124000         579.16125     -94.48827       34659.153      34761.314      10908.93       23852.384      5082.9092      7613.8604     -5138.2384      440.38224     -2555.3498      62327.66      -43918.839     -499.77738      74136.6        42.009182      42.009182      42.009182      1.1303348      2478.3714     -2032.8432     -728.99305    
    125000   125000         580.0694      -2354.7079      31950.553      34526.923      10926.036      23600.888      4976.1944      7524.4705     -5096.7094      435.3821      -2630.9923      62311.64      -43919.098     -493.87144      75023.159      42.175974      42.175974      42.175974      1.1169775     -3701.6568     -1636.024      -1726.443     
    126000   126000         568.95616      785.99965      35104.198      34251.901      10716.709      23535.191      4799.1754      7548.5917     -5145.5618      417.54666     -2571.3311      62408.448     -43921.678     -498.32926      74352.038      42.049835      42.049835      42.049835      1.1270596      1234.896       67.908712      1055.1942    
    127000   127000         583.62735      110.54962      34880.419      34759.155      10993.052      23766.102      5080.1214      7680.402      -5297.213       389.73104     -2505.5059      62345.519     -43926.952     -492.61602      75214.354      42.211771      42.211771      42.211771      1.1141381      919.55822     -202.87594     -385.03341    
    128000   128000         577.94895      2043.714       36766.014      34545.287      10886.095      23659.192      4985.4094      7462.7168     -5168.9483      374.68126     -2462.1526      62386.818     -43919.333     -497.29046      74507.353      42.079094      42.079094      42.079094      1.1247102      1968.1472      2816.197       1346.7977    
    129000   129000         579.84663     -388.85376      33922.533      34346.199      10921.84       23424.36       4935.0508      7513.2033     -5221.8733      344.6066      -2546.8968      62320.612     -43920.343     -495.96102      74707.072      42.116658      42.116658      42.116658      1.1217035      1942.3978     -1025.3157     -2083.6434    
    130000   130000         594.33852      393.32378      35041.959      34618.455      11194.805      23423.65       5066.6828      7428.7981     -5353.15        412.38344     -2559.5013      62347.88      -43919.443     -501.85478      73829.715      41.951137      41.951137      41.951137      1.1350332      1449.2834      19.156708     -288.4688     
    131000   131000         581.81099     -1676.9589      32737.672      34575.58       10958.84       23616.74       5160.0867      7507.8275     -5213.9271      388.77418     -2609.9735      62304.898     -43920.946     -493.04185      75149.392      42.199615      42.199615      42.199615      1.1151012     -1436.0638     -2309.6357     -1285.1771    
    132000   132000         582.66402      1396.6234      36124.287      34612.893      10974.907      23637.986      5114.0724      7486.1612     -5161.1216      373.26899     -2585.7986      62352.849     -43941.446     -499.32921      74203.14       42.021746      42.021746      42.021746      1.1293212      1557.1547      1851.6458      781.06976    
    133000   133000         584.38698     -332.01691      34262.708      34626.001      11007.36       23618.64       5122.4573      7566.8633     -5295.7896      411.47369     -2515.1345      62266.585     -43937.815     -493.84306      75027.471      42.176781      42.176781      42.176781      1.1169133     -2687.9965     -421.32839      2113.2741    
    134000   134000         576.51329     -765.82362      33804.162      34637.345      10859.054      23778.291      5112.4861      7567.5221     -5128.6063      388.89784     -2569.6589      62327.694     -43920.043     -496.67656      74599.445      42.096423      42.096423      42.096423      1.1233218      429.90829     -754.49424     -1972.8849    
    135000   135000         572.94224     -878.33983      33489.254      34446.651      10791.79       23654.861      5131.5824      7482.4889     -5144.8627      408.80439     -2566.8333      62291.767     -43948.086     -495.74167      74740.128      42.122869      42.122869      42.122869      1.1212074     -1130.2723     -1500.3513     -4.395891     
    136000   136000         581.32174      273.16383      34973.323      34678.028      10949.624      23728.404      5156.0623      7682.6087     -5215.7478      381.14713     -2621.7578      62277.106     -43931.015     -499.86521      74123.574      42.006721      42.006721      42.006721      1.1305335      43.409143     -475.43388      1251.5162    
    137000   137000         582.25452      809.2486       35497.647      34621.649      10967.194      23654.455      5061.837       7576.127      -5163.5663      416.43527     -2667.9994      62342.285     -43910.663     -499.18791      74224.144      42.025711      42.025711      42.025711      1.1290016      2473.2236      945.2155      -990.69327    
    138000   138000         580.29931     -254.97734      34354.37       34632.331      10930.366      23701.964      5209.2743      7556.9408     -5221.0938      406.68968     -2594.3525      62285.12      -43940.614     -495.6828       74749.005      42.124537      42.124537      42.124537      1.1210742     -354.81689      865.16405     -1275.2792    
    139000   139000         585.26654      1205.656       36095.238      34787.953      11023.928      23764.026      5162.6243      7653.0724     -5288.765       398.86988     -2622.2528      62391.125     -43930.648     -498.3544       74348.287      42.049128      42.049128      42.049128      1.1271165      1776.4421     -906.65931      2747.185     
    140000   140000         579.97539      534.89938      35055.402      34476.084      10924.265      23551.82       5199.1348      7406.4677     -5289.2002      395.46454     -2539.786       62306.363     -43926.624     -498.93108      74262.353      42.032921      42.032921      42.032921      1.1284208     -43.948194      983.12304      665.5233     
    141000   141000         576.03885      854.27942      35697.132      34770.443      10850.117      23920.326      5196.6835      7718.4808     -5240.8906      375.18791     -2504.2849      62304.474     -43929.325     -498.13944      74380.37       42.055175      42.055175      42.055175      1.1266303      922.69372      597.44282      1042.7017    
    142000   142000         576.31281     -1847.8895      32401.993      34398.492      10855.278      23543.215      5242.3131      7370.3479     -5175.1266      361.20495     -2667.0921      62331.978     -43920.41      -500.14042      74082.787      41.999015      41.999015      41.999015      1.1311559     -2322.323       582.5174      -3803.863     
    143000   143000         581.26313     -141.02716      34184.473      34338.351      10948.52       23389.831      5185.749       7313.4112     -5261.742       390.99713     -2606.1931      62304.106     -43936.497     -495.23313      74816.876      42.137282      42.137282      42.137282      1.1200572      475.75974      455.81638     -1354.6576    
    144000   144000         586.102        802.31127      35671.414      34802.616      11039.664      23762.952      5130.6844      7690.678      -5159.6071      363.01746     -2647.2751      62315.15      -43929.696     -499.00988      74250.626      42.030708      42.030708      42.030708      1.128599       207.16026      405.26945      1794.5041    
    145000   145000         586.01333      28.927949      34643.433      34612.127      11037.994      23574.133      5133.8118      7377.9182     -5107.2618      369.01513     -2609.2423      62349.837     -43939.945     -499.31428      74205.359      42.022165      42.022165      42.022165      1.1292874      896.00663      1516.9579     -2326.1807    
    146000   146000         584.08467      942.30267      35356.88       34344.956      11001.666      23343.29       4876.8628      7394.0294     -5112.1315      427.21288     -2658.6004      62361.967     -43946.05      -503.18507      73634.529      41.914135      41.914135      41.914135      1.1380419      1569.3681      1123.5168      134.02307    
    147000   147000         582.5106      -325.87553      34160.143      34515.274      10972.017      23543.257      5110.4903      7392.1928     -5181.6206      383.68837     -2551.0744      62322.015     -43932.434     -495.84731      74724.204      42.119878      42.119878      42.119878      1.1214463      235.65776     -1245.7695      32.485183    
    148000   148000         570.73632      85.555963      34428.606      34335.827      10750.24       23585.587      4973.5573      7599.3444     -5118.0639      399.87691     -2608.7989      62274.477     -43934.806     -498.29202      74357.594      42.050882      42.050882      42.050882      1.1269754      1947.3041     -271.92125     -1418.715     
    149000   149000         568.60181     -871.50755      33434.662      34375.654      10710.035      23665.619      5046.7856      7617.4143     -5133.6005      384.15835     -2594.0161      62258.371     -43913.494     -500.46106      74035.322      41.990043      41.990043      41.990043      1.1318811     -2651.349       257.51479     -220.68842    
    150000   150000         584.26604     -405.16803      34410.692      34848.981      11005.082      23843.898      5213.0195      7591.8797     -5249.3381      432.17456     -2586.3411      62364.595     -43922.091     -499.52858      74173.526      42.016155      42.016155      42.016155      1.1297721     -596.42277     -9.9009186     -609.18041    
    151000   151000         579.33864     -759.34182      33677.516      34504.074      10912.271      23591.803      5298.8693      7486.7023     -5275.7907      402.49075     -2721.7546      62326.888     -43925.602     -496.41986      74638.021      42.103678      42.103678      42.103678      1.1227412     -112.86369      222.37539     -2387.5372    
    152000   152000         583.65852      259.65827      35065.729      34784.611      10993.639      23790.972      5167.4506      7511.0594     -5134.3204      401.10217     -2534.9603      62309.427     -43928.786     -499.11405      74235.129      42.027784      42.027784      42.027784      1.1288346     -383.01214     -663.29959      1825.2866    
    153000   153000         586.062        1049.7759      35558.621      34430.24       11038.911      23391.329      5084.6519      7428.2575     -5223.9513      421.76747     -2679.6534      62298.864     -43938.607     -502.71966      73702.699      41.927065      41.927065      41.927065      1.1369893     -970.46826      672.58895      3447.207     
    154000   154000         569.99983      1100.3093      35550.373      34365.755      10736.368      23629.388      5143.4112      7655.3225     -5262.9404      390.68818     -2683.1456      62326.856     -43940.804     -501.90526      73822.29       41.94973       41.94973       41.94973       1.1351474      2440.0077      1980.4282     -1119.508     
    155000   155000         577.07462     -902.93388      33505.004      34477.871      10869.627      23608.244      5112.4594      7538.3071     -5152.2148      426.88927     -2651.6147      62258.678     -43924.26      -501.51931      73879.101      41.960488      41.960488      41.960488      1.1342745     -1459.6         236.93359     -1486.1353    
    156000   156000         581.36542      540.80319      35105.121      34520.625      10950.447      23570.178      5082.5151      7576.7803     -5139.3442      349.64326     -2638.0289      62278.399     -43939.786     -499.96945      74108.12       42.003802      42.003802      42.003802      1.1307692      1906.7466      166.77153     -451.10861    
    157000   157000         584.80161      1627.7841      36121.882      34375.016      11015.17       23359.846      5030.5688      7327.7667     -5226.267       407.19843     -2651.5739      62388.838     -43916.685     -503.52662      73584.582      41.904656      41.904656      41.904656      1.1388144      1242.7189      2343.2471      1297.3864    
    158000   158000         588.61268      236.6657       34717.107      34461.238      11086.955      23374.283      4987.1899      7462.1163     -5169.3848      405.84771     -2671.7965      62295.213     -43934.902     -499.80703      74132.203      42.008351      42.008351      42.008351      1.1304019      107.74877     -860.19386      1462.4422    
    159000   159000         582.77804      853.52698      35561.458      34645.012      10977.055      23667.957      5109.5842      7624.4535     -5209.3196      375.61328     -2643.8852      62336.351     -43924.841     -503.2634       73623.069      41.91196       41.91196       41.91196       1.1382191      1729.6341      1061.5223     -230.57547    
    160000   160000         579.91032      185.28088      34581.54       34381.577      10923.039      23458.538      4987.916       7482.6711     -5226.0198      407.3694      -2653.7517      62377.161     -43916.808     -500.68776      74001.801      41.983705      41.983705      41.983705      1.1323938      2639.651      -1427.6742     -656.13421    
    161000   161000         575.59325     -653.8522       34171.41       34873.294      10841.724      24031.57       5259.3307      7748.3014     -5132.8397      387.13214     -2650.9968      62344.394     -43923.752     -503.38441      73605.37       41.908601      41.908601      41.908601      1.1384928     -2180.0269     -1238.3621      1456.8323    
    162000   162000         574.38775     -702.97894      33709.815      34464.26       10819.018      23645.242      5016.1184      7600.016      -5142.2516      389.77648     -2619.4632      62325.855     -43924.809     -503.50068      73588.373      41.905375      41.905375      41.905375      1.1387557     -366.3367      -1433.2387     -309.36147    
    163000   163000         580.43264     -428.21572      33995.488      34454.02       10932.878      23521.142      5042.2312      7442.1194     -5200.0459      446.48476     -2640.0607      62352.08      -43921.666     -504.63559      73422.875      41.873937      41.873937      41.873937      1.1413225     -166.24361     -1801.5735      683.17       
    164000   164000         576.91174     -1563.3739      32795.583      34500.964      10866.559      23634.405      5084.9032      7319.4843     -5065.8058      435.81391     -2610.1287      62394.207     -43924.069     -495.36636      74796.754      42.133505      42.133505      42.133505      1.1203585     -946.17695     -1431.3814     -2312.5634    
    165000   165000         590.48019     -1881.3816      32730.547      34773.483      11122.131      23651.352      5120.7541      7464.2521     -5143.5415      401.46748     -2582.6309      62316.557     -43925.506     -497.63076      74456.402      42.0695        42.0695        42.0695        1.1254799     -1908.0926     -1765.3683     -1970.6839    
    166000   166000         584.04085      320.5306       34785.866      34440.869      11000.841      23440.028      4988.1685      7431.5124     -5178.9318      400.9116      -2632.3431      62356.683     -43925.973     -502.04215      73802.162      41.945917      41.945917      41.945917      1.135457      -320.58822      500.3519       781.82811    
    167000   167000         580.33729     -1630.2235      32506.721      34286.735      10931.082      23355.654      4969.3386      7429.6132     -5185.0293      385.72746     -2629.4429      62301.049     -43915.602     -494.89008      74868.738      42.147016      42.147016      42.147016      1.1192813     -3717.082       5.5895047     -1179.1779    
    168000   168000         581.20248      1513.8584      35889.982      34264.887      10947.378      23317.509      5032.1502      7480.0792     -5223.448       360.22244     -2701.5146      62301.646     -43931.627     -503.37485      73606.768      41.908867      41.908867      41.908867      1.1384711      1177.4774      1302.024       2062.0737    
    169000   169000         579.88576     -492.81589      33987.383      34522.654      10922.577      23600.077      5121.816       7301.2209     -5131.2271      412.76735     -2556.362       62364.89      -43913.028     -497.50337      74475.466      42.07309       42.07309       42.07309       1.1251918      297.17856     -332.9447      -1442.6815    
    170000   170000         577.49263      3154.6196      37877.437      34497.392      10877.5        23619.891      5037.3372      7410.4643     -5086.6631      391.61712     -2606.4239      62388.221     -43914.661     -504.32394      73468.246      41.88256       41.88256       41.88256       1.1406177      2719.0652      2526.9309      4217.8628    
    171000   171000         572.34035     -1146.9596      33341.673      34603.082      10780.453      23822.629      5233.0223      7501.066      -5166.251       434.7273      -2598.6156      62346.674     -43927.995     -491.33438      75410.549      42.248442      42.248442      42.248442      1.1112395      582.88493     -1131.2755     -2892.4881    
    172000   172000         572.54876      510.8094       35037.291      34484.681      10784.379      23700.302      4938.3413      7626.5389     -5133.0437      411.38372     -2557.2314      62336.27      -43921.956     -499.48829      74179.508      42.017285      42.017285      42.017285      1.129681      -177.94764      1776.9908     -66.614983    
    173000   173000         580.65216      802.85253      35325.15       34452.394      10937.012      23515.381      5031.4426      7367.8025     -5167.1734      404.96575     -2537.7083      62335.201     -43919.148     -497.0821       74538.584      42.084972      42.084972      42.084972      1.124239       245.97522      367.62798      1794.9544    
    174000   174000         586.45642      1088.651       35728.729      34549.038      11046.34       23502.698      4951.3045      7490.723      -5148.4137      387.28405     -2606.5784      62353.691     -43925.312     -498.66105      74302.566      42.040506      42.040506      42.040506      1.12781        2083.6581      618.39157      563.90331    
    175000   175000         572.04114      390.53408      34641.183      34217.856      10774.818      23443.039      4954.4272      7460.7218     -5200.4357      378.53135     -2533.1751      62320.29      -43937.321     -498.50355      74326.041      42.044933      42.044933      42.044933      1.1274538     -959.13563      217.21361      1913.5242    
    176000   176000         571.44733      1274.4719      35603.08       34222.944      10763.633      23459.312      5058.3347      7444.4357     -5212.7853      373.92888     -2623.1482      62344.872     -43926.326     -498.992        74253.286      42.03121       42.03121       42.03121       1.1285586      2711.3726      874.34647      237.69654    
    177000   177000         574.39963      594.32956      35109.744      34465.568      10819.241      23646.326      5002.9734      7554.6787     -5144.6543      390.78706     -2613.099       62388.769     -43933.128     -498.54902      74319.263      42.043655      42.043655      42.043655      1.1275567      1310.6001      581.71297     -109.32437    
    178000   178000         579.05669      316.16588      34758.438      34414.054      10906.961      23507.094      5048.1052      7492.2475     -5152.45        377.85903     -2615.4938      62297.611     -43940.785     -496.08575      74688.29       42.113128      42.113128      42.113128      1.1219855     -273.45926     -196.95833      1418.9152    
    179000   179000         584.14879     -180.40203      34330.806      34526.168      11002.874      23523.294      5009.0879      7528.4926     -5198.1104      453.24594     -2640.4319      62302.145     -43931.135     -498.98394      74254.486      42.031436      42.031436      42.031436      1.1285403      922.64226     -2216.3338      752.48542    
    180000   180000         577.64899      279.36101      34921.478      34615.826      10880.445      23735.381      5111.6514      7425.7361     -5058.3249      375.79019     -2555.5349      62380.469     -43944.407     -493.88316      75021.38       42.17564       42.17564       42.17564       1.117004       443.3372       925.99098     -531.24514    
    181000   181000         582.94606     -407.71918      33952.78       34400.133      10980.22       23419.913      4964.0829      7446.0347     -5233.1089      364.6744      -2480.5814      62281.754     -43922.943     -492.48909      75233.739      42.215397      42.215397      42.215397      1.1138511      13.849899     -1248.6248      11.617399    
    182000   182000         569.22585      312.82497      34407.601      34066.641      10721.789      23344.852      5043.0101      7391.6553     -5197.5663      421.33818     -2705.3339      62322.308     -43930.56      -495.77414      74735.233      42.12195       42.12195       42.12195       1.1212808     -1115.5448      2191.2259     -137.20623    
    183000   183000         567.99538      1903.7878      36307.86       34243.884      10698.613      23545.272      5122.5349      7321.234      -5178.5668      361.98975     -2586.3421      62422.179     -43917.758     -498.4241       74337.89       42.047167      42.047167      42.047167      1.1272741      2162.9253      776.54288      2771.8953    
    184000   184000         575.41598      1025.8725      35637.172      34525.07       10838.385      23686.685      5054.2601      7444.0194     -5181.2584      431.22607     -2497.0493      62358.486     -43922.998     -498.4641       74331.924      42.046042      42.046042      42.046042      1.1273646      774.89587      1127.0879      1175.6336    
    185000   185000         588.56459      2.1867911      34701.855      34699.465      11086.049      23613.416      5059.0846      7664.1992     -5259.0165      404.31966     -2603.2388      62272.41      -43924.343     -494.33364      74953.013      42.162825      42.162825      42.162825      1.1180228     -1843.6518      665.85153      1184.3606    
    186000   186000         578.11016      968.78505      35422.903      34361.633      10889.132      23472.501      4859.644       7530.9119     -5198.1471      374.31328     -2534.6907      62354.907     -43914.437     -493.27255      75114.246      42.193035      42.193035      42.193035      1.115623       134.75235      1212.0911      1559.5118    
    187000   187000         582.07044     -1467.5481      32973.843      34572.535      10963.727      23608.808      5245.43        7406.4323     -5241.6618      421.9396      -2571.9114      62278.247     -43929.667     -496.03536      74695.875      42.114554      42.114554      42.114554      1.1218716     -1155.8975     -998.76655     -2247.9801    
    188000   188000         567.08976     -266.8704       34040.557      34328.867      10681.555      23647.312      5276.4255      7319.3412     -5238.2033      387.00561     -2520.6621      62351.633     -43928.228     -500.18045      74076.858      41.997894      41.997894      41.997894      1.1312464      1128.337      -664.6011      -1264.347     
    189000   189000         579.49149      251.06212      34691.231      34418.896      10915.15       23503.746      4997.5025      7506.6664     -5176.4898      399.01772     -2590.5323      62311.098     -43943.517     -498.15413      74378.177      42.054762      42.054762      42.054762      1.1266635     -744.18276     -363.57517      1860.9443    
    190000   190000         573.87012      2608.4337      37042.809      34238.507      10809.268      23429.24       5034.9675      7308.5079     -5223.4781      392.44651     -2489.014       62336.166     -43930.356     -502.62061      73717.223      41.929819      41.929819      41.929819      1.1367653      3130.9377      1379.4515      3314.9121    
    191000   191000         585.24403     -680.82516      33663.723      34409.119      11023.504      23385.616      5126.7759      7298.593      -5245.6131      400.93187     -2546.2032      62285.385     -43934.254     -493.55295      75071.572      42.185044      42.185044      42.185044      1.1162572     -2823.4332      895.17707     -114.21938    
    192000   192000         578.18013     -232.43777      34159.217      34411.201      10890.45       23520.752      5177.7201      7423.1865     -5203.8994      417.39627     -2658.2578      62291.526     -43926.92      -498.44535      74334.72       42.04657       42.04657       42.04657       1.1273222     -2151.6096     -224.62938      1678.9257    
    193000   193000         568.56413      858.70439      35100.419      34167.949      10709.325      23458.624      4976.0033      7260.9297     -5114.5474      421.80263     -2502.6791      62349.363     -43932.248     -497.61558      74458.673      42.069927      42.069927      42.069927      1.1254455      2428.32        179.11198     -31.318815    
    194000   194000         575.81124      6.0826441      34402.447      34395.848      10845.83       23550.018      4991.8278      7434.274      -5183.4011      422.18166     -2549.4486      62360.408     -43925.824     -498.10271      74385.855      42.056209      42.056209      42.056209      1.1265473      1563.2892     -1317.0153     -228.02604    
    195000   195000         572.8424      -2076.7366      32149.146      34426.284      10789.91       23636.374      5124.9808      7510.5573     -5194.1965      413.99515     -2567.3713      62281.367     -43932.958     -492.80743      75185.14       42.206305      42.206305      42.206305      1.1145711     -4451.8207     -969.79088     -808.59813    
    196000   196000         583.76034      480.74602      35115.05       34591.927      10995.557      23596.37       5158.5003      7410.2032     -5288.799       382.23409     -2552.2876      62393.854     -43907.335     -496.58947      74612.528      42.098884      42.098884      42.098884      1.1231248      110.00699      1091.0501      241.18099    
    197000   197000         580.81237      1272.6087      35676.073      34292.05       10940.03       23352.019      5176.6789      7180.8783     -5178.0145      361.13845     -2570.8116      62290.359     -43908.209     -496.86287      74571.473      42.091161      42.091161      42.091161      1.1237431      2897.8443      891.50833      28.473503    
    198000   198000         580.81183     -92.710982      34259.967      34360.923      10940.02       23420.903      4958.3384      7435.3068     -5151.9548      390.49255     -2578.0657      62303.799     -43937.013     -496.2287       74666.773      42.109084      42.109084      42.109084      1.1223089      1201.8476     -419.39106     -1060.5894    
    199000   199000         577.18388      703.59108      35195.215      34427.358      10871.685      23555.673      4921.223       7635.3994     -5288.5856      432.95151     -2566.8581      62342.769     -43921.227     -495.13681      74831.431      42.140015      42.140015      42.140015      1.1198393      1783.6119     -422.5371       749.69842    
    200000   200000         578.62936     -319.82502      34201.272      34547.372      10898.911      23648.46       5019.6173      7671.3101     -5216.0279      376.28482     -2577.5946      62299.78      -43924.909     -499.3406       74201.449      42.021427      42.021427      42.021427      1.129347      -551.64153      950.281       -1358.1145    
    201000   201000         576.87707     -21.626617      34310.595      34333.938      10865.906      23468.032      4893.2078      7537.6976     -5113.9124      415.72431     -2636.1945      62299.204     -43927.694     -500.62599      74010.932      41.985432      41.985432      41.985432      1.1322541      52.497887     -690.56174      573.184      
    202000   202000         570.9058       274.15886      34309.405      34010.295      10753.432      23256.862      4918.7323      7265.3307     -5167.0036      398.38197     -2559.9612      62339.05      -43937.667     -495.28669      74808.786      42.135764      42.135764      42.135764      1.1201783     -626.0912       938.73637      509.8314     
    203000   203000         579.38657      581.92172      35042.69       34414.454      10913.174      23501.28       5060.0226      7453.5576     -5269.2476      376.77573     -2527.6877      62329.023     -43921.163     -500.52648      74025.646      41.988214      41.988214      41.988214      1.132029       846.78249      352.91713      546.06554    
    204000   204000         579.20955      574.10754      35260.539      34635.735      10909.84       23725.895      5034.6213      7461.6093     -5070.6884      427.2932      -2533.081       62345.628     -43939.487     -496.51745      74623.35       42.100919      42.100919      42.100919      1.1229619      2501.4364     -322.62224     -456.49152    
    205000   205000         581.13088      338.65765      34644.977      34279.148      10946.029      23333.119      5073.0925      7374.5897     -5315.0329      383.82701     -2594.1199      62339.672     -43928.91      -500.22759      74069.877      41.996575      41.996575      41.996575      1.1313531     -994.06529      2851.4371     -841.39887    
    206000   206000         567.80215     -35.866156      34213.657      34252.351      10694.973      23557.378      5192.532       7472.537      -5248.005       392.28641     -2609.0161      62279.863     -43922.819     -500.88047      73973.329      41.97832       41.97832       41.97832       1.1328297     -844.87947     -1578.9262      2316.2072    
    207000   207000         580.97036     -277.3281       34254.103      34554.09       10943.006      23611.084      5237.1666      7455.8931     -5222.4824      436.29297     -2587.6925      62240.499     -43948.593     -499.54725      74170.754      42.015632      42.015632      42.015632      1.1298143     -1547.5902     -542.66585      1258.2717    
    208000   208000         568.74123     -734.54566      33279.513      34081.751      10712.661      23369.09       4825.104       7493.9679     -5180.6321      396.96939     -2609.998       62374.684     -43931.005     -494.7671       74887.348      42.150508      42.150508      42.150508      1.1190032      42.70987      -878.25921     -1368.0876    
    209000   209000         574.55222     -360.65683      33949.877      34341.788      10822.115      23519.672      5015.4855      7356.7225     -5176.634       423.95094     -2510.2847      62341.711     -43931.279     -497.27024      74510.382      42.079664      42.079664      42.079664      1.1246645      273.02099     -564.27969     -790.71179    
    210000   210000         580.87743     -86.840807      34472.121      34566.791      10941.256      23625.536      5136.6163      7531.5221     -5246.7064      382.19058     -2492.3368      62217.306     -43903.056     -495.67289      74750.499      42.124818      42.124818      42.124818      1.1210518      132.8514       448.35458     -841.72841    
    211000   211000         575.30787      280.51636      34717.462      34408.885      10836.349      23572.536      5096.6491      7480.2551     -5232.0122      390.0917      -2583.7931      62346.235     -43924.889     -491.22357      75427.56       42.251619      42.251619      42.251619      1.1109889      514.50495      683.40444     -356.36031    
    212000   212000         575.57687      65.108079      34172.744      34103.125      10841.416      23261.71       4877.5887      7479.2457     -5225.7158      376.34881     -2581.2316      62269.163     -43933.689     -505.35058      73318.993      41.854179      41.854179      41.854179      1.1429396      805.81269      524.43971     -1134.9282    
    213000   213000         566.80449     -490.51697      33534.654      34064.469      10676.181      23388.288      4925.107       7478.0571     -5261.3531      379.4493      -2606.1971      62389.358     -43916.133     -500.28177      74061.854      41.995059      41.995059      41.995059      1.1314756      85.336766     -39.464586     -1517.4231    
    214000   214000         571.4667       372.63976      34717.434      34313.347      10763.997      23549.35       5099.5503      7513.2692     -5223.6182      397.07971     -2637.0954      62324.075     -43923.91      -498.31058      74354.825      42.05036       42.05036       42.05036       1.1270174      770.44786     -1688.8419      2036.3133    
    215000   215000         556.95214      642.50044      34681.715      33985.756      10490.605      23495.151      4986.1621      7477.7927     -5235.6145      393.87703     -2544.4233      62348.316     -43930.959     -498.8555       74273.603      42.035043      42.035043      42.035043      1.1282498     -777.39159      1338.5956      1366.2973    
    216000   216000         569.07931     -578.36619      33571.9        34193.487      10719.029      23474.458      5183.521       7381.6471     -5162.5072      375.06337     -2701.7996      62337.572     -43939.039     -502.78919      73692.507      41.925132      41.925132      41.925132      1.1371466     -391.27488     -651.09649     -692.72719    
    217000   217000         573.08303     -64.923478      33882.838      33951.776      10794.442      23157.334      4966.3324      7485.0762     -5276.1947      387.44623     -2767.0406      62296.671     -43934.957     -508.90025      72807.58       41.756639      41.756639      41.756639      1.1509678     -449.46849      4.8188829      249.87917    
    218000   218000         573.67214     -2134.0204      32001.523      34320.047      10805.538      23514.508      5064.9706      7529.5625     -5133.9397      382.05732     -2758.74        62344.395     -43913.798     -497.36158      74496.699      42.077088      42.077088      42.077088      1.1248711     -1705.9731     -3042.2337     -1653.8544    
    219000   219000         578.12343      1366.2947      35811.979      34346.953      10889.382      23457.571      5132.4179      7432.7513     -5244.4487      426.1403      -2710.6765      62341.312     -43919.926     -503.94606      73523.337      41.893026      41.893026      41.893026      1.139763       1532.391       1821.5876      744.9055     
    220000   220000         568.33807      762.41868      34826.902      34007.581      10705.067      23302.513      5019.244       7329.0808     -5208.6498      407.18302     -2642.8373      62319.059     -43920.566     -502.83345      73686.02       41.923902      41.923902      41.923902      1.1372467      323.61281      115.80488      1847.8384    
    221000   221000         581.76632     -174.98448      34170.099      34358.45       10957.998      23400.452      4984.1342      7604.9925     -5201.0312      391.02739     -2762.472       62314.695     -43930.895     -502.01493      73806.163      41.946675      41.946675      41.946675      1.1353954     -1670.6654     -221.97739      1367.6894    
    222000   222000         561.0686       1414.4906      35532.365      34014.706      10568.142      23446.564      5124.7654      7385.7931     -5227.5962      365.44395     -2616.1508      62363.426     -43949.117     -503.6294       73569.565      41.901805      41.901805      41.901805      1.1390468      804.13476      1843.0619      1596.2751    
    223000   223000         576.87861      1583.1033      36140.478      34441.648      10865.935      23575.714      5168.63        7491.5908     -5227.1614      432.42766     -2669.1384      62312.424     -43933.059     -503.55233      73580.825      41.903942      41.903942      41.903942      1.1388725      595.4422       1584.6261      2569.2417    
    224000   224000         574.49897      1524.022       35709.672      34053.135      10821.112      23232.023      4961.1171      7256.1886     -5191.3464      380.18868     -2529.6132      62294.338     -43938.85      -497.13621      74530.471      42.083445      42.083445      42.083445      1.1243614     -251.31005      2177.4907      2645.8854    
    225000   225000         576.05565      1572.5043      35932.411      34229.14       10850.434      23378.706      4907.0379      7361.5399     -5152.5735      429.26123     -2583.0287      62348.464     -43931.995     -498.87672      74270.444      42.034447      42.034447      42.034447      1.1282978      2026.2149      1490.9098      1200.3883    
    226000   226000         576.14147     -1232.7078      33004.5        34343.424      10852.05       23491.374      5078.7852      7418.0625     -5116.0587      401.10669     -2683.6766      62323.754     -43930.599     -497.49569      74476.616      42.073307      42.073307      42.073307      1.1251744     -364.3625      -327.793       -3005.9678    
    227000   227000         578.11417      262.2722       34568.754      34286.305      10889.208      23397.098      5143.6244      7228.0797     -5226.2918      399.55231     -2556.3827      62336.441     -43927.925     -501.76287      73843.239      41.953698      41.953698      41.953698      1.1348254      1651.8571      803.93813     -1668.9786    
    228000   228000         566.90869     -1383.1069      32618.521      34102.304      10678.144      23424.16       5056.1292      7375.2222     -5160.3683      397.14137     -2653.859       62340.642     -43930.747     -503.69837      73559.492      41.899892      41.899892      41.899892      1.1392028     -2784.8314     -700.41386     -664.07538    
    229000   229000         570.0044      -639.91775      33438.457      34130.819      10736.454      23394.365      5095.6714      7336.239      -5173.5301      346.80458     -2599.8619      62332.136     -43943.094     -499.43236      74187.815      42.018853      42.018853      42.018853      1.1295545     -1919.8673     -367.94186      368.05593    
    230000   230000         574.13858     -1639.1056      32467.331      34227.276      10814.324      23412.952      5076.8955      7622.3101     -5165.1924      364.89986     -2839.3983      62288.269     -43934.832     -503.26051      73623.492      41.91204       41.91204       41.91204       1.1382125     -2710.4595     -639.51873     -1567.3386    
    231000   231000         562.22693     -314.53518      33787.919      34126.021      10589.959      23536.061      5053.1235      7360.3049     -5073.48        453.7185      -2675.1578      62361.951     -43944.398     -502.69816      73705.851      41.927663      41.927663      41.927663      1.1369407     -973.94569     -525.84742      556.18756    
    232000   232000         579.48661     -573.48488      33772.919      34401.566      10915.058      23486.507      5004.0158      7296.3173     -5173.6606      387.5539      -2513.1419      62412.869     -43927.447     -492.94726      75163.813      42.202314      42.202314      42.202314      1.1148873     -574.57078      881.78748     -2027.6713    
    233000   233000         563.73467     -349.86757      33648.538      34029.691      10618.359      23411.332      5038.0317      7304.1484     -5127.089       361.47861     -2538.773       62315.909     -43942.374     -496.00928      74699.804      42.115292      42.115292      42.115292      1.1218126     -838.77857      465.58817     -676.41229    
    234000   234000         569.18269     -97.2033        34134.915      34240.275      10720.976      23519.298      5082.5427      7451.9733     -5268.1445      388.75835     -2548.7148      62348.426     -43935.543     -498.52928      74322.206      42.04421       42.04421       42.04421       1.127512      -498.07281      647.16943     -440.70652    
    235000   235000         577.07742     -712.30239      33390.936      34160.121      10869.679      23290.442      5024.355       7311.1365     -5175.2575      372.75878     -2691.3136      62370.591     -43921.829     -500.40189      74044.076      41.991698      41.991698      41.991698      1.1317473     -2541.3373      592.09723     -187.66713    
    236000   236000         575.56625      556.89072      34845.477      34240.18       10841.215      23398.965      4934.4402      7404.3436     -5171.2894      416.86683     -2571.5968      62320.7       -43934.5       -497.14965      74528.455      42.083066      42.083066      42.083066      1.1243918     -736.47985     -209.45824      2616.6103    
    237000   237000         576.39903     -158.26454      34327.18       34499.328      10856.902      23642.427      5142.0878      7513.9172     -5190.2475      379.16019     -2606.3188      62326.103     -43922.275     -496.78304      74583.456      42.093416      42.093416      42.093416      1.1235626     -1513.0226     -1537.9915      2576.2205    
    238000   238000         560.67326     -826.30634      33339.169      34234.531      10560.695      23673.836      5055.6522      7519.0815     -5116.3235      388.1764      -2586.6473      62337.316     -43923.419     -498.68624      74298.813      42.039798      42.039798      42.039798      1.127867       213.98762     -467.13687     -2225.7698    
    239000   239000         576.44         1002.2654      35539.225      34443.275      10857.673      23585.602      4938.9387      7474.2589     -5120.955       381.1673      -2548.205       62390.849     -43930.452     -494.17073      74977.722      42.167457      42.167457      42.167457      1.1176544      2223.1839     -504.0344       1287.6468    
    240000   240000         560.38955      70.743065      34016.942      33940.527      10555.351      23385.176      4978.2098      7373.1452     -5182.574       412.39339     -2619.3538      62344.357     -43921.002     -500.25644      74065.604      41.995768      41.995768      41.995768      1.1314183     -652.52683      492.68242      372.07361    
    241000   241000         574.37986     -1513.158       32483.61       34114.753      10818.869      23295.884      4883.7707      7435.2447     -5104.6418      361.03716     -2665.0395      62322.858     -43937.345     -501.2766       73914.872      41.967259      41.967259      41.967259      1.1337256     -2276.2316     -633.9834      -1629.2589    
    242000   242000         574.17634     -787.29786      33422.845      34277.306      10815.035      23462.271      4979.0751      7399.0552     -5113.4566      393.08265     -2681.4413      62407.512     -43921.556     -497.88808      74417.921      42.062251      42.062251      42.062251      1.1260618      955.22028     -215.29109     -3101.8228    
    243000   243000         568.95926     -362.33812      33665.824      34057.305      10716.768      23340.537      5245.3153      7206.2387     -5209.2187      404.34449     -2655.7062      62299.887     -43950.324     -500.1372       74083.262      41.999105      41.999105      41.999105      1.1311486     -463.55116     -396.06391     -227.39929    
    244000   244000         582.24388     -1300.4903      32963.073      34355.719      10966.994      23388.726      5142.942       7354.42       -5180.0194      401.43574     -2734.7888      62343.897     -43939.161     -504.605        73427.326      41.874783      41.874783      41.874783      1.1412533     -2331.0833     -616.03094     -954.3565     
    245000   245000         567.60969      481.7656       34570.011      34053.744      10691.348      23362.397      5065.0294      7355.182      -5222.5167      394.9285      -2643.6547      62351.206     -43937.778     -504.25119      73478.846      41.884575      41.884575      41.884575      1.1404531      499.84476     -1111.3719      2056.824     
    246000   246000         573.05244      181.01977      34377.511      34184.414      10793.866      23390.548      5081.6637      7238.2731     -5152.874       447.43849     -2648.0083      62363.471     -43939.416     -506.56475      73143.257      41.820713      41.820713      41.820713      1.1456857      728.68544     -188.4871       2.8609564    
    247000   247000         577.96978     -1182.0327      32714.681      33984.871      10886.488      23098.383      5052.2086      7326.767      -5214.0236      382.25095     -2812.8646      62290.666     -43926.622     -502.85895      73682.284      41.923194      41.923194      41.923194      1.1373043     -2941.3755     -1138.2898      533.5672     
    248000   248000         570.33016     -93.430594      33813.964      33915.174      10742.59       23172.584      4876.6098      7405.0458     -5169.5508      389.91834     -2670.9463      62284.713     -43943.206     -498.82684      74277.872      42.035848      42.035848      42.035848      1.128185      -544.17096     -60.050442      323.92962    
    249000   249000         565.1228      -1463.4584      32473.451      34040.349      10644.505      23395.844      5126.5379      7362.1699     -5189.5306      377.45629     -2699.8611      62351.748     -43932.677     -504.69001      73414.957      41.872432      41.872432      41.872432      1.1414456     -2153.1838      1.8351185     -2239.0264    
    250000   250000         581.19704      941.71113      35286.136      34278.205      10947.276      23330.929      5109.4492      7342.8428     -5198.6475      397.4724      -2737.1158      62364.683     -43947.755     -504.8611       73390.079      41.867701      41.867701      41.867701      1.1418326      77.864652      2481.211       266.05777    
Loop time of 1093.73 on 1 procs for 250000 steps with 6320 atoms

Performance: 19.749 ns/day, 1.215 hours/ns, 228.575 timesteps/s, 1.445 Matom-step/s
100.0% CPU use with 1 MPI tasks x 1 OpenMP threads

MPI task timing breakdown:
Section |  min time  |  avg time  |  max time  |%varavg| %total
---------------------------------------------------------------
Pair    | 374.57     | 374.57     | 374.57     |   0.0 | 34.25
Bond    | 149.27     | 149.27     | 149.27     |   0.0 | 13.65
Kspace  | 299.62     | 299.62     | 299.62     |   0.0 | 27.39
Neigh   | 122.7      | 122.7      | 122.7      |   0.0 | 11.22
Comm    | 11.232     | 11.232     | 11.232     |   0.0 |  1.03
Output  | 3.0051     | 3.0051     | 3.0051     |   0.0 |  0.27
Modify  | 72.089     | 72.089     | 72.089     |   0.0 |  6.59
Other   |            | 61.25      |            |       |  5.60

Nlocal:           6320 ave        6320 max        6320 min
Histogram: 1 0 0 0 0 0 0 0 0 0
Nghost:          17308 ave       17308 max       17308 min
Histogram: 1 0 0 0 0 0 0 0 0 0
Neighs:              0 ave           0 max           0 min
Histogram: 1 0 0 0 0 0 0 0 0 0
FullNghs:   3.4628e+06 ave  3.4628e+06 max  3.4628e+06 min
Histogram: 1 0 0 0 0 0 0 0 0 0

Total # of neighbors = 3462796
Ave neighs/atom = 547.91076
Ave special neighs/atom = 5.5411392
Neighbor list builds = 13957
Dangerous builds = 0
System init for write_data ...
PPPM Kokkos initialization ...
  using 12-bit tables for long-range coulomb
  G vector (1/distance) = 0.33799669
  grid = 48 48 48
  stencil order = 5
  estimated absolute RMS force accuracy = 0.00033055818
  estimated relative force accuracy = 9.9546613e-07
  using double precision cuFFT
  3d grid and FFT values/proc = 166375 110592
Generated 21 of 21 mixed pair_coeff terms from sixthpower/sixthpower mixing rule
System init for write_restart ...
PPPM Kokkos initialization ...
  using 12-bit tables for long-range coulomb
  G vector (1/distance) = 0.33799669
  grid = 48 48 48
  stencil order = 5
  estimated absolute RMS force accuracy = 0.00033055818
  estimated relative force accuracy = 9.9546613e-07
  using double precision cuFFT
  3d grid and FFT values/proc = 166375 110592
Generated 21 of 21 mixed pair_coeff terms from sixthpower/sixthpower mixing rule
STAGE COMPLETE: NPT T=595.0->570.0K P=1.0->1.0atm steps=250000
