LAMMPS (22 Jul 2025 - Update 3)
OMP_NUM_THREADS environment is not set. Defaulting to 1 thread.
  using 1 OpenMP thread(s) per MPI task
Reading data file ...
  orthogonal box = (1.7688972 1.7688972 1.7688972) to (48.765844 48.765844 48.765844)
  1 by 1 by 1 MPI processor grid
  reading atoms ...
  3600 atoms
  reading velocities ...
  3600 velocities
  scanning bonds ...
  2 = max bonds/atom
  scanning angles ...
  1 = max angles/atom
  scanning dihedrals ...
  2 = max dihedrals/atom
  orthogonal box = (1.7688972 1.7688972 1.7688972) to (48.765844 48.765844 48.765844)
  1 by 1 by 1 MPI processor grid
  reading bonds ...
  3590 bonds
  reading angles ...
  3580 angles
  reading dihedrals ...
  3570 dihedrals
Finding 1-2 1-3 1-4 neighbors ...
  special bond factors lj:    0        0        0       
  special bond factors coul:  0        0        0       
     2 = max # of 1-2 neighbors
     2 = max # of 1-3 neighbors
     4 = max # of 1-4 neighbors
     6 = max # of special neighbors
  special bonds CPU = 0.001 seconds
  read_data CPU = 0.032 seconds

CITE-CITE-CITE-CITE-CITE-CITE-CITE-CITE-CITE-CITE-CITE-CITE-CITE

Your simulation uses code contributions which should be cited:
- GPU package (short-range, long-range and three-body potentials): doi:10.1016/j.cpc.2010.12.021, doi:10.1016/j.cpc.2011.10.012, doi:10.1016/j.cpc.2013.08.002, doi:10.1016/j.commatsci.2014.10.068, doi:10.1016/j.cpc.2016.10.020, doi:10.3233/APC200086
The log file lists these citations in BibTeX format.

CITE-CITE-CITE-CITE-CITE-CITE-CITE-CITE-CITE-CITE-CITE-CITE-CITE


--------------------------------------------------------------------------
- Using acceleration for lj/cut:
-  with 1 proc(s) per device.
-  with 1 thread(s) per proc.
-  Horizontal vector operations: ENABLED
-  Shared memory system: No
--------------------------------------------------------------------------
Device 0: NVIDIA A800 40GB Active, 108 CUs, 39/39 GB, 1.4 GHZ (Mixed Precision)
--------------------------------------------------------------------------

Initializing Device and compiling on process 0...Done.
Initializing Device 0 on core 0...Done.

Generated 1 of 1 mixed pair_coeff terms from arithmetic mixing rule
Setting up Verlet run ...
  Unit style    : real
  Current step  : 0
  Time step     : 2
Per MPI rank memory allocation (min/avg/max) = 14.71 | 14.71 | 14.71 Mbytes
   Step          Time           Temp          Press         Enthalpy        TotEng         KinEng         PotEng         E_bond        E_angle        E_dihed        E_impro         E_vdwl         E_coul         E_long         E_tail         Volume           Lx             Ly             Lz          Density          Pxx            Pyy            Pzz      
         0   0              414.17152      283.16234      6778.7377      6350.0704      4443.2053      1906.8651      1524.2353      1445.1013      2751.8268      0             -3814.2984      0              0             -132.69255      103802.77      46.996947      46.996947      46.996947      0.80811758     887.63642     -216.20316      178.05376    
       500   1000           383.29398      628.88059      6691.3709      5738.9324      4111.9531      1626.9793      1436.559       1374.4191      2632.9604      0             -3816.9592      0              0             -132.63636      103846.74      47.003582      47.003582      47.003582      0.80777542     1131.1848      153.77907      601.67791    
      1000   2000           389.21672     -506.86364      5053.1462      5820.8558      4175.4918      1645.3639      1425.6237      1391.7175      2619.1624      0             -3791.1397      0              0             -132.62505      103855.6       47.004919      47.004919      47.004919      0.8077065     -281.39567     -747.45508     -491.74019    
      1500   3000           386.42213     -172.09353      5513.3328      5773.2727      4145.5116      1627.7611      1448.356       1389.7694      2637.3403      0             -3847.7046      0              0             -132.99118      103569.68      46.961743      46.961743      46.961743      0.80993632    -318.63829      463.12722     -660.76953    
      2000   4000           383.14494     -541.45358      4872.8165      5690.917       4110.3542      1580.5628      1413.1094      1389.5637      2642.9701      0             -3865.0805      0              0             -132.94928      103602.32      46.966677      46.966677      46.966677      0.8096811     -736.28951     -614.54306     -273.52819    
      2500   5000           388.25224      743.8821       6861.4516      5738.9794      4165.1449      1573.8345      1407.4293      1398.9038      2633.3795      0             -3865.878       0              0             -133.12507      103465.51      46.945994      46.945994      46.945994      0.81075172     855.59112      806.75511      569.30007    
      3000   6000           387.02241      32.21605       5879.4286      5830.3421      4151.9514      1678.3907      1451.0226      1409.4626      2623.2834      0             -3805.3778      0              0             -131.83822      104475.43      47.098245      47.098245      47.098245      0.80291457     413.20424      547.64169     -864.19778    
      3500   7000           393.46011     -472.3845       5120.1916      5845.3578      4221.0146      1624.3432      1394.5637      1453.9181      2587.6186      0             -3811.7571      0              0             -130.85474      105260.64      47.215944      47.215944      47.215944      0.79692505    -779.44272     -683.29325      45.58248     
      4000   8000           383.05161     -98.090447      5620.2272      5769.1313      4109.353       1659.7783      1443.6871      1408.238       2619.0446      0             -3811.1913      0              0             -132.32794      104088.78      47.040071      47.040071      47.040071      0.8058971      347.31296     -482.51287     -159.07144    
      4500   9000           402.02228     -206.53451      5562.9595      5879.0445      4312.8691      1566.1754      1436.7726      1376.3334      2558.9878      0             -3805.9184      0              0             -131.25628      104938.63      47.167746      47.167746      47.167746      0.7993705     -718.93231     -432.72322      532.05199    
      5000   10000          397.31387     -343.7984       5386.8019      5915.6365      4262.3575      1653.279       1410.4372      1438.5935      2572.8148      0             -3768.5665      0              0             -130.59163      105472.72      47.247632      47.247632      47.247632      0.79532268     635.43846     -919.36716     -747.46651    
      5500   11000          384.13727      106.57206      5956.8999      5792.9191      4120.9998      1671.9194      1430.648       1449.0072      2570.153       0             -3777.8887      0              0             -130.5515       105505.14      47.252472      47.252472      47.252472      0.79507827    -1109.3344      765.75993      663.29067    
      6000   12000          385.71857     -338.26558      5238.6707      5756.7297      4137.9639      1618.7658      1434.6908      1395.7502      2593.1361      0             -3804.8113      0              0             -131.16258      105013.59      47.178976      47.178976      47.178976      0.79879986    -503.55871     -419.36639     -91.871651    
      6500   13000          382.10163     -188.94432      5438.9994      5727.7792      4099.1616      1628.6176      1411.8552      1405.8024      2602.6869      0             -3791.7269      0              0             -131.43115      104799.01      47.146818      47.146818      47.146818      0.80043549     14.372133     -160.1185      -421.0866     
      7000   14000          391.21467     -164.94237      5620.0637      5870.0064      4196.9257      1673.0807      1433.1241      1464.9969      2590.6959      0             -3815.7362      0              0             -132.56322      103904.04      47.012226      47.012226      47.012226      0.80732995    -789.52833      117.95258      176.74864    
      7500   15000          386.04893     -308.66286      5211.5465      5684.7575      4141.5079      1543.2495      1373.5026      1387.5354      2570.3459      0             -3788.1343      0              0             -131.02703      105122.23      47.195239      47.195239      47.195239      0.79797435    -353.10192     -204.03345     -368.85321    
      8000   16000          385.47419     -528.38495      4968.0417      5770.8649      4135.3422      1635.5227      1398.7598      1390.6057      2637.4781      0             -3791.321       0              0             -132.20926      104182.22      47.054143      47.054143      47.054143      0.80517428     342.92407     -481.48654     -1446.5924    
      8500   17000          400.87214      166.92082      6205.7195      5953.9758      4300.5304      1653.4454      1503.8298      1357.6964      2606.1114      0             -3814.1922      0              0             -133.1936       103412.28      46.937941      46.937941      46.937941      0.81116908     759.33231     -689.13167      430.56181    
      9000   18000          391.37162     -506.24154      5164.8477      5937.1888      4198.6095      1738.5793      1473.4212      1441.1911      2613.7075      0             -3789.7404      0              0             -131.66793      104610.55      47.11854       47.11854       47.11854       0.80187751    -1097.3946      301.03567     -722.36572    
      9500   19000          391.64483     -31.923039      5701.4652      5749.6706      4201.5404      1548.1302      1443.5904      1380.3869      2574.1981      0             -3850.0452      0              0             -133.02701      103541.78      46.957526      46.957526      46.957526      0.81015453    -506.26981      553.90384     -143.40315    
     10000   20000          393.84628     -91.705133      5623.8832      5762.8795      4225.1575      1537.722       1386.3402      1435.6515      2560.6342      0             -3844.9039      0              0             -132.5323       103928.28      47.015882      47.015882      47.015882      0.80714163     37.26331      -612.4495       300.07079    
     10500   21000          388.94232     -195.9025       5470.0476      5767.5666      4172.548       1595.0186      1422.8165      1445.8234      2569.4921      0             -3843.1134      0              0             -132.26855      104135.52      47.047111      47.047111      47.047111      0.80553536    -143.31957      430.87306     -875.261      
     11000   22000          391.11463     -594.08217      4884.2188      5790.3284      4195.8524      1594.476       1386.5417      1447.2759      2558.0364      0             -3797.3779      0              0             -131.70345      104582.33      47.114303      47.114303      47.114303      0.80209383    -780.46358     -1241.5925      239.80956    
     11500   23000          390.29432     -102.72906      5601.7115      5757.9938      4187.0522      1570.9416      1405.5633      1409.3524      2588.32        0             -3832.2942      0              0             -132.04278      104313.57      47.07391       47.07391       47.07391       0.80416041     20.158712      58.707924     -387.05383    
     12000   24000          389.23184      36.80004       5782.3833      5727.2109      4175.6541      1551.5569      1357.8812      1423.2909      2620.3458      0             -3849.961       0              0             -133.98567      102800.95      46.845266      46.845266      46.845266      0.81599287    -25.410945     -343.38008      479.19114    
     12500   25000          399.39443      492.76622      6710.5161      5961.8553      4284.6777      1677.1777      1457.1376      1429.6883      2629.2997      0             -3838.9479      0              0             -132.21698      104176.13      47.053227      47.053227      47.053227      0.80522131     435.01231      446.53594      596.75041    
     13000   26000          389.72369      237.90058      6133.9569      5773.0516      4180.9306      1592.121       1402.0936      1406.1015      2640.4642      0             -3856.5382      0              0             -132.4139       104021.21      47.02989       47.02989       47.02989       0.8064206      588.39799     -98.928691      224.23244    
     13500   27000          389.55903      325.11425      6151.4587      5657.4539      4179.1641      1478.2898      1380.877       1330.3948      2606.4868      0             -3839.4689      0              0             -132.20142      104188.39      47.055073      47.055073      47.055073      0.80512657     649.0268      -522.31847      848.63441    
     14000   28000          394.324       -114.59727      5722.1956      5896.8485      4230.2824      1666.5661      1412.5637      1415.3869      2622.9188      0             -3784.3033      0              0             -131.80435      104502.27      47.102278      47.102278      47.102278      0.80270833    -194.33716      70.936939     -220.39159    
     14500   29000          391.31596     -517.33896      5150.2449      5930.8656      4198.0123      1732.8534      1426.6146      1461.5609      2667.8041      0             -3823.1262      0              0             -133.12709      103463.94      46.945756      46.945756      46.945756      0.81076403    -793.50804      414.31807     -1172.8269    
     15000   30000          388.74998     -209.77472      5500.5808      5819.7153      4170.4847      1649.2306      1421.8984      1404.8548      2612.9849      0             -3790.5074      0              0             -132.0416       104314.5       47.07405       47.07405       47.07405       0.80415323    -609.8953      -359.32051      339.89165    
     15500   31000          389.62606      47.981165      5857.1216      5784.7706      4179.8832      1604.8874      1404.6687      1385.8498      2634.0106      0             -3819.6417      0              0             -133.21636      103394.61      46.935268      46.935268      46.935268      0.81130769     1281.6105     -662.58292     -475.08406    
     16000   32000          395.69015     -572.23273      5028.8498      5893.873       4244.9383      1648.9347      1438.1606      1396.2079      2653.3634      0             -3838.7972      0              0             -132.88511      103652.35      46.974235      46.974235      46.974235      0.80929034    -1112.966      -580.73604     -22.99612     
     16500   33000          390.79767     -330.98948      5266.9474      5763.9251      4192.4521      1571.473       1431.3093      1421.5131      2590.8744      0             -3872.2239      0              0             -133.78539      102954.85      46.868631      46.868631      46.868631      0.81477314    -882.8058       325.23306     -435.39572    
     17000   34000          389.54881      133.83064      5997.4688      5792.5662      4179.0544      1613.5118      1413.0849      1421.1818      2582.7762      0             -3803.5311      0              0             -131.2017       104982.28      47.174286      47.174286      47.174286      0.79903812    -201.9758       311.78387      291.68387    
     17500   35000          400.27551     -158.07058      5465.5606      5704.9771      4294.1298      1410.8472      1358.1957      1355.5139      2540.8844      0             -3843.7468      0              0             -132.62588      103854.95      47.00482       47.00482       47.00482       0.8077116     -65.731036     -534.48786      126.00716    
     18000   36000          375.98195     -474.35813      4873.8492      5589.2144      4033.5101      1555.7043      1431.4672      1426.5428      2591.5037      0             -3893.8094      0              0             -133.20173      103405.97      46.936986      46.936986      46.936986      0.81121861     25.337322     -432.5181      -1015.8936    
     18500   37000          390.9703       712.37434      6748.0273      5674.4323      4194.3041      1480.1282      1419.6764      1346.245       2582.9474      0             -3868.7406      0              0             -133.29049      103337.11      46.926566      46.926566      46.926566      0.81175913     1302.0714      1020.2274     -185.17585    
     19000   38000          388.60671      388.45124      6281.8284      5696.0125      4168.9477      1527.0648      1416.1067      1392.3757      2586.7471      0             -3868.1648      0              0             -133.20076      103406.72      46.9371        46.9371        46.9371        0.81121268     504.04353     -552.87799      1214.1882    
     19500   39000          382.4061      -909.71403      4280.4886      5651.5517      4102.4279      1549.1237      1398.9232      1449.1205      2561.7138      0             -3860.6338      0              0             -133.28425      103341.95      46.927298      46.927298      46.927298      0.81172113    -1418.0543     -852.99983     -458.08801    
     20000   40000          387.1843       95.942652      5796.4369      5652.1632      4153.6882      1498.4751      1413.5138      1350.7273      2577.1636      0             -3842.9295      0              0             -133.58449      103109.68      46.892114      46.892114      46.892114      0.81354966     190.54407      676.37223     -579.08834    
     20500   41000          378.60766     -117.99745      5392.0835      5570.7505      4061.6785      1509.072       1381.4513      1374.1961      2572.6655      0             -3819.2409      0              0             -132.66605      103823.51      47.000076      47.000076      47.000076      0.80795618    -356.88207      263.52194     -260.63221    
     21000   42000          399.84422      189.05552      6141.3734      5853.6162      4289.5029      1564.1133      1395.4686      1373.9287      2600.7832      0             -3806.0672      0              0             -131.97586      104366.47      47.081865      47.081865      47.081865      0.80375283    -322.04157      560.00486      329.20327    
     21500   43000          389.93029      181.00782      6024.5549      5752.0033      4183.147       1568.8563      1429.3514      1366.9474      2617.7902      0             -3845.2328      0              0             -133.40739      103246.56      46.912855      46.912855      46.912855      0.81247107     206.31685     -51.694699      388.4013     
     22000   44000          396.79456      289.83048      6269.6916      5831.241       4256.7864      1574.4546      1432.4947      1383.8441      2595.057       0             -3836.9412      0              0             -132.78676      103729.12      46.985829      46.985829      46.985829      0.80869137     111.08735     -20.967224      779.37132    
     22500   45000          389.56413      479.98471      6519.8985      5790.5264      4179.2188      1611.3077      1425.0092      1443.3472      2578.5244      0             -3835.5731      0              0             -132.19335      104194.75      47.05603       47.05603       47.05603       0.80507741     723.85686      521.09515      195.00213    
     23000   46000          399.07432      868.78328      7196.8138      5879.9229      4281.2435      1598.6795      1462.1925      1357.8194      2571.5513      0             -3792.8838      0              0             -132.52354      103935.15      47.016917      47.016917      47.016917      0.80708829     1137.2894      165.04565      1304.0148    
     23500   47000          391.51794     -165.96257      5573.4377      5827.0076      4200.1792      1626.8284      1433.8552      1415.925       2543.7902      0             -3766.742       0              0             -131.47521      104763.89      47.141551      47.141551      47.141551      0.80070383    -245.25492      280.87403     -533.50682    
     24000   48000          382.99361     -453.28289      5046.8328      5732.1334      4108.7307      1623.4026      1434.5364      1394.7307      2622.9589      0             -3828.8233      0              0             -132.86776      103665.89      46.97628       46.97628       46.97628       0.80918462    -270.52892     -373.60159     -715.71817    
     24500   49000          383.17718      658.81609      6709.9723      5713.2069      4110.7         1602.5069      1422.4901      1423.035       2592.6134      0             -3835.6316      0              0             -132.77081      103741.58      46.987711      46.987711      46.987711      0.8085942      1340.6121     -58.228428      694.06462    
     25000   50000          391.15252      232.05038      6125.1127      5773.2167      4196.259       1576.9577      1403.9444      1363.4369      2633.2839      0             -3823.7076      0              0             -132.46444      103981.52      47.023908      47.023908      47.023908      0.8067284     -18.641795      383.58136      331.21159    
     25500   51000          395.4847       824.58421      7104.903       5851.9651      4242.7342      1609.2308      1467.4495      1385.4896      2577.0754      0             -3820.7837      0              0             -132.20163      104188.23      47.055048      47.055048      47.055048      0.80512783     267.87799      1384.8012      821.07345    
     26000   52000          384.78128      446.83722      6500.5962      5820.3454      4127.9087      1692.4367      1472.5765      1424.1253      2619.5688      0             -3823.8338      0              0             -131.95067      104386.39      47.084861      47.084861      47.084861      0.80359941     94.967668      515.84825      729.69574    
     26500   53000          387.11284     -1173.9575      3840.8662      5622.1449      4152.9215      1469.2233      1355.4206      1410.5467      2513.5317      0             -3810.2757      0              0             -132.38899      104040.78      47.03284       47.03284       47.03284       0.80626887    -1244.204      -338.82614     -1938.8424    
     27000   54000          387.39888      86.020097      5897.6022      5767.2849      4155.9901      1611.2947      1455.3604      1432.1001      2555.7447      0             -3831.9105      0              0             -132.59562      103878.65      47.008396      47.008396      47.008396      0.8075273      497.84318     -9.4842873     -230.2986     
     27500   55000          384.45574     -262.48884      5307.994       5708.7536      4124.4163      1584.3373      1391.2914      1443.8046      2559.1218      0             -3809.8804      0              0             -131.57041      104688.08      47.130178      47.130178      47.130178      0.80128361    -590.91594      216.79612     -413.3467     
     28000   56000          394.21866     -324.18705      5393.5342      5887.6932      4229.1523      1658.5409      1495.084       1431.5527      2552.4353      0             -3820.5312      0              0             -131.78327      104518.99      47.104789      47.104789      47.104789      0.80257996     40.668727     -779.52953     -233.70035    
     28500   57000          392.78826     -504.43538      4928.0995      5684.861       4213.8071      1471.0539      1412.3979      1373.9444      2524.7415      0             -3840.0299      0              0             -133.89916      102867.37      46.855352      46.855352      46.855352      0.81546604    -419.10316     -94.5249       -999.67809    
     29000   58000          397.70158     -250.70022      5348.0806      5726.1973      4266.5169      1459.6804      1421.919       1381.84        2508.6293      0             -3852.7079      0              0             -133.18654      103417.76      46.938771      46.938771      46.938771      0.81112607    -971.23328      592.53477     -373.40216    
     29500   59000          384.84554     -348.70524      5088.2282      5616.5145      4128.5981      1487.9164      1427.7731      1397.908       2533.1112      0             -3870.8758      0              0             -132.59296      103880.73      47.00871       47.00871       47.00871       0.80751107     187.94514     -335.39841     -898.66247    
     30000   60000          397.11738      141.77167      6061.4935      5849.1307      4260.2496      1588.8811      1438.8352      1417.1528      2618.6926      0             -3885.7995      0              0             -134.10421      102710.08      46.831459      46.831459      46.831459      0.81671483    -384.93106      423.29817      386.94789    
     30500   61000          391.77386     -782.66832      4519.7618      5699.4387      4202.9247      1496.514       1408.6691      1388.0733      2571.0273      0             -3871.2556      0              0             -133.27419      103349.75      46.928479      46.928479      46.928479      0.81165987    -620.56669     -492.60127     -1234.837     
     31000   62000          387.91336     -734.75199      4632.2636      5744.8287      4161.5094      1583.3193      1452.7232      1416.1021      2567.0086      0             -3852.5146      0              0             -132.66205      103826.63      47.000548      47.000548      47.000548      0.80793184    -684.67081     -311.75021     -1207.8349    
     31500   63000          387.33326      607.69769      6656.2067      5733.1881      4155.2861      1577.9019      1418.4513      1407.5915      2601.0364      0             -3849.1773      0              0             -132.2539       104147.05      47.048848      47.048848      47.048848      0.80544615     305.76228      342.8848       1174.446     
     32000   64000          387.88143     -702.97654      4724.7076      5799.2202      4161.167       1638.0532      1466.0777      1425.413       2577.4486      0             -3830.886       0              0             -131.41977      104808.08      47.14818       47.14818       47.14818       0.80036615    -670.08321     -1008.6687     -430.17767    
     32500   65000          381.25244     -542.30198      4843.8454      5666.3978      4090.0515      1576.3463      1455.9779      1388.4783      2567.0655      0             -3835.1755      0              0             -132.43689      104003.15      47.027169      47.027169      47.027169      0.80656061    -687.64784     -236.82813     -702.42996    
     33000   66000          387.32221      173.87824      6006.1508      5741.9205      4155.1676      1586.753       1417.1741      1418.3039      2567.6378      0             -3816.3629      0              0             -132.1886       104198.5       47.056594      47.056594      47.056594      0.80504846     137.99223      331.04254      52.599947    
     33500   67000          387.27881      58.503104      5845.2188      5756.9161      4154.7021      1602.214       1423.4811      1449.4664      2579.1597      0             -3849.8932      0              0             -133.08719      103494.96      46.950448      46.950448      46.950448      0.81052101     261.26137     -584.0261       498.27403    
     34000   68000          390.33538     -402.78618      5221.095       5839.1825      4187.4927      1651.6898      1426.7389      1450.2406      2585.7141      0             -3811.0037      0              0             -130.90492      105220.29      47.209909      47.209909      47.209909      0.79723067    -417.79543     -581.077       -209.48612    
     34500   69000          393.48508     -219.70088      5351.6648      5686.5217      4221.2826      1465.2391      1360.461       1358.6674      2581.5495      0             -3835.4388      0              0             -131.7965       104508.5       47.103213      47.103213      47.103213      0.80266051    -300.09762      408.25552     -767.26055    
     35000   70000          384.42079     -144.43725      5508.7205      5727.3324      4124.0414      1603.291       1427.3857      1439.4271      2591.8665      0             -3855.3883      0              0             -132.72011      103781.22      46.993694      46.993694      46.993694      0.80828542     674.38839     -106.38371     -1001.3164    
     35500   71000          393.83067     -607.43012      4735.3147      5654.0054      4224.99        1429.0154      1385.3873      1417.883       2490.7141      0             -3864.969       0              0             -132.81843      103704.38      46.982094      46.982094      46.982094      0.80888425    -1345.9634     -397.86417     -78.46282     
     36000   72000          387.95375      358.77927      6218.471       5679.8272      4161.9428      1517.8845      1416.9606      1379.0091      2562.1889      0             -3840.2741      0              0             -133.80029      102943.38      46.866891      46.866891      46.866891      0.81486388     719.98146     -102.26058      458.61693    
     36500   73000          393.66625      419.66844      6447.2694      5811.6635      4223.2261      1588.4374      1452.0021      1387.5537      2591.7734      0             -3842.8918      0              0             -132.63245      103849.8       47.004044      47.004044      47.004044      0.8077516     -137.01086      413.59478      982.4214     
     37000   74000          389.71347     -120.10236      5436.7137      5614.6826      4180.8209      1433.8617      1418.3008      1347.7456      2562.2975      0             -3894.4821      0              0             -135.56224      101605.39      46.662956      46.662956      46.662956      0.82559443    -466.88867      49.499719      57.081876    
     37500   75000          398.35328     -465.13987      5109.5735      5811.5845      4273.5082      1538.0763      1435.1668      1418.065       2547.2132      0             -3862.3687      0              0             -133.09784      103486.69      46.949196      46.949196      46.949196      0.81058585    -923.09958     -685.23072      212.91069    
     38000   76000          387.90022      679.08347      6757.2934      5736.8123      4161.3685      1575.4439      1493.8057      1395.2508      2574.3271      0             -3887.9397      0              0             -133.67481      103040.01      46.881551      46.881551      46.881551      0.81409969     1101.6097      600.56433      335.07641    
     38500   77000          387.0665      -178.73771      5351.3919      5620.3784      4152.4244      1467.9541      1391.356       1397.4856      2561.6625      0             -3882.55        0              0             -133.48024      103190.21      46.904319      46.904319      46.904319      0.81291474    -435.01382     -191.53813      90.338819    
     39000   78000          393.88493     -557.30588      4880.6233      5726.8134      4225.5721      1501.2413      1439.4599      1434.9353      2493.7784      0             -3866.9322      0              0             -132.29915      104111.43      47.043483      47.043483      47.043483      0.80572175    -358.28165     -385.65374     -927.98224    
     39500   79000          396.09755      414.97803      6401.0794      5778.0321      4249.3089      1528.7232      1433.6617      1386.5499      2589.6303      0             -3881.1187      0              0             -133.79364      102948.5       46.867667      46.867667      46.867667      0.81482339    -197.37009      395.41061      1046.8936    
     40000   80000          383.00105      312.56717      6220.8154      5751.479       4108.8105      1642.6684      1468.8552      1428.7786      2604.9732      0             -3859.9385      0              0             -133.77978      102959.16      46.869285      46.869285      46.869285      0.81473902    -12.315149      156.11541      793.90125    
     40500   81000          389.1338       1056.1384      7219.537       5627.4258      4174.6022      1452.8235      1433.5558      1348.3928      2536.397       0             -3865.5222      0              0             -133.25354      103365.76      46.930902      46.930902      46.930902      0.81153413     996.01371      1337.6498      834.75162    
     41000   82000          392.55031     -345.39373      5263.2868      5786.7902      4211.2543      1575.5359      1409.1375      1381.0975      2602.8054      0             -3817.5045      0              0             -132.53371      103927.17      47.015714      47.015714      47.015714      0.80715025    -191.46745     -588.85463     -255.85912    
     41500   83000          379.50779      98.628247      5665.7048      5516.0945      4071.335       1444.7595      1377.0112      1419.7493      2485.2379      0             -3837.2389      0              0             -132.42535      104012.21      47.028534      47.028534      47.028534      0.80649033    -442.81472      408.18762      330.51184    
     42000   84000          384.80736      157.8964       5895.785       5656.7873      4128.1884      1528.5988      1401.2951      1376.9358      2589.58        0             -3839.2121      0              0             -132.7119       103787.63      46.994662      46.994662      46.994662      0.80823546    -43.545969     -13.518565      530.75374    
     42500   85000          392.68979     -735.7662       4582.1351      5699.622       4212.7507      1486.8713      1385.6926      1369.4978      2588.1536      0             -3856.4728      0              0             -132.26008      104142.19      47.048116      47.048116      47.048116      0.80548376    -1217.3419     -686.21069     -303.74599    
     43000   86000          388.50743     -168.75727      5478.5536      5731.7946      4167.8826      1563.912       1421.1559      1431.2284      2581.6393      0             -3870.1116      0              0             -133.8628       102895.31      46.859594      46.859594      46.859594      0.81524458     396.6669      -176.01897     -726.91974    
     43500   87000          383.42772     -605.71291      4645.7071      5562.567       4113.3878      1449.1791      1405.61        1317.147       2562.2595      0             -3835.8374      0              0             -132.70742      103791.14      46.995191      46.995191      46.995191      0.80820817    -266.47685     -772.16141     -778.50045    
     44000   88000          383.99102      538.27324      6459.2358      5644.3975      4119.4308      1524.9666      1419.8311      1408.2467      2528.1944      0             -3831.3055      0              0             -132.6975       103798.9       46.996363      46.996363      46.996363      0.80814772     886.75309      837.49932     -109.43269    
     44500   89000          391.26041      184.74056      6038.2428      5756.6167      4197.4164      1559.2004      1462.4893      1402.3535      2484.0022      0             -3789.6446      0              0             -131.77129      104528.49      47.106217      47.106217      47.106217      0.80250698     558.47694      304.33076     -308.58601    
     45000   90000          385.064        246.84071      6117.7078      5745.4727      4130.9418      1614.5309      1440.8282      1448.3836      2590.5431      0             -3865.2239      0              0             -133.20816      103400.97      46.936231      46.936231      46.936231      0.81125776     12.785039      105.11519      622.62191    
     45500   91000          388.73928     -68.436966      5627.4159      5731.8003      4170.3699      1561.4304      1430.1459      1375.7999      2557.6289      0             -3802.1443      0              0             -131.70022      104584.9       47.114689      47.114689      47.114689      0.80207413     640.51137     -623.4916      -222.33067    
     46000   92000          394.44697     -224.27381      5351.7826      5692.1507      4231.6017      1460.5491      1419.9676      1389.0493      2500.6252      0             -3849.0931      0              0             -132.36133      104062.53      47.036116      47.036116      47.036116      0.8061004     -523.79667     -8.9296641     -140.0951     
     46500   93000          390.32333      803.0327       6911.6271      5698.7697      4187.3634      1511.4063      1407.4307      1382.7636      2551.377       0             -3830.165       0              0             -133.00099      103562.04      46.960589      46.960589      46.960589      0.80999606    -58.702202      1713.4534      754.34692    
     47000   94000          390.82049      9.3691277      5712.96        5698.9015      4192.697       1506.2045      1416.2668      1410.1038      2560.7092      0             -3880.8753      0              0             -133.87234      102887.97      46.858481      46.858481      46.858481      0.81530271     345.98759     -417.01255      99.132345    
     47500   95000          395.21629     -80.944615      5655.0302      5778.1593      4239.8548      1538.3045      1418.5209      1417.9625      2522.9981      0             -3821.177       0              0             -132.05619      104302.98      47.072316      47.072316      47.072316      0.8042421      736.99536     -141.62605     -838.20315    
     48000   96000          390.77072      473.20341      6449.485       5734.4726      4192.163       1542.3096      1433.4602      1378.0086      2569.8246      0             -3838.9838      0              0             -132.94306      103607.17      46.967409      46.967409      46.967409      0.80964325     797.51058      599.63271      22.466929    
     48500   97000          401.43768      271.1625       6266.2651      5856.2271      4306.5975      1549.6295      1449.478       1421.3142      2523.463       0             -3844.6257      0              0             -132.84243      103685.66      46.979266      46.979266      46.979266      0.80903037    -113.39883      941.40501     -14.518677    
     49000   98000          393.87404      906.41151      7156.745       5788.2191      4225.4552      1562.7639      1432.9642      1423.4989      2575.4779      0             -3869.1771      0              0             -133.04659      103526.55      46.955224      46.955224      46.955224      0.81027373     550.15855      1242.3288      926.74716    
     49500   99000          388.09869      27.915732      5769.945       5727.7507      4163.4976      1564.253       1412.9156      1404.1376      2599.2519      0             -3852.0521      0              0             -132.90026      103640.54      46.972451      46.972451      46.972451      0.80938255     42.280357     -56.490163      97.957       
     50000   100000         390.24003      594.16686      6662.7175      5763.1106      4186.4698      1576.6408      1398.7553      1409.8608      2568.094       0             -3800.0692      0              0             -132.67437      103816.99      46.999093      46.999093      46.999093      0.80800691     1579.6586      195.49755      7.3444241    
     50500   101000         398.56495     -563.52712      4991.6619      5853.7199      4275.7791      1577.9408      1441.5227      1334.8554      2616.8972      0             -3815.3345      0              0             -131.3136       104892.82      47.160882      47.160882      47.160882      0.79971959    -1459.1339     -415.07321      183.62572    
     51000   102000         394.19244     -1095.0179      4192.7522      5868.0345      4228.871       1639.1635      1480.2707      1373.254       2566.0822      0             -3780.4435      0              0             -131.29996      104903.72      47.162516      47.162516      47.162516      0.7996365     -857.63736     -1243.5113     -1183.9051    
     51500   103000         383.67445      26.02553       5650.5917      5611.0352      4116.0347      1495.0005      1415.6911      1373.6928      2554.4346      0             -3848.818       0              0             -132.16384      104218.02      47.059533      47.059533      47.059533      0.80489767     1037.0235     -354.51643     -604.43052    
     52000   104000         386.62613     -45.823456      5595.0143      5664.8381      4147.7002      1517.1379      1439.0968      1349.803       2580.0232      0             -3851.7851      0              0             -131.83057      104481.49      47.099155      47.099155      47.099155      0.80286799    -378.27165     -278.85337      519.65466    
     52500   105000         394.57263      3.0729911      5783.7428      5779.0792      4232.9497      1546.1295      1436.4515      1381.9509      2577.7364      0             -3850.0092      0              0             -132.36506      104059.59      47.035674      47.035674      47.035674      0.80612311    -210.10723     -446.27274      665.59894    
     53000   106000         391.59091     -20.293233      5720.3162      5751.0914      4200.9619      1550.1295      1441.1683      1380.8726      2551.9031      0             -3823.8145      0              0             -132.45906      103985.74      47.024545      47.024545      47.024545      0.80669562     654.24976     -43.116203     -672.01325    
     53500   107000         387.9698      -136.81207      5582.1421      5789.5238      4162.115       1627.4088      1444.2496      1394.8864      2585.3279      0             -3797.0551      0              0             -132.52118      103937         47.017196      47.017196      47.017196      0.80707393    -859.52873     -359.59309      808.68562    
     54000   108000         382.67605     -493.7522       5019.1449      5774.6691      4105.324       1669.3452      1448.0034      1437.8076      2575.9219      0             -3792.3877      0              0             -131.27802      104921.25      47.165143      47.165143      47.165143      0.7995029     -795.57528     -718.06588      32.384543    
     54500   109000         399.13565     -454.17646      5159.1451      5853.1158      4281.9014      1571.2144      1427.1363      1415.3835      2528.5849      0             -3799.8904      0              0             -131.46642      104770.89      47.142602      47.142602      47.142602      0.80065027    -145.95211     -1411.4793      194.90204    
     55000   110000         380.36042      337.79287      6216.9337      5701.5264      4080.482       1621.0445      1459.5105      1396.5392      2553.3194      0             -3788.3247      0              0             -131.65317      104622.28      47.120301      47.120301      47.120301      0.80178761    -10.263169      584.17109      439.47069    
     55500   111000         387.76232     -256.36891      5337.9376      5728.7021      4159.8891      1568.8131      1440.4801      1358.1686      2582.5351      0             -3812.3707      0              0             -131.78973      104513.87      47.10402       47.10402       47.10402       0.80261927    -249.68726     -1245.8205      726.401      
     56000   112000         390.94835      594.35325      6717.6721      5815.611       4194.0686      1621.5423      1461.8083      1399.8583      2553.5027      0             -3793.6268      0              0             -132.3549       104067.58      47.036877      47.036877      47.036877      0.80606128     1253.3087     -17.278168      547.02918    
     56500   113000         392.78231      36.250368      5847.2256      5792.5113      4213.7432      1578.768       1448.1456      1354.0196      2617.2474      0             -3840.6445      0              0             -133.08907      103493.5       46.950227      46.950227      46.950227      0.81053245    -336.89219      279.52883      166.11446    
     57000   114000         392.34268     -308.32673      5214.7134      5683.2056      4209.0269      1474.1786      1449.2961      1330.6806      2511.1497      0             -3816.9477      0              0             -132.20266      104187.42      47.054926      47.054926      47.054926      0.80513407     600.44696     -760.56663     -764.86051    
     57500   115000         390.12683      15.07148       5735.2923      5712.3578      4185.2554      1527.1023      1415.5294      1362.6464      2589.8428      0             -3840.9163      0              0             -132.00712      104341.75      47.078148      47.078148      47.078148      0.80394323    -218.42487     -211.96488      475.60419    
     58000   116000         388.48393     -1006.1016      4155.5627      5685.0531      4167.6305      1517.4226      1438.3631      1377.5678      2532.0374      0             -3830.5457      0              0             -132.13761      104238.71      47.062647      47.062647      47.062647      0.80473791    -966.6523      -1467.9039     -583.74858    
     58500   117000         394.14547     -407.26194      5211.8739      5828.5647      4228.3671      1600.1976      1437.418       1423.545       2572.3933      0             -3833.1586      0              0             -132.65931      103828.78      47.000872      47.000872      47.000872      0.80791513    -561.47209     -777.14039      116.82665    
     59000   118000         395.9912       56.613284      5925.7034      5839.2092      4248.168       1591.0412      1452.9788      1427.0726      2516.4907      0             -3805.5009      0              0             -131.48093      104759.33      47.140868      47.140868      47.140868      0.80073863    -260.69933      517.0085      -86.469319    
     59500   119000         391.13931     -385.10876      5165.1258      5751.0012      4196.1172      1554.8839      1421.6201      1412.0743      2529.6585      0             -3808.4689      0              0             -132.04123      104314.8       47.074095      47.074095      47.074095      0.80415094    -54.541709     -915.83965     -184.94494    
     60000   120000         389.97877     -222.59848      5512.5762      5846.6074      4183.667       1662.9403      1454.3872      1415.1877      2650.0581      0             -3856.6926      0              0             -133.86486      102893.73      46.859354      46.859354      46.859354      0.81525711    -6.7310886     -90.077315     -570.98703    
     60500   121000         393.35425     -385.94154      5191.1949      5777.037       4219.879       1557.158       1449.7956      1376.9751      2550.2245      0             -3819.8372      0              0             -132.33428      104083.8       47.039321      47.039321      47.039321      0.80593567    -1240.5952      231.36957     -148.59894    
     61000   122000         393.25726     -580.49928      5106.3898      5999.046       4218.8384      1780.2075      1491.8322      1401.7417      2646.6449      0             -3760.0113      0              0             -130.63179      105440.29      47.24279       47.24279       47.24279       0.79556724     44.782551     -373.97058     -1412.3098    
     61500   123000         393.58001      408.48909      6416.2174      5791.1318      4222.3009      1568.8309      1431.3887      1317.6225      2594.8028      0             -3774.9831      0              0             -131.27208      104926         47.165855      47.165855      47.165855      0.79946669     920.05336     -238.91154      544.32545    
     62000   124000         386.38312     -10.366549      5820.8855      5836.5663      4145.0932      1691.4731      1451.1566      1445.0246      2631.4476      0             -3836.1557      0              0             -132.8001       103718.7       46.984256      46.984256      46.984256      0.80877262     90.24626       342.69672     -464.04263    
     62500   125000         392.69567      178.71561      6036.114       5765.6456      4212.8138      1552.8318      1419.4708      1377.7251      2622.8587      0             -3867.2229      0              0             -132.73248      103771.54      46.992233      46.992233      46.992233      0.8083608     -271.14844      864.76916     -57.473905    
     63000   126000         385.31451     -247.64475      5407.9979      5784.8509      4133.6292      1651.2217      1446.735       1422.4513      2612.2636      0             -3830.2282      0              0             -132.00442      104343.88      47.078469      47.078469      47.078469      0.80392679    -450.16632     -438.62639      145.85846    
     63500   127000         387.61557     -408.61984      5161.5578      5784.9432      4158.3147      1626.6284      1434.0281      1438.1731      2586.0447      0             -3831.6174      0              0             -131.67225      104607.12      47.118025      47.118025      47.118025      0.80190379    -527.22876      257.21409     -955.84484    
     64000   128000         392.86158     -388.23612      5175.6794      5757.35        4214.5937      1542.7564      1431.0074      1416.9042      2588.9131      0             -3894.0683      0              0             -134.07572      102731.9       46.834776      46.834776      46.834776      0.81654132    -550.61948     -405.50438     -208.58448    
     64500   129000         390.25895     -246.41444      5288.6207      5661.397       4186.6728      1474.7242      1364.8043      1408.4201      2564.1455      0             -3862.6458      0              0             -132.78505      103730.46      46.986031      46.986031      46.986031      0.80868094    -808.67143     -316.25969      385.68779    
     65000   130000         397.46219      84.452145      5934.033       5805.7536      4263.9487      1541.8049      1410.1924      1352.859       2600.6073      0             -3821.8538      0              0             -132.24681      104152.64      47.049689      47.049689      47.049689      0.80540297     348.87309      293.84292     -389.35958    
     65500   131000         388.28591      551.34151      6495.95        5664.6559      4165.5062      1499.1497      1427.3529      1345.7064      2620.083       0             -3893.9927      0              0             -133.22857      103385.14      46.933835      46.933835      46.933835      0.81138203     1187.053       467.78268     -0.81114713   
     66000   132000         381.99753     -686.79049      4663.9852      5702.7966      4098.0448      1604.7518      1439.858       1403.0469      2607.0807      0             -3845.2338      0              0             -132.80639      103713.79      46.983515      46.983515      46.983515      0.80881087    -1007.5577     -812.17989     -240.63391    
     66500   133000         386.49731     -327.07876      5268.7355      5767.1823      4146.3181      1620.8642      1400.5799      1441.9145      2612.3812      0             -3834.0115      0              0             -131.815        104493.83      47.101009      47.101009      47.101009      0.80277321    -790.40659     -282.66225      91.832562    
     67000   134000         388.81303      530.20685      6475.7301      5676.6263      4171.1611      1505.4652      1418.3977      1407.2709      2541.522       0             -3861.7254      0              0             -133.28261      103343.22      46.927491      46.927491      46.927491      0.81171114     353.17535      965.08974      272.35546    
     67500   135000         383.76425      502.89308      6346.3759      5588.2023      4116.9981      1471.2043      1354.9265      1425.7642      2572.4772      0             -3881.9636      0              0             -133.24115      103375.37      46.932357      46.932357      46.932357      0.81145868     821.13261      652.78019      34.766452    
     68000   136000         395.06847     -283.20438      5233.5191      5665.8996      4238.269       1427.6307      1405.5955      1321.5766      2521.4206      0             -3820.962       0              0             -131.57251      104686.41      47.129928      47.129928      47.129928      0.80129638    -343.95448      3.2922924     -508.95095    
     68500   137000         397.62227      684.01222      6789.4853      5755.9251      4265.666       1490.2591      1376.5165      1399.0395      2521.808       0             -3807.1049      0              0             -132.94115      103608.66      46.967634      46.967634      46.967634      0.80963161     1151.8149      297.57153      602.65022    
     69000   138000         389.28671     -387.26011      5146.7364      5734.3752      4176.2427      1558.1325      1442.6434      1405.9911      2541.7546      0             -3832.2566      0              0             -132.38039      104047.54      47.033859      47.033859      47.033859      0.80621648    -288.87687     -391.95208     -480.95138    
     69500   139000         390.16056     -459.00139      5145.3285      5848.5431      4185.6173      1662.9258      1457.9086      1393.9916      2594.9798      0             -3783.9542      0              0             -131.11655      105050.46      47.184497      47.184497      47.184497      0.79851949    -85.849713     -705.55977     -585.59469    
     70000   140000         393.35454     -78.39418       5650.1763      5769.871       4219.882       1549.989       1402.7216      1372.374       2572.6563      0             -3797.763       0              0             -131.56493      104692.45      47.130833      47.130833      47.130833      0.80125019    -347.91379      108.82609      3.9051598    
     70500   141000         380.35476     -228.98633      5325.4007      5673.8708      4080.4213      1593.4496      1434.8614      1406.9466      2558.6606      0             -3807.019       0              0             -132.00042      104347.04      47.078945      47.078945      47.078945      0.80390244    -368.84498      262.94803     -581.06203    
     71000   142000         385.88812     -123.78972      5505.7796      5692.5421      4139.7828      1552.7593      1411.2961      1375.4791      2624.551       0             -3858.5668      0              0             -133.14546      103449.67      46.943598      46.943598      46.943598      0.81087587     630.42082      260.51196     -1262.3019    
     71500   143000         389.17541      237.34066      6155.2587      5792.914       4175.0487      1617.8653      1443.1211      1366.7651      2636.1521      0             -3828.173       0              0             -131.57749      104682.45      47.129333      47.129333      47.129333      0.8013267      249.22363      342.17191      120.62645    
     72000   144000         383.07285     -9.2009098      5749.069       5763.0549      4109.5808      1653.4741      1425.8485      1401.2145      2629.7685      0             -3803.3573      0              0             -132.15148      104227.77      47.061         47.061         47.061         0.80482238     154.81014      67.341513     -249.75439    
     72500   145000         384.97212     -429.1894       5119.0266      5773.3406      4129.956       1643.3846      1432.2856      1453.6192      2592.1793      0             -3834.6995      0              0             -131.7632       104534.91      47.107181      47.107181      47.107181      0.80245769    -1109.5403     -128.50367     -49.524225    
     73000   146000         387.31703     -58.664926      5683.1844      5772.8866      4155.112       1617.7745      1427.0686      1402.6258      2605.1448      0             -3817.0647      0              0             -131.37327      104845.18      47.153741      47.153741      47.153741      0.80008299    -144.06178      466.0279      -497.9609     
     73500   147000         392.77432      553.6537       6550.0637      5705.7842      4213.6575      1492.1267      1418.3838      1376.0606      2497.5835      0             -3799.9012      0              0             -131.72958      104561.59      47.111188      47.111188      47.111188      0.80225296     742.01423      232.80867      686.13818    
     74000   148000         391.17891      138.93463      6159.8759      5947.9661      4196.5421      1751.4239      1453.8124      1441.0338      2664.1042      0             -3807.5266      0              0             -131.70153      104583.86      47.114532      47.114532      47.114532      0.80208214     304.15202      185.84866     -73.196774    
     74500   149000         388.35373     -405.16185      5085.8167      5696.1484      4166.2338      1529.9146      1437.4296      1407.3486      2562.8965      0             -3877.7601      0              0             -133.35029      103290.77      46.91955       46.91955       46.91955       0.81212335     10.218216     -1197.4003     -28.30343     
     75000   150000         399.38018     -70.442547      5638.6664      5746.1019      4284.5248      1461.5771      1400.8787      1366.9259      2502.0363      0             -3808.2638      0              0             -131.70996      104577.16      47.113527      47.113527      47.113527      0.8021335      176.96233      235.65956     -623.94953    
     75500   151000         393.10116     -576.26487      4914.4774      5789.1893      4217.1638      1572.0256      1407.5342      1358.946       2631.7646      0             -3826.2193      0              0             -132.33919      104079.94      47.038739      47.038739      47.038739      0.80596556    -426.8909      -1089.8107     -212.09299    
     76000   152000         390.29119      1017.9687      7270.6113      5737.367       4187.0186      1550.3483      1429.6576      1424.2748      2537.5685      0             -3841.1526      0              0             -133.36886      103276.39      46.917373      46.917373      46.917373      0.8122364      1028.6439      1645.09        380.17231    
     76500   153000         381.92447     -295.41945      5184.7916      5633.9503      4097.261       1536.6892      1400.9245      1392.3546      2555.4663      0             -3812.0562      0              0             -132.12065      104252.09      47.06466       47.06466       47.06466       0.80463462    -125.40316     -856.42181      95.566625    
     77000   154000         392.85403     -804.44958      4627.5854      5850.0157      4214.5126      1635.5031      1450.1384      1405.938       2600.519       0             -3821.0923      0              0             -132.19228      104195.6       47.056157      47.056157      47.056157      0.80507088    -1323.6919     -1119.8037      30.146785    
     77500   155000         387.48924      59.110652      5842.4067      5753.1191      4156.9596      1596.1596      1413.5831      1405.3381      2596.9814      0             -3819.7431      0              0             -132.98602      103573.7       46.96235       46.96235       46.96235       0.8099049      374.66639     -191.63881     -5.6956258    
     78000   156000         383.72683     -210.81286      5440.4018      5763.1008      4116.5966      1646.5042      1445.1103      1413.0488      2591.4192      0             -3803.0741      0              0             -131.22932      104960.18      47.170976      47.170976      47.170976      0.79920633    -464.73946     -153.39705     -14.302082    
     78500   157000         384.94395     -817.9538       4624.3288      5870.2667      4129.6538      1740.6129      1473.9919      1469.6443      2598.3683      0             -3801.3916      0              0             -131.87539      104445.98      47.093819      47.093819      47.093819      0.80314096    -592.67381     -1839.4932     -21.694368    
     79000   158000         392.98984      727.67488      6901.879       5798.7695      4215.9696      1582.7999      1392.9125      1418.3097      2622.5659      0             -3850.9882      0              0             -132.51046      103945.41      47.018464      47.018464      47.018464      0.80700863     982.97331      43.375507      1156.6758    
     79500   159000         392.40438     -721.15659      4886.5186      5984.1451      4209.6889      1774.4562      1460.9779      1405.1488      2710.1569      0             -3801.8274      0              0             -131.97947      104363.61      47.081436      47.081436      47.081436      0.80377483    -603.83586     -485.32132     -1074.3126    
     80000   160000         389.24822     -589.6428       4893.2995      5804.2154      4175.8297      1628.3857      1373.998       1410.5215      2586.0906      0             -3742.2244      0              0             -130.02955      105928.64      47.315613      47.315613      47.315613      0.79189955    -325.83273     -644.4704      -798.62526    
     80500   161000         387.28329     -548.6592       5080.2586      5932.1191      4154.7501      1777.3691      1428.4168      1439.5312      2633.4136      0             -3723.9926      0              0             -129.37952      106460.86      47.394722      47.394722      47.394722      0.78794072    -1240.915      -106.67649     -298.38612    
     81000   162000         392.68889     -190.66538      5620.9498      5913.2796      4212.741       1700.5386      1421.3689      1436.2961      2636.0111      0             -3793.1375      0              0             -131.01775      105129.68      47.196354      47.196354      47.196354      0.79791782     54.157389     -1125.9704      499.81689    
     81500   163000         392.53034     -26.891189      5969.0303      6009.8457      4211.0402      1798.8055      1443.3793      1505.4473      2659.4063      0             -3809.4274      0              0             -132.34789      104073.09      47.037708      47.037708      47.037708      0.80601857    -444.08736      882.79742     -519.38363    
     82000   164000         390.74495     -350.37339      5293.7626      5829.0143      4191.8865      1637.1278      1406.1436      1413.1789      2625.0492      0             -3807.244       0              0             -131.49354      104749.28      47.13936       47.13936       47.13936       0.80081547    -423.1623      -730.20447      102.2466     
     82500   165000         391.7204      -5.9492312      5773.7575      5782.8573      4202.3512      1580.5061      1424.4501      1381.6504      2550.722       0             -3776.3163      0              0             -131.32943      104880.18      47.158988      47.158988      47.158988      0.79981597     654.1348      -716.82211      44.839623    
     83000   166000         391.29291      78.606955      5882.3347      5762.8248      4197.765       1565.0598      1383.9199      1393.9311      2628.8844      0             -3841.6756      0              0             -132.12608      104247.81      47.064015      47.064015      47.064015      0.80466771    -106.00657     -25.734337      367.56177    
     83500   167000         385.73423      237.82132      6008.0101      5650.2456      4138.1319      1512.1137      1411.3464      1340.4466      2619.3311      0             -3859.0104      0              0             -133.53187      103150.31      46.898272      46.898272      46.898272      0.8132292     -282.33999      354.08443      641.71951    
     84000   168000         385.60193      506.03255      6481.106       5719.2255      4136.7126      1582.5129      1387.6957      1509.2694      2558.7447      0             -3873.1969      0              0             -133.42061      103236.33      46.911306      46.911306      46.911306      0.81255157     409.84052      1221.4088     -113.15163    
     84500   169000         384.26353      299.32629      6041.2287      5592.2228      4122.3543      1469.8685      1354.6321      1446.0739      2515.5506      0             -3846.3882      0              0             -133.91345      102856.39      46.853686      46.853686      46.853686      0.81555304    -234.4363       268.36994      864.04523    
     85000   170000         395.08463      533.99487      6514.7715      5709.9845      4238.4424      1471.5421      1400.711       1395.5697      2560.6143      0             -3885.353       0              0             -133.2869       103339.89      46.926986      46.926986      46.926986      0.8117373      391.68998      740.73085      469.56379    
     85500   171000         393.81656     -237.4175       5347.7619      5707.4953      4224.8386      1482.6566      1336.6284      1395.3461      2577.0923      0             -3826.4101      0              0             -132.57553      103894.39      47.01077       47.01077       47.01077       0.80740494    -375.94467     -132.98368     -203.32415    
     86000   172000         397.52408     -571.19525      4991.4798      5865.6221      4264.6126      1601.0095      1374.3177      1439.3782      2556.6481      0             -3769.3346      0              0             -131.26043      104935.31      47.16725       47.16725       47.16725       0.79939576    -1526.9183     -277.70834      91.040915    
     86500   173000         394.89984     -311.30105      5389.3022      5869.1701      4236.4599      1632.7102      1455.7645      1437.0315      2491.9558      0             -3752.0416      0              0             -130.31375      105697.62      47.281191      47.281191      47.281191      0.79363036    -760.16868     -577.73459      404.00011    
     87000   174000         395.5641      -188.2111       5555.3104      5842.3911      4243.5861      1598.805       1352.0326      1404.9387      2614.9569      0             -3773.1231      0              0             -131.69598      104588.26      47.115194      47.115194      47.115194      0.80204836    -36.808442     -42.254286     -485.57058    
     87500   175000         385.57682     -74.270439      5648.4204      5761.0007      4136.4433      1624.5575      1401.7546      1426.7484      2603.904       0             -3807.8495      0              0             -132.52106      103937.09      47.01721       47.01721       47.01721       0.80707322    -67.130716     -334.35847      178.67787    
     88000   176000         395.21726      1123.7279      7579.7936      5886.2751      4239.8653      1646.4098      1449.5494      1428.2185      2575.8358      0             -3807.1939      0              0             -133.29153      103336.3       46.926444      46.926444      46.926444      0.81176547     596.28204      1679.4817      1095.4199    
     88500   177000         382.47731      78.029365      5856.4623      5736.791       4103.1918      1633.5992      1444.1792      1439.8917      2554.2861      0             -3804.7577      0              0             -130.97836      105161.3       47.201085      47.201085      47.201085      0.7976779      131.1763       612.7944      -509.8826     
     89000   178000         390.3637       90.977347      5893.5534      5755.3246      4187.7966      1567.528       1424.3574      1363.094       2603.7494      0             -3823.6728      0              0             -132.21055      104181.2       47.05399       47.05399       47.05399       0.80518212     43.638584     -99.440001      328.73346    
     89500   179000         389.6801       131.76948      5881.2383      5681.8725      4180.4629      1501.4096      1455.9098      1332.3024      2536.1146      0             -3822.9172      0              0             -132.76861      103743.3       46.987971      46.987971      46.987971      0.80858081     138.48722      421.6664      -164.84517    
     90000   180000         382.68561     -149.23267      5324.5368      5550.55        4105.4264      1445.1236      1405.1902      1335.9249      2550.0305      0             -3846.0221      0              0             -132.63603      103847         47.003621      47.003621      47.003621      0.80777341    -204.78546     -70.802003     -172.11055    
     90500   181000         390.34522      878.85512      7038.8207      5711.7629      4187.5983      1524.1647      1403.9159      1429.8252      2533.6771      0             -3843.2535      0              0             -133.03283      103537.25      46.956842      46.956842      46.956842      0.81018997     691.00579      1219.1372      726.42233    
     91000   182000         399.34144      406.76955      6418.7419      5808.4228      4284.1092      1524.3136      1405.793       1415.887       2567.6204      0             -3864.9868      0              0             -133.88219      102880.41      46.857332      46.857332      46.857332      0.81536268     527.23831      168.38726      524.68309    
     91500   183000         396.22994      628.10281      6721.0047      5771.1899      4250.7292      1520.4607      1391.741       1411.2057      2554.33        0             -3836.816       0              0             -132.83826      103688.91      46.979757      46.979757      46.979757      0.80900501     1693.8361     -32.691658      223.16402    
     92000   184000         390.69851     -88.555187      5602.3025      5737.3686      4191.3884      1545.9802      1418.8233      1357.2021      2571.0638      0             -3801.109       0              0             -131.70405      104581.86      47.114232      47.114232      47.114232      0.80209747    -618.68465      202.0681       150.95099    
     92500   185000         394.41812     -989.04748      4309.3751      5802.822       4231.2921      1571.5298      1427.6134      1405.3903      2600.6758      0             -3862.1498      0              0             -133.0328       103537.28      46.956846      46.956846      46.956846      0.81018975    -1461.1744     -480.9373      -1025.0307    
     93000   186000         384.31748     -472.39988      5021.2194      5736.2728      4122.9331      1613.3397      1430.671       1432.346       2592.477       0             -3842.1543      0              0             -132.7097       103789.36      46.994923      46.994923      46.994923      0.80822202    -520.54416      257.48441     -1154.1399    
     93500   187000         391.09959     -107.36516      5495.6691      5656.4601      4195.6911      1460.769       1378.5969      1397.3532      2558.0913      0             -3873.2724      0              0             -134.13215      102688.69      46.828207      46.828207      46.828207      0.81688496     114.6479      -186.98834     -249.75505    
     94000   188000         400.10928     -135.52913      5560.322       5764.0219      4292.3464      1471.6754      1422.9601      1365.9838      2568.6951      0             -3885.9637      0              0             -133.65132      103058.12      46.884297      46.884297      46.884297      0.81395666    -327.70359      459.84291     -538.7267     
     94500   189000         396.55912     -19.456695      5886.5057      5916.0018      4254.2606      1661.7411      1472.9146      1430.312       2604.3087      0             -3845.7941      0              0             -132.50618      103948.77      47.01897       47.01897       47.01897       0.80698257    -45.090043     -943.42222      930.14218    
     95000   190000         395.88587     -246.37215      5384.1411      5753.2923      4247.038       1506.2543      1377.6894      1400.2947      2624.5024      0             -3896.2322      0              0             -134.06601      102739.34      46.835907      46.835907      46.835907      0.81648217    -529.13615     -48.490453     -161.48983    
     95500   191000         390.59492     -20.017803      5784.9285      5815.5429      4190.277       1625.2659      1451.3225      1435.658       2520.4839      0             -3782.1985      0              0             -131.34721      104865.98      47.15686       47.15686       47.15686       0.79992425    -482.99634      442.64578     -19.702848    
     96000   192000         383.16207      156.99951      5850.7814      5611.9391      4110.5379      1501.4012      1404.9158      1402.3441      2484.5015      0             -3790.3602      0              0             -132.04392      104312.67      47.073775      47.073775      47.073775      0.80416732     491.19868      400.57787     -420.77801    
     96500   193000         382.33497     -611.89523      4745.12        5681.8553      4101.6648      1580.1905      1442.3         1371.8393      2555.9049      0             -3789.8537      0              0             -131.21743      104969.7       47.172401      47.172401      47.172401      0.7991339     -372.26916     -1651.3862      187.96964    
     97000   194000         392.59679      736.88249      6900.0639      5774.0822      4211.753       1562.3292      1405.7542      1336.5279      2615.5306      0             -3795.4835      0              0             -131.46141      104774.89      47.143201      47.143201      47.143201      0.80061976     596.28409      89.414734      1524.9486    
     97500   195000         401.74018     -806.58749      4695.3752      5920.7313      4309.8427      1610.8886      1406.2195      1442.3351      2585.4654      0             -3823.1314      0              0             -132.22712      104168.15      47.052024      47.052024      47.052024      0.80528306    -1087.1376     -311.77667     -1020.8482    
     98000   196000         381.37813      375.60414      6344.7905      5765.4744      4091.3999      1674.0745      1446.9766      1448.5286      2535.3129      0             -3756.7437      0              0             -130.24052      105757.05      47.290051      47.290051      47.290051      0.79318438     572.43559      510.42447      43.952367    
     98500   197000         392.99256     -150.33702      5568.383       5798.2606      4215.9988      1582.2618      1415.323       1386.8203      2593.0874      0             -3812.9689      0              0             -131.37136      104846.71      47.15397       47.15397       47.15397       0.80007132    -384.91796      60.477177     -126.57028    
     99000   198000         388.19766     -15.442502      5628.108       5651.8399      4164.5594      1487.2805      1366.161       1306.0016      2579.8745      0             -3764.7566      0              0             -130.71214      105375.48      47.233107      47.233107      47.233107      0.7960566      966.39549     -509.16221     -503.56079    
     99500   199000         392.16066      287.05768      6272.2022      5829.4229      4207.0742      1622.3486      1380.8846      1415.928       2606.4592      0             -3780.9231      0              0             -130.23064      105765.08      47.291247      47.291247      47.291247      0.79312418    -268.31568      312.81559      816.67312    
    100000   200000         394.73322      381.02116      6470.7775      5889.7735      4234.6725      1655.101       1425.0471      1416.3022      2584.8119      0             -3771.0602      0              0             -131.73505      104557.25      47.110537      47.110537      47.110537      0.80228625     1271.9177     -334.6671       205.81292    
    100500   201000         391.05161      871.88566      7079.5752      5764.8346      4195.1764      1569.6582      1403.0539      1468.2107      2573.0931      0             -3874.6995      0              0             -133.2143       103396.22      46.935511      46.935511      46.935511      0.81129511     1449.0138      566.48766      600.15555    
    101000   202000         396.19968     -727.13014      4749.7747      5861.9947      4250.4045      1611.5902      1420.9919      1449.5938      2566.3918      0             -3825.3874      0              0             -131.32664      104882.41      47.159322      47.159322      47.159322      0.79979899    -1047.7207     -579.82666     -553.8431     
    101500   203000         383.78638     -301.18303      5291.3981      5748.5913      4117.2355      1631.3559      1394.2534      1458.1237      2605.9894      0             -3827.0106      0              0             -132.33114      104086.27      47.039693      47.039693      47.039693      0.80591653    -262.74884     -251.62548     -389.17476    
    102000   204000         403.53001     -336.44803      5523.7455      6032.7137      4329.0438      1703.6699      1444.3892      1431.4121      2628.0778      0             -3800.2092      0              0             -132.78797      103728.18      46.985688      46.985688      46.985688      0.80869869    -102.91693     -805.22883     -101.19833    
    102500   205000         391.20073     -516.85456      5023.7346      5808.9388      4196.7761      1612.1627      1408.7929      1409.6626      2616.9744      0             -3823.2671      0              0             -132.22607      104168.98      47.052149      47.052149      47.052149      0.80527665     335.57915     -913.70924     -972.43359    
    103000   206000         386.70048     -694.04581      4676.1113      5726.3953      4148.4978      1577.8975      1437.3805      1415.6741      2583.1244      0             -3858.2815      0              0             -132.74335      103763.04      46.990951      46.990951      46.990951      0.80842699    -654.85786     -741.32856     -685.95101    
    103500   207000         392.17418      385.92722      6327.5037      5740.1392      4207.2193      1532.9199      1358.4088      1415.2846      2564.3301      0             -3805.1036      0              0             -131.98638      104358.14      47.080614      47.080614      47.080614      0.80381694     179.60388     -235.18493      1213.3627    
    104000   208000         397.26829      1114.2621      7559.8275      5879.1797      4261.8685      1617.3112      1402.3823      1462.714       2599.1706      0             -3846.9557      0              0             -133.18092      103422.13      46.939431      46.939431      46.939431      0.81109185     1669.9645      814.20863      858.61308    
    104500   209000         395.60023      395.05528      6408.714       5809.6946      4243.9737      1565.721       1408.1217      1376.7629      2602.3446      0             -3821.5083      0              0             -132.4794       103969.78      47.022138      47.022138      47.022138      0.80681949     287.47808      616.92338      280.76439    
    105000   210000         385.32883      264.21305      6145.1064      5743.2304      4133.7827      1609.4476      1420.6729      1449.4891      2556.3538      0             -3817.0682      0              0             -132.06676      104294.63      47.071061      47.071061      47.071061      0.80430644    -391.24711      518.74932      665.13694    
    105500   211000         387.63317      172.70965      5981.8614      5718.6842      4158.5036      1560.1806      1441.058       1365.5588      2575.8143      0             -3822.2505      0              0             -131.82558      104485.44      47.099749      47.099749      47.099749      0.80283765    -350.20064      719.99913      148.33046    
    106000   212000         373.9153       79.307092      5703.9042      5583.6433      4011.3392      1572.3041      1412.9415      1432.7068      2558.0516      0             -3831.3958      0              0             -132.47038      103976.86      47.023205      47.023205      47.023205      0.80676457     24.87117       448.83031     -235.7802     
    106500   213000         392.11759      924.31167      7112.6353      5728.8421      4206.6122      1522.2299      1326.7673      1430.1423      2613.5415      0             -3848.2212      0              0             -134.17716      102654.24      46.82297       46.82297       46.82297       0.8171591      660.54666      1199.039       913.34932    
    107000   214000         388.50402     -82.273241      5656.6864      5781.859       4167.846       1614.0131      1427.5261      1381.6198      2619.0587      0             -3814.1915      0              0             -132.03238      104321.79      47.075146      47.075146      47.075146      0.80409704     515.25616      101.21633     -863.29222    
    107500   215000         390.74507      230.17669      6115.9425      5767.8049      4191.8879      1575.9171      1400.2649      1396.0075      2602.5061      0             -3822.8614      0              0             -132.81338      103708.33      46.98269       46.98269       46.98269       0.80885349     763.25335      22.876759     -95.600032    
    108000   216000         386.60304      324.27986      6194.8412      5705.2483      4147.4525      1557.7958      1432.7046      1401.9411      2549.1519      0             -3826.0019      0              0             -133.0504       103523.58      46.954775      46.954775      46.954775      0.81029697     862.6815      -485.52234      595.68042    
    108500   217000         389.50508     -544.45144      4876.2648      5705.4436      4178.5853      1526.8583      1405.8009      1389.9643      2521.166       0             -3790.0729      0              0             -131.89925      104427.09      47.090979      47.090979      47.090979      0.80328625    -777.42159     -116.69504     -739.2377     
    109000   218000         386.4235      -49.94365       5590.2625      5665.8537      4145.5263      1520.3274      1410.1153      1369.9956      2576.6552      0             -3836.4387      0              0             -132.72122      103780.35      46.993563      46.993563      46.993563      0.80829218    -181.70483     -257.08525      288.95913    
    109500   219000         382.1747      -183.98711      5427.6189      5709.2367      4099.9454      1609.2912      1429.1611      1419.715       2553.0285      0             -3792.6134      0              0             -131.23772      104953.47      47.16997       47.16997       47.16997       0.79925745    -393.09176      180.69991     -339.56947    
    110000   220000         385.73642      148.12273      6013.9559      5789.9845      4138.1554      1651.8291      1440.621       1437.474       2594.2226      0             -3820.4886      0              0             -132.84968      103679.99      46.978411      46.978411      46.978411      0.80907454     718.84474     -583.98969      309.51314    
    110500   221000         378.25272      13.1941        5625.2425      5605.1353      4057.8707      1547.2646      1427.1184      1343.7587      2579.7327      0             -3803.3452      0              0             -131.81368      104494.87      47.101166      47.101166      47.101166      0.80276517    -351.16757     -88.883415      479.63328    
    111000   222000         389.3722       406.68123      6370.1925      5755.1422      4177.1598      1577.9824      1447.5667      1369.4833      2597.4193      0             -3836.4869      0              0             -132.82347      103700.45      46.9815        46.9815        46.9815        0.80891494     433.31151     -115.05112      901.78331    
    111500   223000         399.74373     -16.209428      5810.6032      5835.1961      4288.4249      1546.7712      1428.386       1420.8416      2521.3245      0             -3823.7809      0              0             -132.40013      104032.03      47.03152       47.03152       47.03152       0.80633673    -358.21985      188.92857      120.663      
    112000   224000         386.52668     -625.97395      4714.9922      5661.8701      4146.6332      1515.2369      1396.83        1414.504       2555.3112      0             -3851.4083      0              0             -132.79864      103719.84      46.984428      46.984428      46.984428      0.80876372    -222.56259     -860.95764     -794.40163    
    112500   225000         393.83957      239.75465      6060.2617      5701.2608      4225.0854      1476.1754      1444.5374      1357.2741      2544.2037      0             -3869.8397      0              0             -134.15376      102672.14      46.825692      46.825692      46.825692      0.81701661     250.85562      183.78148      284.62683    
    113000   226000         390.46579      172.05682      5997.2578      5738.0627      4188.8918      1549.1709      1430.2578      1434.0113      2556.1725      0             -3871.2707      0              0             -133.3449       103294.94      46.920181      46.920181      46.920181      0.81209054     699.39761     -221.24374      38.016597    
    113500   227000         380.03185     -604.69944      4850.8731      5767.5199      4076.9571      1690.5628      1445.8001      1451.7604      2644.8749      0             -3851.8726      0              0             -132.51619      103940.92      47.017787      47.017787      47.017787      0.80704351     63.933061     -859.23714     -1018.7943    
    114000   228000         382.39767      1.9073644      5720.2417      5717.3398      4102.3375      1615.0024      1420.5988      1417.8503      2577.0853      0             -3800.532       0              0             -132.03321      104321.13      47.075047      47.075047      47.075047      0.80410214    -436.61092      355.51898      86.814041    
    114500   229000         400.66509      4.6830125      6035.4987      6028.3987      4298.3092      1730.0895      1455.7438      1474.2929      2623.3978      0             -3823.3451      0              0             -132.49532      103957.29      47.020255      47.020255      47.020255      0.80691642    -170.23507      223.12872     -38.844612    
    115000   230000         382.66597      373.94677      6198.3722      5636.0758      4105.2158      1530.8599      1448.9243      1356.196       2558.9723      0             -3833.2327      0              0             -133.59057      103104.99      46.891403      46.891403      46.891403      0.81358668     292.97518      574.71178      254.15336    
    115500   231000         394.90836      229.8884       6156.8806      5811.6         4236.5514      1575.0486      1394.282       1414.9697      2588.6765      0             -3822.8796      0              0             -133.74457      102986.27      46.873398      46.873398      46.873398      0.81452455     776.42826      22.854945     -109.61802    
    116000   232000         399.15407     -483.71233      5181.1288      5906.0685      4282.099       1623.9694      1471.9722      1395.7773      2638.0225      0             -3881.8025      0              0             -134.03451      102763.49      46.839575      46.839575      46.839575      0.81629033    -745.02841     -898.92972      192.82113    
    116500   233000         393.10963     -221.04984      5384.8934      5714.3399      4217.2547      1497.0852      1398.837       1425.1505      2572.266       0             -3899.1683      0              0             -134.78347      102192.46      46.752655      46.752655      46.752655      0.82085163    -55.965448     -36.332535     -570.85154    
    117000   234000         381.72734     -724.82877      4597.9917      5700.7062      4095.1462      1605.56        1385.7301      1384.5634      2656.9765      0             -3821.7099      0              0             -132.03944      104316.21      47.074307      47.074307      47.074307      0.80414007    -873.62886     -409.40697     -891.45047    
    117500   235000         398.31067      622.97813      6761.3994      5821.3391      4273.0512      1548.2879      1407.3483      1387.4484      2620.5217      0             -3867.0305      0              0             -133.12157      103468.23      46.946406      46.946406      46.946406      0.8107304      392.83525      511.29385      964.80529    
    118000   236000         395.15603     -232.58955      5522.7232      5875.6409      4239.2083      1636.4326      1450.8145      1449.5787      2553.1802      0             -3817.1408      0              0             -132.38782      104041.7       47.032978      47.032978      47.032978      0.80626177    -694.94348     -191.95023      189.12506    
    118500   237000         390.24091      484.28264      6385.0945      5657.4437      4186.4792      1470.9645      1425.0927      1336.2732      2548.0927      0             -3838.4941      0              0             -133.69256      103026.33      46.879475      46.879475      46.879475      0.81420782    -349.47142      487.73023      1314.5891    
    119000   238000         387.97305      331.39771      6282.6663      5783.1896      4162.1498      1621.0398      1457.2611      1410.5215      2633.0887      0             -3879.8315      0              0             -133.28019      103345.1       46.927774      46.927774      46.927774      0.81169642     29.88343       480.48234      483.82737    
    119500   239000         389.45392      159.03971      5973.4228      5733.0062      4178.0365      1554.9697      1407.8916      1363.541       2636.8837      0             -3853.3465      0              0             -132.88392      103653.28      46.974376      46.974376      46.974376      0.80928306     926.93592     -330.31309     -119.50371    
    120000   240000         388.14501      76.552994      5877.2899      5761.3244      4163.9945      1597.3299      1407.7925      1408.268       2642.7017      0             -3861.4323      0              0             -132.60646      103870.16      47.007115      47.007115      47.007115      0.80759329    -43.0427       -228.90335      501.60504    
    120500   241000         381.80948     -133.39288      5362.4074      5564.6488      4096.0274      1468.6213      1323.5021      1373.3261      2594.2511      0             -3822.458       0              0             -132.49331      103958.87      47.020493      47.020493      47.020493      0.80690418    -254.04082     -118.84726     -27.290563    
    121000   242000         390.69525      447.08956      6491.6696      5809.7046      4191.3534      1618.3512      1390.0604      1416.0938      2599.7027      0             -3787.5057      0              0             -131.69333      104590.37      47.11551       47.11551       47.11551       0.8020322      799.75121      257.58135      283.93612    
    121500   243000         389.47615     -86.906358      5589.8319      5721.9486      4178.275       1543.6736      1417.6328      1395.8017      2560.8687      0             -3830.6295      0              0             -132.13724      104239         47.06269       47.06269       47.06269       0.80473568    -115.35883     -293.6512       148.29095    
    122000   244000         394.14757     -539.64484      5096.1872      5912.4756      4228.3896      1684.086       1410.7438      1427.5396      2673.91        0             -3828.1075      0              0             -132.79929      103719.34      46.984352      46.984352      46.984352      0.80876764    -127.85993     -635.87563     -855.19897    
    122500   245000         385.45416      270.39975      6090.9367      5681.507       4135.1273      1546.3797      1412.7694      1345.6435      2638.774       0             -3850.8071      0              0             -132.66561      103823.85      47.000128      47.000128      47.000128      0.80795352    -163.02262      903.90297      70.318909    
    123000   246000         392.65148     -148.8202       5538.8508      5765.5614      4212.3398      1553.2217      1364.0802      1371.7007      2617.6804      0             -3800.2396      0              0             -131.86255      104456.15      47.095348      47.095348      47.095348      0.80306274    -60.74992      -885.9821       500.27143    
    123500   247000         394.13563     -92.174504      5799.1586      5938.8904      4228.2616      1710.6288      1418.3746      1463.7439      2669.2451      0             -3840.7348      0              0             -132.50952      103946.15      47.018575      47.018575      47.018575      0.80700291     47.899901      159.1982      -483.62161    
    124000   248000         382.62109      216.19477      5945.055       5617.7223      4104.7344      1512.9879      1376.0967      1363.8056      2581.5999      0             -3808.5143      0              0             -132.67441      103816.96      46.999089      46.999089      46.999089      0.80800712    -60.700873     -72.801027      782.0862     
    124500   249000         390.29173     -556.83434      4952.0718      5796.2707      4187.0245      1609.2462      1407.2512      1437.6606      2586.5256      0             -3822.1913      0              0             -132.499        103954.4       47.019819      47.019819      47.019819      0.80693887    -689.52001     -486.18307     -494.79995    
    125000   250000         386.82419      307.86099      6219.9114      5753.7988      4149.825       1603.9739      1444.432       1432.4058      2568.3065      0             -3841.1703      0              0             -132.67686      103815.04      46.998799      46.998799      46.998799      0.80802204     102.57718      395.49837      425.50741    
    125500   251000         385.54238      242.91666      6013.7677      5646.4844      4136.0738      1510.4107      1356.4911      1374.1268      2605.026       0             -3825.2332      0              0             -132.85795      103673.54      46.977436      46.977436      46.977436      0.80912489    -81.788172      569.46176      241.07639    
    126000   252000         388.5155       237.26993      6178.9882      5817.8867      4167.9692      1649.9175      1399.2854      1405.8405      2638.1197      0             -3793.3281      0              0             -131.99113      104354.39      47.080049      47.080049      47.080049      0.80384587     141.8492       298.42187      271.53872    
    126500   253000         394.17765     -130.11575      5569.7557      5765.6571      4228.7124      1536.9447      1391.0562      1409.5648      2586.5262      0             -3850.2026      0              0             -133.42086      103236.14      46.911277      46.911277      46.911277      0.81255309    -724.04817     -333.71011      667.41102    
    127000   254000         392.22656      472.59387      6562.4157      5856.7365      4207.7812      1648.9552      1472.5462      1404.2877      2655.2501      0             -3883.1288      0              0             -134.52783      102386.65      46.782251      46.782251      46.782251      0.81929473    -151.41462      434.41317      1134.7831    
    127500   255000         387.88081     -223.3367       5295.3018      5633.4457      4161.1603      1472.2854      1349.2037      1432.2756      2567.7207      0             -3876.9147      0              0             -132.67525      103816.3       46.998989      46.998989      46.998989      0.80801225    -615.82239     -154.19246      100.00474    
    128000   256000         383.41856     -951.85515      4249.1594      5693.9318      4113.2895      1580.6423      1417.1291      1396.5674      2613.0986      0             -3846.1529      0              0             -132.34356      104076.5       47.038221      47.038221      47.038221      0.80599218    -851.69        -1419.1882     -584.68731    
    128500   257000         388.35065     -604.58055      4913.576       5829.2701      4166.2007      1663.0695      1436.3366      1401.9329      2636.5331      0             -3811.7331      0              0             -132.62797      103853.32      47.004574      47.004574      47.004574      0.80772427    -1197.6773     -82.057022     -534.00732    
    129000   258000         391.34751      383.05376      6306.2567      5729.3806      4198.3508      1531.0298      1349.8338      1425.7591      2608.1885      0             -3852.7516      0              0             -133.38547      103263.53      46.915425      46.915425      46.915425      0.81233756     539.09468     -236.48602      846.55264    
    129500   259000         395.83098     -303.25086      5392.993       5853.3148      4246.4492      1606.8656      1355.8934      1438.7215      2638.3964      0             -3826.1456      0              0             -132.33412      104083.92      47.039339      47.039339      47.039339      0.80593473    -104.50464     -671.65314     -133.59481    
    130000   260000         382.92983     -231.21468      5294.3536      5645.2563      4108.0465      1537.2098      1384.0154      1370.1989      2587.4202      0             -3804.4247      0              0             -132.36101      104062.77      47.036153      47.036153      47.036153      0.80609849     534.67121     -244.2365      -984.07875    
    130500   261000         397.15886     -207.69869      5536.2187      5850.0811      4260.6946      1589.3865      1415.1959      1364.7905      2608.8206      0             -3799.4205      0              0             -132.93089      103616.66      46.968843      46.968843      46.968843      0.8095691     -262.55327     -446.7226       86.17981     
    131000   262000         391.99163      226.84844      6106.978       5762.5369      4205.2609      1557.276       1405.0693      1379.9193      2593.7708      0             -3821.4834      0              0             -132.29765      104112.61      47.043662      47.043662      47.043662      0.80571259     534.99789     -87.197329      232.74476    
    131500   263000         392.43277     -206.37691      5589.3226      5903.3483      4209.9934      1693.3549      1457.6489      1412.8068      2643.7008      0             -3820.8016      0              0             -132.01623      104334.55      47.077066      47.077066      47.077066      0.80399869    -433.84196     -330.85794      145.56917    
    132000   264000         388.75364     -137.98462      5473.1059      5680.5369      4170.5239      1510.013       1379.7517      1414.9048      2575.1227      0             -3859.7662      0              0             -133.62519      103078.27      46.887353      46.887353      46.887353      0.81379751     506.5418      -270.11805     -650.37761    
    132500   265000         389.91439     -472.76861      4987.3775      5687.6319      4182.9764      1504.6554      1363.2607      1442.4439      2628.6365      0             -3929.6856      0              0             -135.62014      101562.01      46.656314      46.656314      46.656314      0.82594706    -479.83739     -970.72178      32.253335    
    133000   266000         383.305        336.99724      6083.8526      5580.5227      4112.0712      1468.4515      1417.3713      1394.5756      2550.9952      0             -3894.4907      0              0             -134.49462      102411.93      46.786101      46.786101      46.786101      0.81909249    -87.956423      542.32846      556.61969    
    133500   267000         386.06103      808.61072      6825.0271      5605.8542      4141.6378      1464.2164      1385.6967      1428.4867      2495.1963      0             -3845.1633      0              0             -133.23108      103383.19      46.933539      46.933539      46.933539      0.81139735     451.13107      1510.0081      464.69294    
    134000   268000         397.78404      726.81272      6856.048       5771.3368      4267.4014      1503.9354      1389.4511      1386.3978      2601.5208      0             -3873.4344      0              0             -134.59835      102333         46.774079      46.774079      46.774079      0.81972423     383.99026      731.08879      1065.3591    
    134500   269000         381.95059      128.56542      5864.3954      5670.0451      4097.5412      1572.5038      1443.8096      1435.3037      2534.6101      0             -3841.2195      0              0             -132.88328      103653.78      46.974451      46.974451      46.974451      0.80927917     251.88164     -91.399906      225.21453    
    135000   270000         396.85914     -332.49509      5282.9528      5781.743       4257.4792      1524.2638      1392.6474      1414.218       2606.0336      0             -3888.6352      0              0             -133.90559      102862.43      46.854603      46.854603      46.854603      0.81550518    -176.51603     -703.256       -117.71324    
    135500   271000         390.62461     -312.75963      5280.0287      5751.6785      4190.5956      1561.083       1451.4814      1373.012       2602.8335      0             -3866.2439      0              0             -133.20558      103402.98      46.936534      46.936534      46.936534      0.81124202    -680.06319     -56.81124      -201.40447    
    136000   272000         392.70144     -127.43659      5628.7607      5820.1131      4212.8756      1607.2375      1390.7449      1435.0701      2628.0161      0             -3846.5936      0              0             -133.78011      102958.91      46.869247      46.869247      46.869247      0.81474102    -611.85169      491.0427      -261.50079    
    136500   273000         387.44791      217.8734       6029.8031      5700.5276      4156.5161      1544.0115      1328.6229      1389.4661      2669.2231      0             -3843.3005      0              0             -132.91566      103628.52      46.970636      46.970636      46.970636      0.80947639    -313.52768      672.25381      294.89406    
    137000   274000         385.33143     -515.97846      4993.7266      5778.8159      4133.8106      1645.0053      1427.3338      1398.3623      2655.3373      0             -3836.0282      0              0             -132.02126      104330.57      47.076467      47.076467      47.076467      0.80402936    -478.66454     -56.613092     -1012.6577    
    137500   275000         385.9416      -90.713207      5645.9329      5782.363       4140.3566      1642.0064      1435.0456      1439.4818      2635.5802      0             -3868.1012      0              0             -133.56477      103124.91      46.894422      46.894422      46.894422      0.81342953     1073.7065     -731.08492     -614.76116    
    138000   276000         400.69798     -249.55477      5600.937       5974.6619      4298.6621      1675.9999      1429.5603      1464.3196      2662.0006      0             -3879.8806      0              0             -134.13595      102685.78      46.827765      46.827765      46.827765      0.81690811    -672.53689      315.53927     -391.66668    
    138500   277000         390.40943      97.14825       5845.9608      5700.0397      4188.2872      1511.7526      1371.2339      1361.1868      2652.5466      0             -3873.2147      0              0             -133.73596      102992.9       46.874404      46.874404      46.874404      0.81447212     131.13518      442.92425     -282.61467    
    139000   278000         390.29372     -170.3677       5446.1797      5701.9229      4187.0458      1514.8771      1375.6462      1414.6502      2609.58        0             -3884.9993      0              0             -133.81798      102929.77      46.864825      46.864825      46.864825      0.81497164    -480.33745      83.540563     -114.30621    
    139500   279000         389.44327      291.76046      6220.9702      5783.0973      4177.9222      1605.1751      1430.5522      1422.8355      2658.7064      0             -3906.919       0              0             -133.84736      102907.18      46.861396      46.861396      46.861396      0.81515056    -97.37785       582.20425      390.45497    
    140000   280000         394.22237     -149.60343      5524.4885      5750.0298      4229.1921      1520.8377      1373.3767      1428.2288      2576.0295      0             -3856.7974      0              0             -133.24378      103373.34      46.932049      46.932049      46.932049      0.81147465    -359.9767      -161.98498      73.151384    
    140500   281000         400.7759      -51.512614      5620.022       5697.4292      4299.4979      1397.9313      1356.3269      1346.508       2586.2317      0             -3891.1353      0              0             -133.67909      103036.71      46.88105       46.88105       46.88105       0.81412579    -448.40293      291.2016       2.6634813    
    141000   282000         387.48703      311.3302       6163.8378      5693.763       4156.9358      1536.8272      1408.5786      1393.2861      2584.0375      0             -3849.0749      0              0             -133.04104      103530.87      46.955876      46.955876      46.955876      0.81023994     2.9255556      784.61993      146.4451     
    141500   283000         383.84196     -367.55797      5058.0308      5609.7006      4117.8318      1491.8688      1358.7305      1366.2841      2614.2297      0             -3847.3755      0              0             -133.83757      102914.71      46.862539      46.862539      46.862539      0.81509092     45.623353     -833.63264     -314.66462    
    142000   284000         388.56211     -335.64686      5140.1216      5645.0212      4168.4692      1476.552       1379.6771      1391.2543      2556.6961      0             -3851.0755      0              0             -133.53924      103144.62      46.89741       46.89741       46.89741       0.81327404    -130.12522     -91.048939     -785.76643    
    142500   285000         394.34815      20.066132      5780.6059      5750.4083      4230.5415      1519.8668      1371.3323      1406.3208      2641.3514      0             -3899.1377      0              0             -133.48179      103189.01      46.904137      46.904137      46.904137      0.81292421    -46.360575     -11.824837      118.38381    
    143000   286000         393.2885      -0.076378872    5701.9639      5702.0788      4219.1736      1482.9052      1357.0193      1362.7863      2636.7181      0             -3873.6184      0              0             -133.55275      103134.19      46.895829      46.895829      46.895829      0.81335633    -15.300595     -453.06328      468.13474    
    143500   287000         380.25964     -768.68004      4376.4084      5538.5445      4079.4009      1459.1436      1380.426       1404.9691      2535.4549      0             -3861.7064      0              0             -132.86787      103665.8       46.976267      46.976267      46.976267      0.8091853     -789.43663     -1017.6464     -498.9571     
    144000   288000         392.32271     -156.0305       5545.877       5779.0062      4208.8127      1570.1935      1422.6536      1429.9924      2630.7104      0             -3913.1629      0              0             -134.44488      102449.82      46.79187       46.79187       46.79187       0.81878958     64.737871     -259.91347     -272.91591    
    144500   289000         392.35627     -411.8692       5148.2903      5768.7168      4209.1728      1559.5441      1418.9341      1422.1852      2598.5881      0             -3880.1633      0              0             -133.35224      103289.26      46.919321      46.919321      46.919321      0.8121352     -624.64329     -491.77835     -119.18597    
    145000   290000         399.02755     -239.87966      5434.1553      5795.8884      4280.7417      1515.1467      1411.3588      1389.1862      2574.3596      0             -3859.7579      0              0             -133.20991      103399.62      46.936026      46.936026      46.936026      0.81126838    -204.18954     -358.42433     -157.02511    
    145500   291000         387.00173     -234.17147      5378.0175      5731.0387      4151.7296      1579.3091      1427.63        1439.6511      2602.6871      0             -3890.6592      0              0             -133.2492       103369.13      46.931412      46.931412      46.931412      0.81150771    -320.73777      722.98094     -1104.7576    
    146000   292000         381.05117      99.010722      5738.5229      5590.1322      4087.8923      1502.2399      1433.8577      1385.8589      2595.2332      0             -3912.7098      0              0             -134.03156      102765.76      46.839919      46.839919      46.839919      0.81627234     111.29577      91.093442      94.642948    
    146500   293000         398.3045       173.82356      6021.8383      5759.9034      4272.9849      1486.9185      1372.7042      1446.6444      2509.2297      0             -3841.6598      0              0             -133.30505      103325.82      46.924857      46.924857      46.924857      0.8118478      251.50513      354.11338     -84.147826    
    147000   294000         384.24719      156.10442      5939.9867      5706.5836      4122.179       1584.4046      1407.5264      1389.0012      2623.1106      0             -3835.2335      0              0             -134.35072      102521.63      46.802799      46.802799      46.802799      0.81821608    -471.09369      49.630719      889.77624    
    147500   295000         385.88192     -138.50118      5431.6477      5639.8824      4139.7163      1500.1661      1396.2763      1404.5493      2572.0994      0             -3872.7589      0              0             -133.60778      103091.7       46.889389      46.889389      46.889389      0.81369151    -534.00946     -84.414238      202.92017    
    148000   296000         391.70394      245.05741      6080.3972      5713.3348      4202.1745      1511.1603      1443.4115      1392.9928      2572.2648      0             -3897.5088      0              0             -134.10943      102706.08      46.830851      46.830851      46.830851      0.81674663     8.5627049      427.02868      299.58083    
    148500   297000         383.6891      -388.0875       5027.7776      5619.7181      4116.1919      1503.5262      1385.5442      1401.8957      2578.4263      0             -3862.3399      0              0             -131.69915      104585.75      47.114816      47.114816      47.114816      0.80206763    -913.30096     -712.65948      461.69794    
    149000   298000         396.2785       412.70823      6329.7358      5708.0544      4251.2501      1456.8043      1378.0951      1406.2225      2537.6835      0             -3865.1968      0              0             -133.35416      103287.77      46.919096      46.919096      46.919096      0.81214691     526.04745      946.60705     -234.52982    
    149500   299000         391.33623      147.69019      6011.6709      5788.5597      4198.2298      1590.3299      1431.6262      1406.7175      2610.9657      0             -3858.9795      0              0             -132.97248      103584.25      46.963945      46.963945      46.963945      0.8098224      364.56958      86.660546     -8.1595476    
    150000   300000         388.39072     -385.94767      5058.909       5648.2675      4166.6305      1481.6369      1384.9958      1380.2492      2534.6612      0             -3818.2692      0              0             -131.54678      104706.89      47.133         47.133         47.133         0.80113971    -184.16917     -404.43021     -569.24363    
    150500   301000         385.05429     -158.23422      5533.1344      5771.3452      4130.8375      1640.5077      1467.1063      1415.9041      2623.0481      0             -3865.5507      0              0             -133.43517      103225.07      46.909599      46.909599      46.909599      0.81264025    -260.31415      112.67422     -327.06274    
    151000   302000         392.02375     -99.939508      5484.783       5635.15        4205.6055      1429.5445      1369.4246      1376.275       2578.9787      0             -3895.1338      0              0             -133.51067      103166.69      46.900755      46.900755      46.900755      0.81310005    -161.75372      293.87896     -431.94376    
    151500   303000         394.7606      -282.91551      5305.9233      5728.6696      4234.9662      1493.7034      1418.3304      1435.7273      2558.5534      0             -3918.9077      0              0             -134.43374      102458.31      46.793163      46.793163      46.793163      0.81872168    -277.25094     -868.14117      296.64558    
    152000   304000         389.13348      340.61288      6056.7112      5539.9852      4174.5988      1365.3864      1353.7881      1304.6139      2563.9099      0             -3856.9255      0              0             -132.41346      104021.56      47.029943      47.029943      47.029943      0.80641788     373.89041      773.82233     -125.87411    
    152500   305000         388.97577      439.07444      6341.5951      5678.756       4172.9069      1505.8491      1415.3946      1425.1435      2546.7397      0             -3881.4287      0              0             -133.06425      103512.81      46.953146      46.953146      46.953146      0.81038132     1247.118       40.776047      29.329306    
    153000   306000         392.3225       15.968244      5757.7766      5733.575       4208.8104      1524.7646      1385.4534      1473.0719      2525.0426      0             -3858.8033      0              0             -132.53918      103922.88      47.015067      47.015067      47.015067      0.80718358     358.22112     -295.39196     -14.924422    
    153500   307000         384.77897      7.0420827      5642.4911      5631.885       4127.8839      1504.001       1391.8639      1425.2704      2552.8749      0             -3866.0081      0              0             -133.3755       103271.25      46.916594      46.916594      46.916594      0.81227684    -570.82853      545.91708      46.037693    
    154000   308000         393.12904     -462.39172      5017.7548      5709.0827      4217.4629      1491.6198      1456.1671      1369.5589      2546.6984      0             -3880.8045      0              0             -134.35608      102517.54      46.802177      46.802177      46.802177      0.81824873    -381.42463     -1112.6862      106.93563    
    154500   309000         384.69589      329.77617      6095.9119      5604.6453      4126.9926      1477.6527      1401.578       1427.0809      2555.1561      0             -3906.1623      0              0             -134.84455      102146.17      46.745595      46.745595      46.745595      0.8212236      794.40554     -41.359314      236.28229    
    155000   310000         394.37037     -226.07949      5421.6813      5762.2571      4230.7798      1531.4773      1462.0863      1392.9622      2552.0234      0             -3875.5946      0              0             -133.34561      103294.4       46.920099      46.920099      46.920099      0.81209482    -123.19476     -265.6548      -289.38891    
    155500   311000         383.16775      269.16438      5923.2002      5516.9581      4110.5988      1406.3593      1419.2585      1384.1968      2492.9679      0             -3890.0639      0              0             -133.09571      103488.34      46.949447      46.949447      46.949447      0.81057288     516.28491      1149.9419     -858.73366    
    156000   312000         391.66939     -128.8215       5542.1601      5735.814       4201.804       1534.01        1422.508       1459.2691      2503.5271      0             -3851.2942      0              0             -133.62677      103077.06      46.887168      46.887168      46.887168      0.81380712    -67.252319     -66.751799     -252.46039    
    156500   313000         392.11523     -147.33564      5297.7623      5518.2781      4206.5869      1311.6912      1400.1042      1286.4791      2503.5835      0             -3878.4756      0              0             -134.21451      102625.67      46.818626      46.818626      46.818626      0.81738658     139.44615      16.345042     -597.79812    
    157000   314000         385.45427     -9.4014492      5725.6934      5739.7732      4135.1285      1604.6447      1472.6278      1425.9155      2582.1416      0             -3876.0402      0              0             -134.13096      102689.59      46.828345      46.828345      46.828345      0.81687775     309.74837     -65.07866      -272.87406    
    157500   315000         383.68877     -733.56645      4478.5537      5574.4914      4116.1883      1458.3031      1405.2094      1394.1283      2578.7592      0             -3919.7938      0              0             -134.45748      102440.22      46.790408      46.790408      46.790408      0.8188663     -1117.7793     -789.70443     -293.21562    
    158000   316000         387.75477     -567.2671       4822.2905      5676.1625      4159.8081      1516.3544      1467.0533      1361.3064      2564.7235      0             -3876.7288      0              0             -133.45234      103211.78      46.907587      46.907587      46.907587      0.81274484    -586.45879     -834.18209     -281.16043    
    158500   317000         388.57267     -66.432131      5685.5361      5785.2356      4168.5825      1616.6531      1438.5273      1448.4936      2623.7461      0             -3894.114       0              0             -133.84938      102905.63      46.861161      46.861161      46.861161      0.81516284    -195.43466      373.51031     -377.37204    
    159000   318000         389.71135      11.12457       5689.1518      5672.5222      4180.7982      1491.724       1397.1376      1432.887       2565.6432      0             -3903.9438      0              0             -134.37991      102499.36      46.79941       46.79941       46.79941       0.81839384     514.19924     -764.11621      283.29068    
    159500   319000         387.46889     -427.31567      4883.1974      5524.4568      4156.7412      1367.7156      1393.5636      1349.9688      2540.1086      0             -3915.9254      0              0             -133.85865      102898.5       46.860079      46.860079      46.860079      0.81521932    -421.73142     -996.43329      136.21769    
    160000   320000         385.41352      382.16586      6266.8436      5695.7246      4134.6914      1561.0333      1452.382       1449.0893      2550.1153      0             -3890.5532      0              0             -134.41775      102470.5       46.795017      46.795017      46.795017      0.81862435     337.17456     -12.568462      821.89148    
    160500   321000         387.97781     -418.35591      4948.462       5574.0556      4162.2009      1411.8547      1466.9361      1384.1609      2492.4525      0             -3931.6948      0              0             -134.33371      102534.61      46.804775      46.804775      46.804775      0.8181125     -948.52844     -427.98051      121.44122    
    161000   322000         391.09745     -219.61755      5337.7456      5664.5754      4195.6682      1468.9072      1449.2687      1405.8138      2539.4841      0             -3925.6595      0              0             -134.98228      102041.94      46.72969       46.72969       46.72969       0.82206243    -286.63784     -893.65778      521.44297    
    161500   323000         388.93797     -612.39537      4591.0908      5507.6014      4172.5015      1335.1         1347.1966      1384.4755      2513.8561      0             -3910.4282      0              0             -134.22263      102619.46      46.817682      46.817682      46.817682      0.81743602    -757.58158     -358.498       -721.10654    
    162000   324000         388.17457      437.9422       6294.1553      5644.6031      4164.3117      1480.2914      1395.6107      1397.8258      2580.6242      0             -3893.7693      0              0             -135.43601      101700.09      46.677449      46.677449      46.677449      0.82482567     487.65254      427.76817      398.4059     
    162500   325000         392.92926     -689.21275      4754.9076      5792.7155      4215.3197      1577.3958      1423.3577      1443.3775      2592.5896      0             -3881.9289      0              0             -133.40365      103249.46      46.913294      46.913294      46.913294      0.81244827    -854.79835     -244.66401     -968.1759     
    163000   326000         400.22992      581.273        6715.5815      5833.0221      4293.6407      1539.3813      1402.9107      1385.7323      2593.1107      0             -3842.3724      0              0             -132.30235      104108.92      47.043105      47.043105      47.043105      0.8057412      747.56533      529.34515      466.90853    
    163500   327000         397.62345     -200.06393      5354.8849      5655.6879      4265.6787      1390.0092      1401.7517      1378.0252      2498.4509      0             -3888.2185      0              0             -133.60354      103094.97      46.889885      46.889885      46.889885      0.81366569    -780.91017      374.32312     -193.60473    
    164000   328000         393.88845      162.49544      6024.3398      5780.4407      4225.6099      1554.8309      1426.1786      1404.658       2613.2269      0             -3889.2327      0              0             -133.83276      102918.4       46.8631        46.8631        46.8631        0.81506167    -65.300494      164.84835      387.93845    
    164500   329000         393.66219     -425.95048      5079.5281      5722.1624      4223.1826      1498.9798      1441.2015      1424.5769      2512.4648      0             -3879.2633      0              0             -133.14553      103449.62      46.94359       46.94359       46.94359       0.8108763     -703.87163     -110.94894     -463.03086    
    165000   330000         387.70065     -223.61176      5285.6968      5621.4613      4159.2275      1462.2338      1387.0849      1413.2804      2554.4534      0             -3892.5849      0              0             -133.78003      102958.97      46.869256      46.869256      46.869256      0.81474051     582.54946     -575.17447     -678.21028    
    165500   331000         389.01936      321.18577      6159.2033      5680.1607      4173.3746      1506.7862      1442.8037      1437.4022      2531.3611      0             -3904.7809      0              0             -134.68323      102268.51      46.764251      46.764251      46.764251      0.82024114     6.4383453      137.37001      819.74896    
    166000   332000         395.55616      114.77715      6023.1098      5849.2268      4243.5009      1605.7259      1435.0836      1441.2443      2564.1413      0             -3834.7432      0              0             -132.59577      103878.53      47.008378      47.008378      47.008378      0.80752821     429.86565      490.61034     -576.14452    
    166500   333000         375.90362      552.43275      6515.0416      5685.3141      4032.6698      1652.6443      1472.9234      1427.3864      2629.005       0             -3876.6705      0              0             -133.74431      102986.47      46.873428      46.873428      46.873428      0.81452299     1059.1346      352.55017      245.61348    
    167000   334000         390.94645      991.07907      7263.3978      5762.8219      4194.0483      1568.7736      1381.6458      1452.3951      2580.1914      0             -3845.4587      0              0             -132.67274      103818.27      46.999286      46.999286      46.999286      0.80799693     1120.0539      444.68599      1408.4974    
    167500   335000         387.00431      340.35031      6164.3962      5656.7027      4151.7572      1504.9455      1441.7658      1385.4351      2593.32        0             -3915.5754      0              0             -134.66535      102282.09      46.766321      46.766321      46.766321      0.82013225    -6.9023313      292.99877      734.9545     
    168000   336000         386.36977     -568.31565      4861.4113      5721.8315      4144.9499      1576.8816      1430.5661      1376.1194      2584.1439      0             -3813.9478      0              0             -132.6815       103811.41      46.998251      46.998251      46.998251      0.80805032    -152.63109     -688.27491     -864.04096    
    168500   337000         397.03923      564.81761      6619.7644      5761.8017      4259.4112      1502.3905      1377.4182      1391.9321      2547.8548      0             -3814.8146      0              0             -132.24254      104156         47.050195      47.050195      47.050195      0.80537697     709.22902      594.53062      390.6932     
    169000   338000         390.16679     -194.0693       5302.9         5595.8617      4185.6841      1410.1776      1409.0131      1360.4624      2509.1537      0             -3868.4516      0              0             -133.06913      103509.01      46.952572      46.952572      46.952572      0.810411      -293.1267      -671.57394      382.49275    
    169500   339000         386.39339     -156.83578      5518.0342      5755.2255      4145.2033      1610.0223      1427.4391      1423.2288      2617.4543      0             -3858.0999      0              0             -132.82435      103699.76      46.981397      46.981397      46.981397      0.80892029     4.1495768     -558.23072      83.573809    
    170000   340000         390.49881     -315.92102      5319.132       5802.8998      4189.246       1613.6538      1413.7624      1423.2561      2581.5934      0             -3804.958       0              0             -131.18161      104998.36      47.176695      47.176695      47.176695      0.79891573    -196.29477     -532.39176     -219.07653    
    170500   341000         383.75131      412.45583      6269.6969      5646.7754      4116.8592      1529.9162      1378.0473      1387.3912      2590.6699      0             -3826.1921      0              0             -133.0073       103557.13      46.959846      46.959846      46.959846      0.81003446    -127.19308      1111.1814      253.37915    
    171000   342000         377.26216      128.80019      5871.1969      5676.4467      4047.2441      1629.2026      1481.6877      1369.016       2578.2535      0             -3799.7547      0              0             -132.85252      103677.78      46.978076      46.978076      46.978076      0.80909185    -614.93572      674.18528      327.151      
    171500   343000         380.84877      216.01746      5919.9069      5594.6095      4085.721       1508.8886      1433.0397      1396.2342      2550.4174      0             -3870.8026      0              0             -133.39506      103256.1       46.9143        46.9143        46.9143        0.81239598     363.46265      163.31267      121.27706    
    172000   344000         391.93939      101.50195      5955.888       5801.9322      4204.7004      1597.2318      1427.5907      1379.6442      2626.341       0             -3836.344       0              0             -132.43718      104002.92      47.027134      47.027134      47.027134      0.80656237     181.27618      479.12593     -355.89625    
    172500   345000         394.29905     -49.332838      5691.1139      5765.6157      4230.0148      1535.6009      1403.0423      1434.6407      2527.8962      0             -3829.9784      0              0             -133.0151       103551.05      46.958928      46.958928      46.958928      0.81008199    -283.81375      210.85673     -75.041497    
    173000   346000         389.24462      416.32424      6295.2172      5668.0478      4175.7911      1492.2567      1398.3395      1388.8322      2574.2328      0             -3869.1477      0              0             -133.34546      103294.51      46.920116      46.920116      46.920116      0.81209394     210.50921      1085.1892     -46.725656    
    173500   347000         393.86649      25.246133      5713.2543      5675.2812      4225.3743      1449.907       1375.3102      1383.6625      2548.0166      0             -3857.0824      0              0             -133.55224      103134.58      46.895888      46.895888      46.895888      0.81335325     478.80184     -529.18364      126.1202     
    174000   348000         391.52906      32.459527      5812.6202      5763.4056      4200.2984      1563.1071      1398.751       1435.2526      2574.7954      0             -3845.6919      0              0             -132.48888      103962.34      47.021016      47.021016      47.021016      0.80687723    -346.74226      105.86687      338.25397    
    174500   349000         387.28536      506.35483      6412.5425      5651.1126      4154.7724      1496.3403      1340.6374      1387.4277      2633.0969      0             -3864.8217      0              0             -133.58462      103109.58      46.892099      46.892099      46.892099      0.81355041     212.41775      516.26248      790.38426    
    175000   350000         397.81949      214.1769       6107.764       5785.3682      4267.7818      1517.5864      1339.7935      1402.7973      2624.0287      0             -3849.0332      0              0             -133.44877      103214.55      46.908006      46.908006      46.908006      0.81272306     1022.4563     -327.65569     -52.269864    
    175500   351000         389.09095      294.19194      6152.0101      5709.0285      4174.1425      1534.8859      1401.5112      1388.1973      2632.3346      0             -3887.1571      0              0             -133.40634      103247.37      46.912978      46.912978      46.912978      0.81246466     564.39337      208.41373      109.76871    
    176000   352000         387.34022      589.41731      6594.6151      5703.9427      4155.3608      1548.5819      1407.2537      1402.7694      2584.1797      0             -3845.6209      0              0             -132.93406      103614.18      46.968469      46.968469      46.968469      0.80958842     884.29608      908.09728     -24.141434    
    176500   353000         399.36897      1228.3038      7674.2444      5837.5075      4284.4045      1553.103       1417.1049      1388.9638      2602.2475      0             -3855.2131      0              0             -134.33532      102533.38      46.804588      46.804588      46.804588      0.8181223      1816.7508      87.634717      1780.5258    
    177000   354000         383.13381      167.386        5835.0848      5584.0531      4110.2347      1473.8184      1397.4597      1398.5372      2553.4295      0             -3875.608       0              0             -133.9436       102833.24      46.85017       46.85017       46.85017       0.81573666     1154.002       421.1181      -1072.9621    
    177500   355000         393.44345      308.25665      6178.8939      5717.6533      4220.8359      1496.8174      1418.3406      1377.554       2581.6361      0             -3880.7133      0              0             -134.25062      102598.06      46.814428      46.814428      46.814428      0.8176065      593.51096      305.57639      25.682593    
    178000   356000         392.60506     -346.20407      5241.407       5755.8071      4211.8417      1543.9653      1428.8759      1407.3353      2655.1907      0             -3947.4367      0              0             -135.1956       101880.94      46.7051        46.7051        46.7051        0.82336153    -940.0265       484.2054      -582.7911     
    178500   357000         397.38717      586.88437      6763.3009      5873.9026      4263.1439      1610.7586      1446.2513      1419.133       2611.6422      0             -3866.2679      0              0             -132.5524       103912.52      47.013505      47.013505      47.013505      0.80726406     640.31177      700.98991      419.35143    
    179000   358000         391.66456     -788.92018      4594.9996      5800.0753      4201.7521      1598.3232      1431.3556      1371.8182      2604.2324      0             -3809.083       0              0             -131.50737      104738.27      47.137708      47.137708      47.137708      0.80089968    -1436.4056     -660.47258     -269.88235    
    179500   359000         384.01842     -364.27977      5068.6629      5622.4522      4119.7248      1502.7274      1360.766       1403.5874      2575.7154      0             -3837.3413      0              0             -132.1362       104239.82      47.062813      47.062813      47.062813      0.80472937     478.42601     -885.45222     -685.81311    
    180000   360000         398.79331      464.67006      6553.2497      5846.8466      4278.2288      1568.6178      1405.4449      1434.3069      2564.5752      0             -3835.7093      0              0             -132.1367       104239.43      47.062754      47.062754      47.062754      0.8047324      912.12553     -180.40943      662.29408    
    180500   361000         392.61333     -189.62029      5399.1303      5683.5361      4211.9304      1471.6057      1445.7572      1353.8107      2576.651       0             -3904.6132      0              0             -133.92995      102843.71      46.851761      46.851761      46.851761      0.81565358    -253.2262      -528.62353      212.98887    
    181000   362000         389.00901      141.13702      5881.0422      5669.6189      4173.2635      1496.3554      1419.862       1389.4834      2559.5194      0             -3872.5093      0              0             -134.0971       102715.53      46.832287      46.832287      46.832287      0.81667149    -80.819159      62.196305      442.03391    
    181500   363000         398.58851     -391.02902      5255.3794      5854.1883      4276.0317      1578.1566      1425.3396      1416.7339      2567.6936      0             -3831.6106      0              0             -131.17529      105003.42      47.177452      47.177452      47.177452      0.79887727     591.01703     -183.83074     -1580.2733    
    182000   364000         388.31135     -398.8906       5081.5964      5682.3455      4165.779       1516.5665      1421.2059      1397.1529      2558.2121      0             -3860.0044      0              0             -133.38041      103267.45      46.916018      46.916018      46.916018      0.81230675    -1047.5355     -216.09204      66.955737    
    182500   365000         397.06157     -277.77097      5357.3992      5774.4157      4259.6509      1514.7648      1422.0431      1428.8247      2556.3328      0             -3892.4357      0              0             -133.80272      102941.51      46.866607      46.866607      46.866607      0.81487871    -434.65188     -972.5405       573.87947    
    183000   366000         392.15674      124.01558      6031.8546      5844.3798      4207.0322      1637.3476      1441.6823      1422.7871      2616.8827      0             -3844.0045      0              0             -132.88153      103655.14      46.974657      46.974657      46.974657      0.8092685      141.90499      322.45773     -92.315987    
    183500   367000         396.12647      272.5756       6167.2443      5752.7213      4249.6191      1503.1021      1391.6692      1421.8779      2545.0486      0             -3855.4936      0              0             -132.08993      104276.34      47.068309      47.068309      47.068309      0.80444752     1220.2717      24.315876     -426.86082    
    184000   368000         388.33955      177.86405      5982.4036      5714.9269      4166.0816      1548.8452      1429.6177      1411.8631      2551.0252      0             -3843.6608      0              0             -133.57755      103115.04      46.892926      46.892926      46.892926      0.81350738     64.497467     -394.29929      863.39399    
    184500   369000         400.90112     -341.51799      5286.407       5796.5274      4300.8413      1495.6861      1441.0723      1401.3356      2561.821       0             -3908.5427      0              0             -134.48451      102419.63      46.787273      46.787273      46.787273      0.81903092    -375.86024     -58.749165     -589.94455    
    185000   370000         396.43294     -183.04534      5494.4694      5768.325       4252.9069      1515.4181      1444.7174      1415.2046      2540.0884      0             -3884.5924      0              0             -134.26673      102585.76      46.812557      46.812557      46.812557      0.81770456    -709.08432      444.93726     -284.98895    
    185500   371000         397.00792     -359.97449      5278.5281      5818.7207      4259.0753      1559.6454      1404.4053      1414.7886      2625.7817      0             -3885.3302      0              0             -133.86114      102896.58      46.859788      46.859788      46.859788      0.8152345     -113.16384     -596.27184     -370.4878     
    186000   372000         399.70612      99.703122      5879.9574      5731.258       4288.0215      1443.2365      1449.5831      1365.4664      2559.9045      0             -3931.7175      0              0             -134.68859      102264.45      46.763631      46.763631      46.763631      0.82027378     248.17056      251.9299      -200.99109    
    186500   373000         392.22861      77.344728      5772.0708      5654.1531      4207.8032      1446.3499      1373.8298      1374.101       2532.5952      0             -3834.1761      0              0             -131.75978      104537.62      47.107588      47.107588      47.107588      0.80243691    -20.125913     -366.72324      618.88334    
    187000   374000         392.90492     -35.235692      5712.4025      5765.4158      4215.0585      1550.3573      1392.6376      1423.1855      2590.2427      0             -3855.7086      0              0             -133.51478      103163.52      46.900274      46.900274      46.900274      0.81312507    -805.73484      818.69801     -118.67025    
    187500   375000         395.33212     -124.8025       5635.0717      5823.7015      4241.0974      1582.6041      1471.65        1405.66        2558.1072      0             -3852.8131      0              0             -132.90592      103636.12      46.971784      46.971784      46.971784      0.80941703     688.01676     -128.43673     -933.98753    
    188000   376000         391.0788      -649.89371      4913.9533      5907.1401      4195.4681      1711.672       1497.0528      1439.0307      2568.9303      0             -3793.3418      0              0             -131.4446       104788.28      47.14521       47.14521       47.14521       0.8005174     -476.45845     -1080.6361     -392.58653    
    188500   377000         393.12525      60.9587        5757.9162      5665.7657      4217.4223      1448.3434      1408.0715      1391.0769      2492.943       0             -3843.7481      0              0             -132.88297      103654.02      46.974488      46.974488      46.974488      0.80927727     317.55167      64.438751     -199.11432    
    189000   378000         380.58416      824.46007      6812.9706      5572.4136      4082.8822      1489.5313      1454.9145      1386.5708      2533.3819      0             -3885.3358      0              0             -133.50092      103174.23      46.901897      46.901897      46.901897      0.81304069     179.61781      790.67028      1503.0921    
    189500   379000         391.52814     -45.71479       5572.8947      5641.6466      4200.2886      1441.358       1424.6899      1350.1608      2555.8909      0             -3889.3836      0              0             -133.56818      103122.27      46.894023      46.894023      46.894023      0.81345031    -371.73558      155.69868      78.892526    
    190000   380000         388.80209     -33.718393      5616.7707      5667.6056      4171.0437      1496.5619      1418.8399      1421.2117      2518.6724      0             -3862.1621      0              0             -133.24041      103375.95      46.932444      46.932444      46.932444      0.81145416    -282.41661      62.45079       118.81064    
    190500   381000         393.37372      69.793312      5869.2772      5763.2018      4220.0878      1543.1139      1412.5213      1355.2829      2620.2446      0             -3844.9349      0              0             -132.16928      104213.73      47.058887      47.058887      47.058887      0.8049308     -229.86196      406.75627      32.485627    
    191000   382000         382.27071     -247.82724      5274.0329      5645.7087      4100.9755      1544.7332      1388.9459      1407.3476      2624.1333      0             -3875.6936      0              0             -133.94181      102834.61      46.850378      46.850378      46.850378      0.8157258     -441.00561     -766.11792      463.64182    
    191500   383000         392.8905       115.38944      6069.4562      5893.7919      4214.9039      1678.888       1456.7202      1436.6769      2628.7627      0             -3843.2718      0              0             -131.95135      104385.85      47.08478       47.08478       47.08478       0.80360358    -289.10285      183.93312      451.33806    
    192000   384000         378.49634      98.307489      5825.6922      5675.6124      4060.4842      1615.1282      1405.0102      1401.7767      2605.4452      0             -3797.104       0              0             -131.58175      104679.06      47.128824      47.128824      47.128824      0.80135266    -323.26945     -313.94938      932.14129    
    192500   385000         375.67346      110.64045      5820.9652      5653.9005      4030.2006      1623.6998      1404.0573      1447.2596      2601.3548      0             -3828.9718      0              0             -133.03337      103536.84      46.956779      46.956779      46.956779      0.81019321    -455.8812       737.64576      50.156801    
    193000   386000         391.36143      222.69429      6079.0696      5743.6277      4198.5001      1545.1275      1390.19        1416.5638      2591.7427      0             -3853.369       0              0             -133.35922      103283.86      46.918503      46.918503      46.918503      0.81217769     340.55682      1066.821      -739.29501    
    193500   387000         387.08997      217.25194      6112.0382      5783.253       4152.6762      1630.5768      1446.6638      1444.7227      2570.1735      0             -3830.9833      0              0             -132.73416      103770.23      46.992036      46.992036      46.992036      0.80837099     376.86711     -265.88597      540.77468    
    194000   388000         387.06739      1046.9085      7351.1095      5766.9042      4152.434       1614.4702      1453.8145      1377.9299      2595.8781      0             -3813.1523      0              0             -132.74819      103759.26      46.99038       46.99038       46.99038       0.80845646     262.56949      1477.1738      1400.9822    
    194500   389000         384.66867     -122.4553       5511.6352      5698.4989      4126.7007      1571.7983      1403.8055      1386.9632      2613.26        0             -3832.2304      0              0             -131.63877      104633.72      47.122018      47.122018      47.122018      0.80169994     187.53993     -330.69235     -224.21348    
    195000   390000         388.09792     -122.90826      5544.1161      5729.9891      4163.4894      1566.4998      1408.4         1364.1207      2629.4832      0             -3835.5042      0              0             -132.82992      103695.42      46.980741      46.980741      46.980741      0.80895418    -401.20526     -213.68587      246.16636    
    195500   391000         377.93207      492.42767      6328.0355      5585.5329      4054.4308      1531.1021      1379.8431      1386.8238      2608.1705      0             -3843.7353      0              0             -133.22196      103390.27      46.93461       46.93461       46.93461       0.8113418     -494.50041      677.11515      1294.6683    
    196000   392000         391.40283      437.34962      6413.8817      5759.9808      4198.9443      1561.0364      1436.4665      1365.3771      2647.8806      0             -3888.6879      0              0             -134.35324      102519.7       46.802507      46.802507      46.802507      0.81823142     786.4866       261.48992      264.07235    
    196500   393000         388.7855       303.94522      6037.4029      5577.0477      4170.8657      1406.182       1407.9419      1331.6834      2519.3167      0             -3852.76        0              0             -132.62751      103853.67      47.004628      47.004628      47.004628      0.80772151    -117.45166      615.98758      413.29976    
    197000   394000         401.8985       508.09969      6682.7138      5914.8444      4311.5411      1603.3033      1415.2312      1391.4124      2644.3772      0             -3847.7174      0              0             -132.9208       103624.52      46.970031      46.970031      46.970031      0.80950765     782.07984      376.42816      365.79108    
    197500   395000         387.9654       122.51785      5850.5298      5664.9816      4162.0678      1502.9138      1351.5074      1396.2832      2607.1028      0             -3851.9796      0              0             -132.63985      103844.01      47.00317       47.00317       47.00317       0.80779668     245.94237      737.32911     -615.71792    
    198000   396000         397.83177      392.96884      6534.94        5943.8501      4267.9135      1675.9366      1465.7616      1446.3637      2632.0006      0             -3868.1893      0              0             -133.54756      103138.2       46.896437      46.896437      46.896437      0.81332471     628.4339      -136.80544      687.27805    
    198500   397000         380.49163     -129.64866      5432.2638      5627.9325      4081.8896      1546.0429      1412.7822      1403.1281      2608.1702      0             -3878.0375      0              0             -133.10004      103484.97      46.948936      46.948936      46.948936      0.8105993     -181.35584      95.203955     -302.7941     
    199000   398000         395.01241      174.77818      6042.5904      5779.4174      4237.6676      1541.7499      1407.0401      1391.6994      2584.4413      0             -3841.4309      0              0             -133.40658      103247.19      46.91295       46.91295       46.91295       0.81246615    -448.00734      924.90144      47.440443    
    199500   399000         397.05004      25.184659      5939.8217      5901.5627      4259.5272      1642.0355      1462.8077      1425.7044      2626.1291      0             -3872.6057      0              0             -132.23131      104164.84      47.051527      47.051527      47.051527      0.80530861     187.16503      136.56185     -248.1729     
    200000   400000         390.42321      158.69723      5963.9636      5723.7645      4188.435       1535.3295      1402.7021      1394.3142      2584.5709      0             -3846.2576      0              0             -132.71786      103782.97      46.993959      46.993959      46.993959      0.80827173     301.50922     -411.62011      586.20258    
    200500   401000         392.73543     -349.26534      5239.2841      5769.6874      4213.2404      1556.447       1381.4168      1360.2795      2643.9008      0             -3829.1501      0              0             -132.27588      104129.75      47.046242      47.046242      47.046242      0.80558003     444.68294     -1134.0814     -358.3976     
    201000   402000         388.00574     -156.28632      5445.7645      5686.6213      4162.5005      1524.1208      1410.1078      1356.7565      2542.4226      0             -3785.166       0              0             -130.34471      105672.52      47.277448      47.277448      47.277448      0.79381887    -250.77202      288.4366      -506.52356    
    201500   403000         387.30501      516.0273       6561.9505      5771.5588      4154.9831      1616.5757      1408.2718      1426.1943      2593.756       0             -3811.6464      0              0             -131.148        105025.27      47.180724      47.180724      47.180724      0.79871104     338.26937     -158.22361      1368.0361    
    202000   404000         401.92428     -184.0479       5579.9404      5859.567       4311.8177      1547.7493      1394.4587      1391.5704      2585.3035      0             -3823.5833      0              0             -132.21593      104176.96      47.053351      47.053351      47.053351      0.80521494     99.156553     -439.93308     -211.36717    
    202500   405000         398.1617       81.672713      5794.5575      5670.8499      4271.4529      1399.3969      1345.9766      1349.0709      2572.0148      0             -3867.6653      0              0             -132.62086      103858.88      47.005413      47.005413      47.005413      0.80768101    -169.86187     -191.69008      606.57009    
    203000   406000         375.88463      160.53017      5839.2734      5597.0892      4032.4661      1564.6232      1417.7842      1403.2213      2554.5194      0             -3810.9017      0              0             -133.15032      103445.89      46.943026      46.943026      46.943026      0.81090551     398.14188      315.0141      -231.56546    
    203500   407000         379.95818      224.31655      6056.4608      5715.1106      4076.1668      1638.9437      1432.4561      1389.7508      2622.2685      0             -3805.5317      0              0             -132.00565      104342.91      47.078323      47.078323      47.078323      0.80393425    -295.03941      258.12043      709.86864    
    204000   408000         387.86661     -815.64898      4527.1508      5770.2159      4161.008       1609.2079      1363.1794      1447.9787      2590.3936      0             -3792.3438      0              0             -131.80771      104499.61      47.101878      47.101878      47.101878      0.80272877    -772.95684     -373.55649     -1300.4336    
    204500   409000         400.25127     -302.52566      5532.4143      5991.027       4293.8698      1697.1572      1433.8421      1464.4057      2612.2395      0             -3813.3301      0              0             -132.50963      103946.06      47.018562      47.018562      47.018562      0.80700361     621.72872     -826.18337     -703.12234    
    205000   410000         391.71553     -211.94504      5402.58        5724.2133      4202.2988      1521.9144      1423.7757      1355.2212      2607.7298      0             -3864.8122      0              0             -132.37123      104054.74      47.034943      47.034943      47.034943      0.80616073     285.57995     -426.74178     -494.67329    
    205500   411000         387.58089     -245.36093      5376.2324      5747.3916      4157.9427      1589.4489      1391.4784      1468.7813      2571.6152      0             -3842.4261      0              0             -132.79342      103723.92      46.985044      46.985044      46.985044      0.80873191    -305.87311     -1027.0091      596.79942    
    206000   412000         390.87172     -320.30835      5243.343       5728.3579      4193.2465      1535.1114      1422.972       1389.6717      2546.06        0             -3823.5923      0              0             -132.66138      103827.15      47.000627      47.000627      47.000627      0.80792779    -128.99556     -271.13264     -560.79683    
    206500   413000         387.28544      348.33015      6421.2236      5886.4864      4154.7732      1731.7132      1436.7175      1454.3383      2619.1529      0             -3778.4955      0              0             -130.8525       105262.45      47.216213      47.216213      47.216213      0.79691139     501.54325      298.62959      244.81761    
    207000   414000         386.4863      -198.11461      5420.2702      5718.307       4146.2         1572.1069      1371.0525      1439.7594      2626.9281      0             -3865.633       0              0             -133.52975      103151.95      46.898521      46.898521      46.898521      0.81321629    -150.27537      445.64204     -889.71052    
    207500   415000         387.28732      211.71573      5943.7572      5624.1199      4154.7933      1469.3266      1377.2858      1407.2562      2573.3857      0             -3888.6012      0              0             -133.05373      103520.99      46.954383      46.954383      46.954383      0.81031726     852.13697      167.8704      -384.86018    
    208000   416000         393.09276      1276.3332      7785.0355      5850.0294      4217.0738      1632.9556      1425.3407      1414.5772      2602.1005      0             -3809.0627      0              0             -132.49915      103954.28      47.019802      47.019802      47.019802      0.80693975     915.98018      810.36541      2102.654     
    208500   417000         391.49041      149.08566      5820.782       5596.6209      4199.8838      1396.7371      1394.3261      1353.9383      2504.5084      0             -3856.0357      0              0             -133.60018      103097.57      46.890279      46.890279      46.890279      0.81364519     343.75016     -262.50351      366.01034    
    209000   418000         390.65582      331.25558      6272.2497      5769.5468      4190.9304      1578.6164      1422.1036      1365.585       2606.95        0             -3816.0222      0              0             -132.36807      104057.23      47.035318      47.035318      47.035318      0.80614145    -586.31436      476.94505      1103.1361    
    209500   419000         393.43646     -108.39312      5517.8574      5681.4887      4220.7609      1460.7278      1333.1569      1386.5343      2588.0739      0             -3847.0373      0              0             -133.06589      103511.53      46.952953      46.952953      46.952953      0.8103913      62.421276     -137.10405     -250.49658    
    210000   420000         376.15951      255.17021      6026.3657      5644.5713      4035.415       1609.1563      1386.109       1459.7675      2637.3207      0             -3874.0409      0              0             -134.25541      102594.41      46.813872      46.813872      46.813872      0.81763563    -326.39901      996.78394      95.125708    
    210500   421000         391.6681      -109.13356      5661.1703      5826.8182      4201.79        1625.0282      1376.7678      1465.2826      2638.6852      0             -3855.7075      0              0             -132.34387      104076.25      47.038184      47.038184      47.038184      0.80599407    -860.08487      487.91335      44.770842    
    211000   422000         396.61399     -114.80179      5652.685       5824.1199      4254.8493      1569.2706      1401.8017      1424.6008      2627.0766      0             -3884.2084      0              0             -134.51816      102394.01      46.783372      46.783372      46.783372      0.81923581     58.321233      470.73574     -873.46233    
    211500   423000         388.57487      492.35286      6555.2022      5817.7442      4168.6061      1649.1382      1444.2418      1443.1419      2637.758       0             -3876.0035      0              0             -134.1129       102703.42      46.830447      46.830447      46.830447      0.81676776     321.56539      252.01123      903.48196    
    212000   424000         402.88716      1088.0175      7429.4149      5799.284       4322.1474      1477.1366      1385.597       1398.4136      2582.1213      0             -3888.9953      0              0             -134.07406      102733.17      46.834969      46.834969      46.834969      0.81653122     996.43848      857.10354      1410.5105    
    212500   425000         384.71356      255.31366      6014.91        5634.4205      4127.1823      1507.2383      1363.6843      1437.9912      2560.6657      0             -3855.1029      0              0             -134.7916       102186.3       46.751716      46.751716      46.751716      0.8209011      253.26385     -13.334193      526.01133    
    213000   426000         391.55177     -189.48564      5432.4317      5715.5166      4200.5421      1514.9745      1383.407       1446.6108      2559.9084      0             -3874.9517      0              0             -134.45933      102438.81      46.790194      46.790194      46.790194      0.81887755    -86.148959     -915.44888      433.14091    
    213500   427000         393.95981      420.02878      6372.859       5741.4679      4226.3754      1515.0925      1406.5873      1384.5815      2592.8431      0             -3868.9195      0              0             -133.63246      103072.67      46.886502      46.886502      46.886502      0.8138418      484.23189      180.69286      595.16158    
    214000   428000         397.5115      -26.29662       5703.4973      5743.1139      4264.4777      1478.6363      1351.4156      1369.1624      2603.3057      0             -3845.2475      0              0             -133.33798      103300.31      46.920994      46.920994      46.920994      0.81204836     110.7655      -158.01201     -31.643352    
    214500   429000         396.0257      -1173.6654      4002.8432      5784.5842      4248.5381      1536.0461      1340.565       1425.256       2609.1441      0             -3838.919       0              0             -132.3217       104093.69      47.040811      47.040811      47.040811      0.80585909    -1315.7447     -1783.4729     -421.77841    
    215000   430000         388.38725      205.33587      6034.6133      5726.6445      4166.5933      1560.0512      1352.3351      1436.5936      2663.9572      0             -3892.8347      0              0             -133.93355      102840.96      46.851342      46.851342      46.851342      0.81567546     505.76017      138.15065     -27.90322     
    215500   431000         388.84176     -83.516593      5578.8769      5704.8429      4171.4692      1533.3737      1370.0967      1447.8859      2598.0739      0             -3882.6828      0              0             -133.18368      103419.99      46.939107      46.939107      46.939107      0.81110863    -522.51879      165.15023      106.81878    
    216000   432000         389.54418     -796.12882      4323.0266      5513.0448      4179.0047      1334.04        1308.6962      1357.0782      2576.1539      0             -3907.8883      0              0             -134.38819      102493.04      46.798448      46.798448      46.798448      0.81844432    -712.26532     -942.75135     -733.36981    
    216500   433000         398.11572      77.365296      5969.9156      5853.0292      4270.9598      1582.0695      1406.8003      1423.3397      2635.7989      0             -3883.8694      0              0             -132.9577       103595.76      46.965685      46.965685      46.965685      0.8097324     -860.84911      601.82099      491.12401    
    217000   434000         389.94059      591.87905      6609.8904      5719.6079      4183.2575      1536.3505      1398.2045      1423.1334      2621.7101      0             -3906.6975      0              0             -133.54774      103138.06      46.896415      46.896415      46.896415      0.81332582     785.42603      469.24611      520.965      
    217500   435000         388.08172      12.523897      5781.3387      5762.5078      4163.3156      1599.1922      1422.9234      1488.0274      2582.1449      0             -3893.9035      0              0             -133.59822      103099.09      46.890508      46.890508      46.890508      0.81363324     237.69158     -247.68641      47.566521    
    218000   436000         388.83853     -141.38249      5344.6402      5558.3123      4171.4347      1386.8776      1330.4842      1383.1538      2550.1381      0             -3876.8985      0              0             -132.91656      103627.82      46.97053       46.97053       46.97053       0.80948186     262.42202     -0.37507979    -686.19442    
    218500   437000         384.037       -243.61095      5329.7092      5698.1525      4119.9242      1578.2283      1376.4554      1437.8888      2608.7646      0             -3844.8805      0              0             -132.81816      103704.6       46.982127      46.982127      46.982127      0.80888257    -870.8017       302.76741     -162.79856    
    219000   438000         394.10471      1023.1874      7290.4074      5765.0957      4227.9299      1537.1658      1379.1131      1421.8949      2647.4307      0             -3911.2729      0              0             -134.74975      102218.03      46.756555      46.756555      46.756555      0.82064622     1022.5875      1726.1114      320.86342    
    219500   439000         399.6077       147.12296      6017.0547      5796.4134      4286.9655      1509.4478      1378.8259      1373.1434      2638.9068      0             -3881.4282      0              0             -133.94455      102832.51      46.850059      46.850059      46.850059      0.81574247    -202.13023      533.24872      110.25041    
    220000   440000         389.08657     -231.86015      5366.8369      5717.9906      4174.0956      1543.8951      1387.2632      1410.7623      2600.4938      0             -3854.6243      0              0             -132.63562      103847.32      47.00367       47.00367       47.00367       0.80777088    -511.6672       339.66194     -523.57518    
    220500   441000         390.62693     -34.575387      5653.6937      5705.4556      4190.6204      1514.8352      1358.7609      1424.9914      2633.3027      0             -3902.2198      0              0             -134.18014      102651.96      46.822623      46.822623      46.822623      0.81717726     182.59296     -366.67916      80.360037    
    221000   442000         395.29538      370.41812      6373.1183      5818.5316      4240.7033      1577.8283      1380.7697      1395.5603      2672.8122      0             -3871.314       0              0             -134.1696       102660.02      46.823849      46.823849      46.823849      0.81711306     235.08093      362.63486      513.53858    
    221500   443000         395.50385      647.20377      6727.0299      5750.9206      4242.9398      1507.9808      1402.5304      1413.5249      2545.9675      0             -3854.042       0              0             -133.19072      103414.52      46.93828       46.93828       46.93828       0.81115152     237.86597      444.98278      1258.7626    
    222000   444000         378.37574     -597.15788      4675.9112      5577.229       4059.1905      1518.0385      1395.635       1421.9338      2542.3349      0             -3841.8652      0              0             -133.08913      103493.45      46.950219      46.950219      46.950219      0.81053285    -432.54978     -1378.4083      19.484439    
    222500   445000         386.35435     -3.7969442      5649.2218      5654.935       4144.7845      1510.1505      1407.8597      1387.3561      2596.3116      0             -3881.3769      0              0             -133.50064      103174.44      46.901929      46.901929      46.901929      0.81303899     17.882783      324.04604     -353.31965    
    223000   446000         391.2738      -543.51712      4976.3965      5791.285       4197.56        1593.725       1428.3734      1442.9843      2594.5312      0             -3872.1639      0              0             -133.98199      102803.77      46.845694      46.845694      46.845694      0.8159705     -322.68938     -104.82175     -1203.0402    
    223500   447000         390.95421      338.17302      6107.0839      5595.8362      4194.1315      1401.7047      1369.1128      1369.6424      2521.72        0             -3858.7706      0              0             -132.87366      103661.28      46.975584      46.975584      46.975584      0.8092206      841.13984      378.56236     -205.18314    
    224000   448000         398.29927     -282.59726      5265.2859      5695.3019      4272.9289      1422.373       1349.5577      1414.1146      2484.0948      0             -3825.394       0              0             -132.01241      104337.57      47.07752       47.07752       47.07752       0.80397542     72.086834     -109.78508     -810.09353    
    224500   449000         399.35266     -105.45066      5643.9554      5802.1557      4284.2295      1517.9262      1410.5261      1418.2656      2556.5238      0             -3867.3893      0              0             -133.89779      102868.42      46.855513      46.855513      46.855513      0.81545767     181.91607      190.12943     -688.39749    
    225000   450000         383.98896     -696.24755      4643.2912      5705.4097      4119.4088      1586.0009      1383.6704      1460.9969      2561.8476      0             -3820.514       0              0             -131.68068      104600.42      47.117019      47.117019      47.117019      0.80195516    -1358.9298     -693.48141     -36.33144     
    225500   451000         392.65965     -466.11802      5058.1613      5768.8649      4212.4274      1556.4376      1371.6191      1409.7388      2577.2361      0             -3802.1564      0              0             -131.74639      104548.25      47.109184      47.109184      47.109184      0.80235533    -51.119688     -253.05703     -1094.1774    
    226000   452000         389.56941     -336.1168       5238.5562      5751.4271      4179.2755      1572.1516      1436.0678      1383.4387      2578.8792      0             -3826.2341      0              0             -131.64777      104626.56      47.120944      47.120944      47.120944      0.80175475    -391.64965     -717.36285      100.66209    
    226500   453000         392.94469     -178.56751      5632.0849      5905.8202      4215.4852      1690.335       1444.3365      1405.5138      2617.6221      0             -3777.1374      0              0             -131.03974      105112.04      47.193714      47.193714      47.193714      0.79805173    -248.8258      -522.36053      235.4838     
    227000   454000         397.20831      196.21675      6162.3866      5861.5099      4261.2251      1600.2849      1391.8215      1440.9396      2552.7854      0             -3785.2617      0              0             -131.00229      105142.08      47.19821       47.19821       47.19821       0.79782368    -145.42352      769.38994     -35.316187    
    227500   455000         376.96004      582.27889      6375.7417      5490.1801      4044.0029      1446.1772      1373.9323      1391.6759      2500.6133      0             -3820.0443      0              0             -132.082        104282.6       47.06925       47.06925       47.06925       0.80439926     127.11391      1025.5886      594.13415    
    228000   456000         385.93641     -180.34414      5516.0454      5793.6439      4140.3009      1653.343       1369.395       1477.9012      2594.6724      0             -3788.6256      0              0             -130.50171      105545.39      47.258481      47.258481      47.258481      0.79477507     40.65722      -397.90216     -183.78749    
    228500   457000         386.18517      49.086836      5714.7092      5639.3999      4142.9695      1496.4304      1393.8568      1339.6284      2563.6335      0             -3800.6884      0              0             -130.93255      105198.09      47.206588      47.206588      47.206588      0.79739895     171.02571     -604.2638       580.4986     
    229000   458000         392.25683     -184.1933       5405.2169      5684.5949      4208.1059      1476.489       1362.2478      1393.1669      2561.8661      0             -3840.7919      0              0             -132.43811      104002.19      47.027024      47.027024      47.027024      0.80656804    -521.04659      504.00836     -535.54169    
    229500   459000         388.15266      210.45726      6049.3155      5727.7103      4164.0767      1563.6336      1411.0045      1400.3483      2560.4848      0             -3808.2038      0              0             -131.45355      104781.15      47.14414       47.14414       47.14414       0.80057189    -155.60662      740.92652      46.051885    
    230000   460000         392.64725     -342.43829      5283.0981      5806.902       4212.2943      1594.6077      1383.2219      1391.0448      2629.138       0             -3808.7971      0              0             -131.32425      104884.32      47.159608      47.159608      47.159608      0.79978443    -632.74871     -501.87737      107.31121    
    230500   461000         383.70035     -9.0651677      5703.6037      5717.347       4116.3126      1601.0344      1419.4719      1432.3346      2561.4452      0             -3812.2174      0              0             -132.50052      103953.21      47.01964       47.01964       47.01964       0.80694812    -227.7104       136.00144      64.513455    
    231000   462000         402.17266     -374.96532      5383.7571      5955.4975      4314.4823      1641.0152      1418.0019      1454.9712      2569.991       0             -3801.9489      0              0             -131.74179      104551.9       47.109733      47.109733      47.109733      0.80232732    -327.07458     -456.77358     -341.04779    
    231500   463000         385.84264      213.46655      6164.5519      5837.3823      4139.2949      1698.0874      1388.8817      1472.3257      2626.0334      0             -3789.1535      0              0             -131.06544      105091.42      47.190628      47.190628      47.190628      0.79820826    -905.1282       977.75605      567.7718     
    232000   464000         391.79068      207.33232      6134.1209      5817.5301      4203.1051      1614.4249      1406.5744      1438.8307      2560.3375      0             -3791.3177      0              0             -131.55278      104702.11      47.132284      47.132284      47.132284      0.80117621    -154.15138     -51.529727      827.67807    
    232500   465000         389.56436     -328.85405      5464.8538      5973.7573      4179.2213      1794.536       1443.5205      1421.1772      2611.327       0             -3681.4887      0              0             -129.8073       106110.01      47.342601      47.342601      47.342601      0.79054602    -345.47168     -122.06765     -519.02283    
    233000   466000         395.89927      1030.4055      7306.815       5760.202       4247.1818      1513.0202      1408.4299      1355.2298      2589.7963      0             -3840.4357      0              0             -133.83135      102919.49      46.863264      46.863264      46.863264      0.81505308     912.85395      1438.0293      740.33326    
    233500   467000         393.30129     -28.615764      5788.0234      5831.2455      4219.3109      1611.9347      1402.8512      1418.0201      2604.9285      0             -3813.8651      0              0             -132.99359      103567.8       46.96146       46.96146       46.96146       0.80995098     23.58161      -178.83429      69.405388    
    234000   468000         386.64387      264.78768      6148.3479      5745.5065      4147.8905      1597.6161      1422.976       1383.148       2621.283       0             -3829.7909      0              0             -132.03684      104318.26      47.074616      47.074616      47.074616      0.80412422     395.21077      259.94935      139.20292    
    234500   469000         406.16307      840.40838      7225.1171      5956.4966      4357.2912      1599.2054      1471.567       1380.6547      2592.7232      0             -3845.7395      0              0             -133.07302      103505.99      46.952114      46.952114      46.952114      0.81043471     787.14117      1143.0823      591.00168    
    235000   470000         389.87031     -154.57829      5514.7573      5749.4339      4182.5035      1566.9304      1420.7513      1396.5142      2580.1251      0             -3830.4603      0              0             -132.31532      104098.71      47.041567      47.041567      47.041567      0.80582022    -204.31165     -476.32293      216.8997     
    235500   471000         384.6495      -832.55707      4437.675       5714.8331      4126.495       1588.3381      1419.8239      1402.1475      2584.7323      0             -3818.3655      0              0             -130.94856      105185.23      47.204665      47.204665      47.204665      0.79749642    -1603.9329     -141.3606      -752.37766    
    236000   472000         391.82791     -612.9347       4796.2304      5715.7824      4203.5045      1512.278       1437.14        1370.1097      2583.1953      0             -3878.1671      0              0             -133.89651      102869.4       46.855661      46.855661      46.855661      0.81544992    -904.81179     -779.49        -154.50232    
    236500   473000         400.12603      175.3462       6137.4002      5870.4308      4292.5261      1577.9046      1394.5586      1441.0746      2542.7528      0             -3800.4814      0              0             -131.93685      104397.32      47.086505      47.086505      47.086505      0.80351526     665.32765      672.0667      -811.35575    
    237000   474000         390.63534     -710.299        4695.4762      5766.7618      4190.7107      1576.0511      1444.5677      1366.3548      2613.6981      0             -3848.5696      0              0             -133.18867      103416.11      46.938521      46.938521      46.938521      0.81113904    -1007.275      -800.25834     -323.36366    
    237500   475000         393.46079     -735.78009      4657.3434      5774.5596      4221.0219      1553.5376      1415.2848      1387.3074      2607.8774      0             -3856.932       0              0             -132.29462      104114.99      47.04402       47.04402       47.04402       0.80569417    -582.87399     -977.42224     -647.04403    
    238000   476000         387.06109     -397.67089      5206.1887      5807.3662      4152.3663      1654.9999      1464.2996      1452.5689      2591.3567      0             -3853.2254      0              0             -132.87779      103658.06      46.975097      46.975097      46.975097      0.80924575    -964.90926     -293.87425      65.770843    
    238500   477000         395.94175      381.49203      6491.285       5914.1257      4247.6375      1666.4882      1429.9531      1446.9834      2634.3979      0             -3844.8463      0              0             -132.77647      103737.16      46.987044      46.987044      46.987044      0.80862866     828.1903       220.29622      95.989575    
    239000   478000         392.68422      376.02025      6376.3704      5802.0815      4212.691       1589.3906      1432.0073      1387.6295      2596.0164      0             -3826.2627      0              0             -131.52618      104723.29      47.135461      47.135461      47.135461      0.80101422     492.95216      293.70278      341.40583    
    239500   479000         386.82638      109.30385      5891.0687      5723.238       4149.8484      1573.3896      1413.4685      1428.559       2539.3728      0             -3808.0107      0              0             -130.82641      105283.44      47.219352      47.219352      47.219352      0.79675251     417.01601     -119.35879      30.254342    
    240000   480000         392.46548      1110.7272      7523.8335      5845.8562      4210.3443      1635.5119      1417.1661      1425.2543      2630.1816      0             -3837.0901      0              0             -132.9697       103586.41      46.964272      46.964272      46.964272      0.80980549     922.35111      1424.1116      985.71884    
    240500   481000         382.23932      112.18458      5897.1546      5727.2439      4100.6387      1626.6052      1395.1831      1425.5374      2645.5008      0             -3839.6162      0              0             -132.63063      103851.23      47.004259      47.004259      47.004259      0.80774051     394.80978     -238.97731      180.72129    
    241000   482000         388.54787     -270.08157      5193.5743      5604.0165      4168.3164      1435.7001      1351.5856      1410.7221      2511.5627      0             -3838.1703      0              0             -132.18259      104203.24      47.057307      47.057307      47.057307      0.80501186    -850.82499     -244.34571      284.92599    
    241500   483000         396.67239      115.17359      5876.8534      5704.3327      4255.4758      1448.857       1413.4247      1368.2606      2543.4608      0             -3876.2891      0              0             -134.10442      102709.92      46.831435      46.831435      46.831435      0.8167161      453.12544     -254.82095      147.21629    
    242000   484000         391.34979      513.54863      6510.5747      5730.2032      4198.3753      1531.8279      1386.561       1377.6825      2617.2595      0             -3849.675       0              0             -132.19393      104194.3       47.055962      47.055962      47.055962      0.80508092     362.35853      428.19641      750.09094    
    242500   485000         395.16327      203.25164      6073.5179      5765.7911      4239.286       1526.5051      1395.7296      1374.6954      2594.1388      0             -3838.0588      0              0             -132.67838      103813.86      46.99862       46.99862       46.99862       0.80803128     448.48239     -234.82399      396.09653    
    243000   486000         390.08948      43.102537      5724.0264      5658.1891      4184.8547      1473.3344      1346.7578      1357.4671      2570.9845      0             -3801.875       0              0             -131.5112       104735.21      47.13725       47.13725       47.13725       0.80092302    -314.64567      75.800944      368.15234    
    243500   487000         386.82959     -763.14964      4652.0221      5811.2816      4149.8828      1661.3988      1423.8306      1424.0151      2633.7514      0             -3820.1983      0              0             -132.23925      104158.59      47.050586      47.050586      47.050586      0.80535692    -910.69859     -472.82326     -905.92707    
    244000   488000         392.51038     -108.01248      5658.9633      5822.8555      4210.826       1612.0295      1410.6319      1442.2763      2612.4208      0             -3853.2995      0              0             -132.38752      104041.93      47.033014      47.033014      47.033014      0.80625993     202.33984     -492.42826     -33.949033    
    244500   489000         389.7551      -39.087498      5750.917       5809.6811      4181.2675      1628.4137      1427.9219      1444.2553      2631.5386      0             -3875.3022      0              0             -133.6156       103085.67      46.888474      46.888474      46.888474      0.81373913    -289.86139      424.89207     -252.29317    
    245000   490000         388.92779      178.32136      5985.3946      5718.0284      4172.3922      1545.6362      1390.6715      1418.5126      2604.2098      0             -3867.7577      0              0             -133.97641      102808.06      46.846346      46.846346      46.846346      0.81593647     209.02381      242.45515      83.485115    
    245500   491000         382.13365     -807.34953      4489.4947      5701.7277      4099.5051      1602.2226      1418.4675      1422.7142      2619.9953      0             -3858.9543      0              0             -133.78483      102955.28      46.868696      46.868696      46.868696      0.81476972    -454.05216     -1601.6354     -366.36104    
    246000   492000         391.03065      90.295159      5923.8817      5787.6552      4194.9516      1592.7036      1414.2247      1444.818       2568.3388      0             -3834.6779      0              0             -133.14785      103447.82      46.943317      46.943317      46.943317      0.81089042    -255.90114     -274.64326      801.42988    
    246500   493000         389.60758      297.3254       6180.3475      5728.4494      4179.685       1548.7644      1433.1458      1392.049       2577.8884      0             -3854.3188      0              0             -132.16695      104215.57      47.059164      47.059164      47.059164      0.80491661     496.60329      415.97598     -20.603075    
    247000   494000         389.63836      94.088406      5819.6992      5678.6031      4180.0152      1498.588       1350.0744      1433.0376      2586.6908      0             -3871.2148      0              0             -133.95307      102825.97      46.849066      46.849066      46.849066      0.81579435     490.86798     -312.78959      104.18684    
    247500   495000         389.43402      391.61031      6374.9146      5778.5442      4177.823       1600.7212      1377.3332      1435.4994      2586.0403      0             -3798.1517      0              0             -131.90746      104420.58      47.090001      47.090001      47.090001      0.80333631     377.62383      215.50656      581.70053    
    248000   496000         386.67308      6.9567467      5746.0914      5735.5829      4148.2038      1587.3791      1406.6871      1422.7086      2633.413       0             -3875.4296      0              0             -132.98356      103575.61      46.96264       46.96264       46.96264       0.80988991     138.74737     -346.91222      229.03509    
    248500   497000         382.16213      70.474561      5821.9317      5715.2125      4099.8106      1615.4019      1398.2118      1412.9759      2631.5846      0             -3827.3704      0              0             -132.6543       103832.7       47.001463      47.001463      47.001463      0.80788466     129.22868      724.1723      -641.9773     
    249000   498000         391.46369     -356.82624      5304.3677      5843.4576      4199.5972      1643.8604      1379.4143      1468.5789      2656.0297      0             -3860.1625      0              0             -132.9618       103592.56      46.965202      46.965202      46.965202      0.80975739    -1067.2313      9.4920183     -12.739389    
    249500   499000         391.76171     -181.32792      5440.2003      5711.239       4202.7943      1508.4447      1342.9155      1442.5472      2616.9146      0             -3893.9326      0              0             -134.38933      102492.17      46.798316      46.798316      46.798316      0.81845127    -342.16768     -146.67107     -55.145001    
    250000   500000         380.2438       77.647957      5690.0571      5573.0915      4079.2309      1493.8606      1361.7625      1366.3022      2630.8269      0             -3865.0311      0              0             -133.35315      103288.56      46.919215      46.919215      46.919215      0.81214072     883.56696     -439.57892     -211.04417    
    250500   501000         389.2411       14.052517      5698.0073      5676.7486      4175.7533      1500.9953      1391.8783      1405.0568      2570.5122      0             -3866.452       0              0             -132.78521      103730.34      46.986013      46.986013      46.986013      0.80868189    -534.25696     -532.66584      1109.0803    
    251000   502000         383.78069      532.9738       6500.6268      5692.5823      4117.1745      1575.4079      1442.8009      1439.6564      2538.8595      0             -3845.909       0              0             -132.49575      103956.95      47.020205      47.020205      47.020205      0.80691903     950.91798      536.42149      111.58194    
    251500   503000         388.86561     -655.91137      4678.1006      5665.3487      4171.7251      1493.6236      1340.6555      1413.8015      2565.6547      0             -3826.488       0              0             -133.45972      103206.07      46.906722      46.906722      46.906722      0.81278979    -869.67387     -100.70603     -997.35421    
    252000   504000         389.46183     -553.11207      4881.5702      5716.9451      4178.1214      1538.8237      1387.1105      1414.8102      2542.9746      0             -3806.0716      0              0             -133.00351      103560.08      46.960292      46.960292      46.960292      0.81001138    -585.20523     -383.30801     -690.82297    
    252500   505000         397.49561     -270.38422      5384.4986      5791.382       4264.3073      1527.0748      1420.5474      1422.6453      2560.5296      0             -3876.6476      0              0             -133.48814      103184.1       46.903393      46.903393      46.903393      0.81296286    -715.8861       347.83724     -443.10381    
    253000   506000         389.99383     -640.67286      4804.6039      5775.373       4183.8286      1591.5444      1434.0262      1429.754       2572.8772      0             -3845.1129      0              0             -132.57199      103897.17      47.011189      47.011189      47.011189      0.80738335    -170.89157     -957.01165     -794.11537    
    253500   507000         380.81675     -859.59628      4320.2141      5623.7127      4085.3775      1538.3352      1411.8454      1450.6278      2525.6683      0             -3849.8063      0              0             -132.46933      103977.69      47.02333       47.02333       47.02333       0.80675814    -1251.0349     -1134.5366     -193.2174     
    254000   508000         386.34096     -399.68789      5080.2643      5683.9553      4144.6408      1539.3145      1447.3565      1360.6354      2589.2548      0             -3857.9322      0              0             -132.99572      103566.15      46.961209      46.961209      46.961209      0.80996393    -212.03559     -763.85926     -223.16882    
    254500   509000         387.35232     -392.04207      5109.6417      5699.5129      4155.4906      1544.0223      1418.4316      1425.5151      2560.6341      0             -3860.5585      0              0             -133.50787      103168.86      46.901083      46.901083      46.901083      0.813083      -198.49312     -1176.4063      198.77318    
    255000   510000         386.27247      28.706111      5643.7701      5600.7677      4143.9061      1456.8616      1400.2609      1355.6914      2570.2986      0             -3869.3893      0              0             -134.09493      102717.19      46.832539      46.832539      46.832539      0.8166583     -1297.745       830.43865      553.42469    
    255500   511000         388.00807      431.76679      6349.4247      5701.3456      4162.5255      1538.8201      1458.0293      1382.7528      2560.7077      0             -3862.6697      0              0             -133.82972      102920.74      46.863455      46.863455      46.863455      0.81504314     1156.7333      285.88241     -147.31531    
    256000   512000         392.14066     -496.14643      4974.3582      5732.233       4206.8597      1525.3734      1396.0831      1404.2793      2563.3309      0             -3838.3199      0              0             -131.50545      104739.8       47.137938      47.137938      47.137938      0.80088796    -832.59206     -894.5017       238.65448    
    256500   513000         386.00008     -695.31007      4625.3065      5682.1242      4140.9839      1541.1403      1430.5385      1414.9257      2554.1572      0             -3858.4811      0              0             -132.16298      104218.7       47.059635      47.059635      47.059635      0.80489243    -509.97426     -749.54246     -826.41348    
    257000   514000         393.75032     -606.79492      4831.9777      5750.8267      4224.128       1526.6987      1396.2752      1393.1636      2572.2759      0             -3835.016       0              0             -132.65669      103830.83      47.001181      47.001181      47.001181      0.80789921    -10.174066     -697.31714     -1112.8935    
    257500   515000         384.91298     -151.87313      5449.5865      5678.4836      4129.3216      1549.1619      1442.9437      1430.0192      2551.5409      0             -3875.3418      0              0             -133.28219      103343.54      46.927539      46.927539      46.927539      0.81170862    -958.37872      756.19154     -253.43221    
    258000   516000         388.61016      335.63624      6305.0278      5801.8644      4168.9846      1632.8798      1473.6892      1444.6763      2588.8051      0             -3874.2908      0              0             -133.99579      102793.18      46.844086      46.844086      46.844086      0.81605455     671.66724      592.79377     -257.55229    
    258500   517000         393.66981     -8.0535496      5738.6684      5750.8794      4223.2643      1527.6152      1448.6062      1350.9217      2596.9129      0             -3868.8257      0              0             -132.48456      103965.73      47.021528      47.021528      47.021528      0.80685092    -40.824483     -176.25877      192.92261    
    259000   518000         387.06483      377.35327      6339.9638      5772.9551      4152.4065      1620.5486      1483.0339      1413.6009      2592.9737      0             -3869.0599      0              0             -133.68719      103030.47      46.880104      46.880104      46.880104      0.81417508    -647.92051      931.83195      848.14837    
    259500   519000         385.33961      244.79094      6060.8417      5690.7607      4133.8985      1556.8623      1454.1886      1392.2983      2533.554       0             -3823.1787      0              0             -132.87092      103663.42      46.975908      46.975908      46.975908      0.80920387     295.99105      284.97549      153.40629    
    260000   520000         388.20237     -138.13073      5377.9055      5586.7125      4164.61        1422.1025      1381.9022      1381.2666      2505.337       0             -3846.4033      0              0             -132.88522      103652.27      46.974223      46.974223      46.974223      0.80929096     46.64106      -490.382        29.348746    
    260500   521000         382.30221     -226.65181      5268.3144      5606.8123      4101.3134      1505.4989      1405.5919      1448.3575      2522.7499      0             -3871.2004      0              0             -134.5038       102404.94      46.785037      46.785037      46.785037      0.81914838    -416.92024      377.82648     -640.86166    
    261000   522000         395.52636      711.97088      6883.8373      5812.1836      4243.1813      1569.0023      1448.413       1452.5117      2560.3075      0             -3892.2299      0              0             -133.45631      103208.71      46.907122      46.907122      46.907122      0.81276904     982.28345      530.98822      622.64098    
    261500   523000         394.38271     -196.15153      5313.4455      5610.0093      4230.9122      1379.097       1401.9584      1371.9716      2472.6565      0             -3867.4895      0              0             -132.86328      103669.38      46.976808      46.976808      46.976808      0.80915738    -565.43356      623.90193     -646.92295    
    262000   524000         383.54332      301.53064      6032.6537      5581.9868      4114.6279      1467.3589      1430.9029      1353.8399      2574.6186      0             -3892.0024      0              0             -134.40242      102482.19      46.796797      46.796797      46.796797      0.81853098     1070.4839     -162.70987     -3.1821261    
    262500   525000         390.99987     -57.615426      5718.9742      5805.3985      4194.6214      1610.7771      1479.9355      1420.4972      2599.6186      0             -3889.2742      0              0             -133.91667      102853.92      46.85331       46.85331       46.85331       0.81557268     305.4011      -501.56455      23.317171    
    263000   526000         381.06953     -100.65703      5499.2412      5651.5563      4088.0893      1563.467       1428.3911      1420.5466      2559.7384      0             -3845.2091      0              0             -132.74944      103758.28      46.990232      46.990232      46.990232      0.80846407     390.53228     -823.85577      131.35239    
    263500   527000         391.52403     -491.52119      5011.4636      5750.5001      4200.2445      1550.2556      1433.1573      1430.9518      2562.7978      0             -3876.6514      0              0             -133.6004       103097.4       46.890253      46.890253      46.890253      0.81364653    -694.38167     -794.95585      14.773949    
    264000   528000         393.41927      764.60173      6771.1753      5625.2187      4220.5765      1404.6422      1358.8531      1402.1065      2532.0622      0             -3888.3796      0              0             -134.0289       102767.79      46.840229      46.840229      46.840229      0.81625617     816.05394      325.39449      1152.3568    
    264500   529000         379.53606     -9.1529058      5522.4671      5536.3324      4071.6384      1464.6941      1383.3847      1416.9275      2535.8215      0             -3871.4396      0              0             -132.6046       103871.61      47.007334      47.007334      47.007334      0.80758199    -241.06417      397.30419     -183.69874    
    265000   530000         388.54023      178.74108      6034.5591      5764.3434      4168.2345      1596.1089      1412.1543      1477.3029      2541.4081      0             -3834.7563      0              0             -132.87559      103659.78      46.975358      46.975358      46.975358      0.80923231    -57.789324     -10.771829      604.78441    
    265500   531000         380.37549     -184.87486      5315.4985      5595.6166      4080.6437      1514.9729      1447.8457      1380.0818      2535.6864      0             -3848.641       0              0             -132.57695      103893.28      47.010603      47.010603      47.010603      0.80741357    -94.682122     -357.26423     -102.67821    
    266000   532000         390.85868     -211.4579       5378.2448      5699.8801      4193.1067      1506.7734      1381.651       1391.2015      2580.2974      0             -3846.3764      0              0             -132.06616      104295.1       47.071132      47.071132      47.071132      0.8043028     -227.68788     -357.13828     -49.547525    
    266500   533000         385.42187     -4.9388557      5666.1236      5673.6519      4134.7809      1538.871       1450.6431      1410.8027      2510.343       0             -3832.9177      0              0             -131.78195      104520.04      47.104947      47.104947      47.104947      0.80257189     346.18444     -229.88752     -131.11348    
    267000   534000         392.50941     -679.49596      4662.0644      5688.0216      4210.8156      1477.206       1408.1006      1385.9036      2571.8149      0             -3888.6131      0              0             -133.04207      103530.06      46.955755      46.955755      46.955755      0.81024622    -1418.7667     -286.67702     -333.04415    
    267500   535000         398.41221     -3.4893137      5809.2705      5814.4887      4274.1405      1540.3482      1440.7475      1376.4533      2589.1299      0             -3865.9826      0              0             -134.32405      102541.98      46.805896      46.805896      46.805896      0.81805368     420.17992     -1400.6417      969.99384    
    268000   536000         392.94747     -529.40732      5024.3589      5829.04        4215.5151      1613.5249      1449.6123      1436.9665      2552.1554      0             -3825.2093      0              0             -132.15923      104221.66      47.06008       47.06008       47.06008       0.80486959    -4.3082421     -532.49898     -1051.4147    
    268500   537000         396.21569     -188.57248      5427.4486      5709.743       4250.5763      1459.1667      1438.3587      1336.1238      2573.9806      0             -3889.2964      0              0             -134.18607      102647.42      46.821934      46.821934      46.821934      0.81721335    -959.09754      745.09885     -351.71875    
    269000   538000         387.35539     -307.08596      5235.1438      5702.75        4155.5235      1547.2264      1456.4038      1315.0049      2596.1552      0             -3820.3375      0              0             -131.92012      104410.56      47.088495      47.088495      47.088495      0.8034134     -29.866248     -225.41478     -665.97684    
    269500   539000         395.34493     -504.0875       5095.6617      5854.1406      4241.2349      1612.9057      1476.5508      1389.8361      2625.0752      0             -3878.5564      0              0             -133.50384      103171.97      46.901554      46.901554      46.901554      0.8130585     -678.11492     -123.16287     -710.9847     
    270000   540000         388.12291      257.15968      6065.5413      5680.2488      4163.7575      1516.4914      1415.5434      1374.372       2584.2221      0             -3857.6462      0              0             -134.07375      102733.41      46.835005      46.835005      46.835005      0.81652931     570.57889      190.60097      10.299184    
    270500   541000         393.67929     -564.48519      4967.6275      5826.7976      4223.366       1603.4316      1461.2482      1391.9738      2592.2098      0             -3842.0002      0              0             -131.97898      104364         47.081494      47.081494      47.081494      0.80377186    -1467.759       111.8313      -337.52782    
    271000   542000         386.29651     -693.29637      4693.0189      5738.8085      4144.164       1594.6445      1443.3685      1441.0221      2575.6964      0             -3865.4425      0              0             -133.16987      103430.71      46.94073       46.94073       46.94073       0.81102454    -574.39794     -618.41503     -887.07614    
    271500   543000         398.58702     -86.218467      5666.8383      5795.7809      4276.0158      1519.7651      1385.3778      1370.0196      2650.922       0             -3886.5543      0              0             -134.31832      102546.36      46.806562      46.806562      46.806562      0.81801877     227.58493     -198.62614     -287.61419    
    272000   544000         391.00246     -35.665362      5596.5706      5650.5199      4194.6492      1455.8708      1401.2918      1324.4823      2561.2966      0             -3831.2         0              0             -132.79803      103720.32      46.984501      46.984501      46.984501      0.80875998    -734.90472      488.18739      139.72125    
    272500   545000         386.08174      686.49056      6810.8001      5760.7253      4141.86        1618.8653      1493.0652      1358.8007      2572.8578      0             -3805.8584      0              0             -131.32447      104884.14      47.159581      47.159581      47.159581      0.79978579     163.75258      1073.2798      822.43933    
    273000   546000         392.44517     -951.97686      4400.0293      5843.7446      4210.1265      1633.6182      1457.1942      1440.4262      2590.9939      0             -3854.9961      0              0             -132.45739      103987.06      47.024743      47.024743      47.024743      0.80668541    -927.91518     -780.11603     -1147.8994    
    273500   547000         388.35381      37.481148      5795.583       5738.6321      4166.2346      1572.3975      1422.563       1389.1235      2576.0729      0             -3815.3619      0              0             -132.20382      104186.51      47.054789      47.054789      47.054789      0.80514114    -196.86411      99.922279      209.38527    
    274000   548000         386.17532      273.60551      6095.5728      5684.2887      4142.8639      1541.4248      1401.9671      1464.4436      2543.5559      0             -3868.5417      0              0             -133.63318      103072.11      46.886419      46.886419      46.886419      0.81384616     202.38569      256.67453      361.7563     
    274500   549000         388.32526     -133.93386      5607.6221      5812.2283      4165.9283      1646.3         1444.138       1410.863       2615.0026      0             -3823.7037      0              0             -131.49314      104749.6       47.139408      47.139408      47.139408      0.80081304     51.751632     -251.57114     -201.98209    
    275000   550000         393.66738      1.2036995      5830.5832      5828.7761      4223.2382      1605.538       1434.6981      1427.2987      2631.6579      0             -3888.1168      0              0             -133.80366      102940.78      46.866497      46.866497      46.866497      0.81488444    -529.53578      239.13235      294.01453    
    275500   551000         394.80368     -31.861726      5672.804       5720.7898      4235.4284      1485.3614      1395.1736      1405.3556      2533.7716      0             -3848.9394      0              0             -133.37922      103268.36      46.916157      46.916157      46.916157      0.81229953    -159.89763     -37.371791      101.68424    
    276000   552000         385.92968     -758.89774      4650.0631      5789.0227      4140.2287      1648.794       1423.5326      1429.8182      2669.8212      0             -3874.378       0              0             -133.84629      102908         46.861521      46.861521      46.861521      0.81514403    -399.34227     -535.4238      -1341.9271    
    276500   553000         385.19061      560.9436       6634.3715      5782.1545      4132.3         1649.8545      1448.4774      1425.6609      2588.3683      0             -3812.652       0              0             -132.22098      104172.98      47.052752      47.052752      47.052752      0.80524568     818.26723      56.888179      807.6754     
    277000   554000         383.64393     -241.50936      5257.3024      5622.851       4115.7073      1507.1437      1428.519       1374.693       2568.1638      0             -3864.2322      0              0             -132.71505      103785.17      46.994291      46.994291      46.994291      0.80825461     370.21439     -231.44154     -863.30092    
    277500   555000         384.92829     -36.301236      5677.6102      5732.6181      4129.4858      1603.1323      1461.0564      1411.6263      2570.3006      0             -3839.851       0              0             -132.56457      103902.98      47.012066      47.012066      47.012066      0.80733816     309.63611     -706.07653      287.53671    
    278000   556000         380.77107      103.49973      5797.1785      5640.0178      4084.8874      1555.1304      1438.8855      1416.2492      2522.4588      0             -3822.4631      0              0             -132.28984      104118.76      47.044587      47.044587      47.044587      0.80566506     715.33139      134.66714     -539.49934    
    278500   557000         395.03697     -373.78503      5307.0231      5866.2129      4237.9311      1628.2818      1470.2435      1452.8166      2597.8336      0             -3892.6119      0              0             -134.27466      102579.7       46.811635      46.811635      46.811635      0.81775288    -146.49139     -619.37471     -355.48899    
    279000   558000         384.89632     -196.71923      5352.7678      5648.8972      4129.1428      1519.7544      1448.7727      1361.0658      2591.9355      0             -3882.0196      0              0             -133.44328      103218.79      46.908649      46.908649      46.908649      0.81268964    -742.98365     -87.30435       240.13032    
    279500   559000         394.06139      104.02818      5943.7692      5787.3331      4227.4651      1559.868       1469.264       1412.4691      2524.3475      0             -3846.2125      0              0             -133.58128      103112.16      46.892489      46.892489      46.892489      0.81353011     819.50966      115.25725     -622.68235    
    280000   560000         393.55032      171.57496      5988.9189      5729.6769      4221.9824      1507.6945      1472.1658      1389.8794      2504.7878      0             -3859.1386      0              0             -132.94744      103603.75      46.966893      46.966893      46.966893      0.80966992     197.00385      1015.1604     -697.43934    
    280500   561000         382.27596     -214.85577      5290.8424      5613.9283      4101.0318      1512.8965      1447.4145      1352.5918      2573.3615      0             -3860.4713      0              0             -133.58584      103108.64      46.891956      46.891956      46.891956      0.81355788     304.25813     -837.27615     -111.5493     
    281000   562000         387.16527      360.18232      6253.4043      5706.2305      4153.484       1552.7466      1434.7612      1400.8398      2545.6478      0             -3828.5022      0              0             -132.22954      104166.24      47.051737      47.051737      47.051737      0.80529779     280.13639      725.15696      75.253604    
    281500   563000         389.10682     -534.54418      4870.9716      5682.7325      4174.3129      1508.4196      1393.189       1385.1532      2562.2963      0             -3832.2189      0              0             -132.27777      104128.26      47.046018      47.046018      47.046018      0.8055915     -435.47262     -186.99537     -981.16455    
    282000   564000         390.20274     -753.2805       4513.4799      5652.9621      4186.0698      1466.8923      1446.6817      1326.3512      2552.7229      0             -3858.8636      0              0             -132.79463      103722.97      46.984901      46.984901      46.984901      0.80873931    -915.62616     -227.4512      -1116.7641    
    282500   565000         383.14492      124.10699      5849.7491      5663.2344      4110.354       1552.8805      1418.5201      1403.6247      2604.6757      0             -3873.94        0              0             -133.66401      103048.33      46.882813      46.882813      46.882813      0.81403396     662.67761     -510.91138      220.55474    
    283000   566000         388.25574      28.677528      5660.6038      5617.8628      4165.1825      1452.6803      1398.4281      1384.4386      2555.7258      0             -3885.9123      0              0             -134.78071      102194.55      46.752974      46.752974      46.752974      0.82083481    -345.61663     -67.109736      498.75895    
    283500   567000         399.62424     -396.68701      5245.9719      5841.5263      4287.143       1554.3832      1422.2556      1433.4687      2593.9249      0             -3895.2659      0              0             -133.80056      102943.18      46.86686       46.86686       46.86686       0.81486552    -258.39154     -445.99456     -485.67494    
    284000   568000         394.66076      47.680597      5796.7616      5725.1779      4233.8952      1491.2827      1392.8813      1401.1627      2598.6844      0             -3901.4456      0              0             -133.80085      102942.95      46.866825      46.866825      46.866825      0.81486734     364.3219      -67.649997     -153.63011    
    284500   569000         387.85804     -35.260823      5616.8007      5669.8403      4160.916       1508.9243      1403.7908      1438.179       2543.3243      0             -3876.3699      0              0             -133.54397      103140.96      46.896856      46.896856      46.896856      0.81330289     5.7206298     -538.70441      427.20132    
    285000   570000         384.17515      349.30745      6231.468       5709.6437      4121.4062      1588.2375      1460.741       1394.7376      2599.9591      0             -3867.2002      0              0             -134.46676      102433.15      46.789332      46.789332      46.789332      0.81892278     40.879274      521.5534       485.48968    
    285500   571000         388.22143      26.314815      5685.7237      5646.2785      4164.8144      1481.4641      1419.1473      1391.3406      2556.8302      0             -3885.854       0              0             -134.01023      102782.11      46.842404      46.842404      46.842404      0.81614248    -368.17032     -251.37733      698.4921     
    286000   572000         390.93913     -335.53384      5300.1746      5807.0331      4193.9697      1613.0634      1467.819       1408.06        2596.9965      0             -3859.8121      0              0             -132.97834      103579.68      46.963255      46.963255      46.963255      0.8098581      63.997355     -470.03157     -600.56731    
    286500   573000         393.26512     -667.48477      4683.7737      5697.7532      4218.9228      1478.8305      1418.0064      1444.0547      2475.8815      0             -3859.1121      0              0             -132.23412      104162.63      47.051193      47.051193      47.051193      0.80532572    -536.8465      -874.82599     -590.78182    
    287000   574000         400.31225      142.14492      6043.3296      5827.9395      4294.524       1533.4156      1480.8971      1398.5265      2517.4623      0             -3863.4704      0              0             -132.56748      103900.7       47.011722      47.011722      47.011722      0.80735592    -221.845        700.90163     -52.621863    
    287500   575000         392.00027      531.17675      6443.1774      5635.2435      4205.3536      1429.8899      1429.4106      1331.2429      2504.4097      0             -3835.1732      0              0             -132.06708      104294.38      47.071023      47.071023      47.071023      0.80430838     177.93129      749.92432      665.67463    
    288000   576000         385.41208      441.74158      6323.5338      5658.6371      4134.6759      1523.9613      1448.5584      1374.2568      2584.6604      0             -3883.5143      0              0             -133.45827      103207.2       46.906893      46.906893      46.906893      0.81278093     433.38658      240.15114      651.68702    
    288500   577000         385.67668      187.91396      5991.4335      5710.1938      4137.5145      1572.6792      1483.2881      1385.8644      2605.0536      0             -3901.5268      0              0             -134.2189       102622.32      46.818117      46.818117      46.818117      0.81741327     136.81783      895.64792     -468.72387    
    289000   578000         389.20797      191.83611      5949.3805      5660.5118      4175.3979      1485.1138      1375.8168      1413.4046      2586.9764      0             -3891.0841      0              0             -133.40166      103251         46.913527      46.913527      46.913527      0.81243616     127.64995      105.55893      342.29945    
    289500   579000         386.66623      570.18698      6640.8119      5785.7571      4148.1304      1637.6267      1478.058       1442.0018      2593.9805      0             -3876.4136      0              0             -133.95371      102825.48      46.848992      46.848992      46.848992      0.81579823     1245.3616     -270.17956      735.37884    
    290000   580000         394.82751     -266.31407      5340.0284      5743.7582      4235.684       1508.0742      1380.2607      1409.2093      2549.7436      0             -3831.1394      0              0             -132.50575      103949.11      47.019022      47.019022      47.019022      0.80697993     364.24736     -328.09302     -835.09656    
    290500   581000         388.21337      753.73375      6853.871       5720.4161      4164.728       1555.6882      1451.2427      1401.8478      2586.4424      0             -3883.8448      0              0             -133.58113      103112.27      46.892507      46.892507      46.892507      0.81352917     484.70618      549.15648      1227.3386    
    291000   582000         394.38318     -163.04062      5669.861       5916.6191      4230.9173      1685.7018      1472.3815      1453.9284      2596.0965      0             -3836.7046      0              0             -132.72593      103776.66      46.993007      46.993007      46.993007      0.80832089    -53.245698     -782.79027      346.9141     
    291500   583000         385.95933     -103.02926      5432.9827      5588.4309      4140.5468      1447.8841      1420.3803      1335.8762      2574.1672      0             -3882.5396      0              0             -133.13933      103454.43      46.944318      46.944318      46.944318      0.81083856    -496.95325      540.82389     -352.95842    
    292000   584000         381.49385     -605.09492      4782.2312      5700.1213      4092.6414      1607.4799      1428.7111      1421.1792      2593.9807      0             -3836.3911      0              0             -132.42323      104013.88      47.028785      47.028785      47.028785      0.80647742    -156.16816     -690.84741     -968.26919    
    292500   585000         384.86099      800.29861      6792.986       5594.2483      4128.7638      1465.4845      1412.1732      1393.9674      2536.5871      0             -3877.2431      0              0             -134.10942      102706.09      46.830853      46.830853      46.830853      0.81674654     873.12265      866.51405      661.25913    
    293000   586000         395.33266      88.867715      5833.7161      5700.0363      4241.1032      1458.9331      1374.7468      1357.6828      2577.7747      0             -3851.2713      0              0             -133.53948      103144.44      46.897382      46.897382      46.897382      0.81327551    -298.46017      179.44988      385.61343    
    293500   587000         392.66224      133.12097      5891.4131      5690.3688      4212.4551      1477.9137      1332.7134      1406.1949      2588.2324      0             -3849.2271      0              0             -133.01059      103554.57      46.959459      46.959459      46.959459      0.81005451     95.633407     -188.13953      491.86904    
    294000   588000         391.19909     -113.41304      5648.0477      5820.0143      4196.7586      1623.2556      1424.2529      1438.1377      2612.2208      0             -3851.3558      0              0             -132.48         103969.31      47.022067      47.022067      47.022067      0.80682316    -615.24338     -507.91745      782.9217     
    294500   589000         389.80212      132.9607       5933.831       5730.4388      4181.772       1548.6668      1396.7184      1374.8706      2582.2483      0             -3805.1706      0              0             -131.31677      104890.29      47.160503      47.160503      47.160503      0.79973891     182.84104      596.47653     -380.43547    
    295000   590000         381.90805      85.493416      5655.634       5524.8167      4097.0849      1427.7318      1406.4166      1316.6293      2541.3003      0             -3836.6144      0              0             -131.28004      104919.64      47.164901      47.164901      47.164901      0.79951518     525.23185     -181.18701     -87.564596    
    295500   591000         394.86478     -352.30098      5310.3656      5840.925       4236.0839      1604.8411      1456.6867      1394.9624      2606.39        0             -3853.198       0              0             -133.38629      103262.89      46.915328      46.915328      46.915328      0.81234259    -387.06257     -1368.3075      698.46715    
    296000   592000         387.18117     -165.17794      5474.9289      5724.9109      4153.6546      1571.2563      1452.7115      1354.5829      2644.662       0             -3880.7         0              0             -132.73169      103772.16      46.992327      46.992327      46.992327      0.80835596    -96.142553     -311.86513     -87.526134    
    296500   593000         389.91211     -255.54764      5433.806       5818.8256      4182.9519      1635.8737      1434.8933      1400.118       2673.2279      0             -3872.3655      0              0             -133.32768      103308.28      46.922201      46.922201      46.922201      0.81198566    -359.28049     -660.80588      253.44345    
    297000   594000         388.91383     -219.62807      5373.2055      5706.2188      4172.2424      1533.9764      1423.855       1396.3595      2586.4025      0             -3872.6405      0              0             -132.48221      103967.58      47.021806      47.021806      47.021806      0.80683657    -104.96427     -217.12237     -336.79756    
    297500   595000         389.09835      102.69471      5803.1816      5649.0664      4174.222       1474.8445      1405.5017      1379.953       2556.1918      0             -3866.8021      0              0             -133.85481      102901.45      46.860527      46.860527      46.860527      0.81519593    -82.794176      217.47227      173.40602    
    298000   596000         384.18795      412.7623       6233.2216      5618.4598      4121.5435      1496.9163      1438.3859      1421.461       2541.2383      0             -3904.1689      0              0             -134.87284      102124.74      46.742326      46.742326      46.742326      0.82139589     572.21086     -66.77294       732.84899    
    298500   597000         394.13077     -21.633659      5726.3997      5758.4925      4228.2094      1530.2831      1443.019       1474.3293      2553.4314      0             -3940.4966      0              0             -135.41094      101718.92      46.680329      46.680329      46.680329      0.82467297     631.7815      -473.97096     -222.71151    
    299000   598000         387.28415     -235.22585      5321.7104      5676.4279      4154.7594      1521.6685      1443.5206      1415.699       2571.8615      0             -3909.4126      0              0             -133.20907      103400.27      46.936125      46.936125      46.936125      0.81126327    -583.31063     -181.26488      58.897971    
    299500   599000         392.756       -79.540489      5587.6976      5706.4611      4213.461       1493.0001      1442.8307      1439.8898      2531.4336      0             -3921.154       0              0             -134.53542      102380.87      46.781371      46.781371      46.781371      0.81934098     296.18989      326.07156     -860.88292    
    300000   600000         387.06569     -119.82811      5553.9706      5734.0243      4152.4157      1581.6086      1436.9822      1444.9249      2575.4273      0             -3875.7259      0              0             -133.68661      103030.92      46.880171      46.880171      46.880171      0.81417156    -444.5487       8.5948643      76.469508    
    300500   601000         389.13856      24.514436      5807.8671      5770.8885      4174.6533      1596.2351      1448.8459      1392.2223      2656.501       0             -3901.3341      0              0             -133.16885      103431.5       46.940849      46.940849      46.940849      0.81101832     576.07933     -277.06867     -225.46735    
    301000   602000         385.60115      238.5891       5993.0849      5631.6722      4136.7042      1494.968       1381.1982      1365.5123      2567.4526      0             -3819.1951      0              0             -132.6107       103866.83      47.006613      47.006613      47.006613      0.80761915     919.26834     -221.97545      18.474403    
    301500   603000         390.16479      69.466671      5774.979       5670.9713      4185.6627      1485.3086      1417.297       1366.7385      2581.7924      0             -3880.5193      0              0             -134.16598      102662.79      46.824271      46.824271      46.824271      0.81709101    -30.853003     -38.017097      277.27011    
    302000   604000         386.65779     -661.16897      4737.7063      5729.1323      4148.0398      1581.0925      1424.3039      1427.5191      2607.9143      0             -3878.6448      0              0             -133.96258      102818.66      46.847957      46.847957      46.847957      0.8158523     -697.79424     -605.23251     -680.48017    
    302500   605000         390.75061      458.20445      6570.8658      5879.0554      4191.9473      1687.1081      1441.6826      1469.6839      2634.8641      0             -3859.1224      0              0             -133.04654      103526.59      46.955229      46.955229      46.955229      0.81027345     231.25785      801.38469      341.9708     
    303000   606000         389.93206     -176.20797      5430.2516      5694.5325      4183.1659      1511.3666      1385.0704      1426.3942      2549.9491      0             -3850.0472      0              0             -133.93411      102840.53      46.851277      46.851277      46.851277      0.81567887    -382.75482      91.873187     -237.74227    
    303500   607000         388.94343     -91.038362      5545.0052      5682.5969      4172.5599      1510.0369      1386.6484      1413.6918      2540.8403      0             -3831.1436      0              0             -132.91184      103631.51      46.971086      46.971086      46.971086      0.80945309    -487.48453      989.4327      -775.06326    
    304000   608000         398.8986      -79.106757      5611.6873      5730.8393      4279.3584      1451.4809      1398.3066      1433.9607      2457.7551      0             -3838.5415      0              0             -133.36553      103278.97      46.917763      46.917763      46.917763      0.81221613     184.65686      486.49704     -908.47417    
    304500   609000         401.14341     -727.88898      4817.0916      5933.5681      4303.4406      1630.1275      1461.9914      1384.7434      2555.7601      0             -3772.3674      0              0             -130.96249      105174.04      47.202991      47.202991      47.202991      0.79758125    -483.94568     -984.16763     -715.55364    
    305000   610000         392.40816     -177.22904      5513.8031      5784.8878      4209.7294      1575.1584      1447.5895      1362.2974      2583.9372      0             -3818.6657      0              0             -131.3292       104880.37      47.159016      47.159016      47.159016      0.79981456    -292.41316     -529.66078      290.38683    
    305500   611000         390.39975      345.89664      6293.5361      5767.4483      4188.1833      1579.265       1426.3923      1392.695       2571.2138      0             -3811.0362      0              0             -132.07465      104288.4       47.070123      47.070123      47.070123      0.8043545      302.6191       643.64321      91.427603    
    306000   612000         390.13348      34.358157      5869.4294      5816.823       4185.3268      1631.4962      1472.2646      1387.6831      2564.3423      0             -3792.7937      0              0             -131.19667      104986.31      47.174889      47.174889      47.174889      0.79900748    -769.593        235.75075      636.91672    
    306500   613000         392.52149      440.52134      6553.3306      5890.9043      4210.9452      1679.9591      1482.051       1413.4589      2651.6854      0             -3867.2361      0              0             -133.58593      103108.57      46.891945      46.891945      46.891945      0.81355844     353.11134      122.60325      845.84943    
    307000   614000         394.22295     -558.28761      5098.3569      5952.4623      4229.1983      1723.264       1428.4056      1455.9342      2631.4405      0             -3792.5163      0              0             -131.30398      104900.5       47.162034      47.162034      47.162034      0.79966101    -261.95816     -537.31985     -875.58483    
    307500   615000         388.60668     -71.403623      5719.5536      5828.5624      4168.9474      1659.615       1429.527       1431.1885      2609.6122      0             -3810.7127      0              0             -131.58001      104680.44      47.129032      47.129032      47.129032      0.80134207    -302.82321      29.681813      58.930531    
    308000   616000         378.86997     -70.07251       5567.512       5673.6409      4064.4926      1609.1484      1448.6662      1392.3126      2604.4371      0             -3836.2676      0              0             -132.63106      103850.89      47.004209      47.004209      47.004209      0.80774311    -425.16464      349.77        -134.8229     
    308500   617000         386.55545      405.36622      6452.6112      5839.621       4146.9419      1692.6791      1413.5875      1521.1931      2594.6416      0             -3836.7431      0              0             -132.83893      103688.39      46.979679      46.979679      46.979679      0.80900904     1814.3473      258.29032     -856.53893    
    309000   618000         381.8239       820.22804      6912.8792      5682.9811      4096.1821      1586.799       1398.6999      1378.7528      2691.6581      0             -3882.3119      0              0             -133.96669      102815.51      46.847478      46.847478      46.847478      0.8158773      887.84163     -46.020975      1618.8635    
    309500   619000         391.2701       429.5439       6515.4556      5871.2589      4197.5203      1673.7386      1454.3521      1482.2921      2604.2702      0             -3867.1757      0              0             -133.94312      102833.61      46.850226      46.850226      46.850226      0.81573373     79.787272      938.47794      270.36649    
    310000   620000         400.89887      224.35653      6261.9725      5920.5809      4300.8172      1619.7637      1437.098       1412.6668      2585.4809      0             -3815.482       0              0             -132.01316      104336.98      47.07743       47.07743       47.07743       0.80398001     94.602676      102.15851      476.30842    
    310500   621000         382.45568     -776.65273      4499.005       5691.2028      4102.9599      1588.2429      1361.0694      1400.7508      2613.9625      0             -3787.5398      0              0             -130.86091      105255.68      47.215201      47.215201      47.215201      0.79696263    -775.6444      -763.47605     -790.83774    
    311000   622000         393.1863      -191.99306      5522.1803      5815.4375      4218.0772      1597.3603      1402.3466      1404.3818      2614.5201      0             -3823.8882      0              0             -131.51286      104733.9       47.137052      47.137052      47.137052      0.80093309    -282.06687     -569.26127      275.34897    
    311500   623000         388.91792     -334.8267       5147.7743      5657.2809      4172.2863      1484.9946      1366.2675      1423.8553      2528.8609      0             -3833.989       0              0             -132.00841      104340.73      47.077995      47.077995      47.077995      0.80395106    -165.87046     -650.71039     -187.89923    
    312000   624000         386.37166     -72.558383      5715.8615      5827.4659      4144.9702      1682.4956      1450.9137      1421.722       2593.1377      0             -3783.2777      0              0             -130.59832      105467.31      47.246825      47.246825      47.246825      0.79536342     847.33352     -943.16961     -121.83906    
    312500   625000         384.99311     -304.9813       5261.7913      5724.1427      4130.1812      1593.9615      1454.3301      1362.8861      2586.9212      0             -3810.1759      0              0             -132.50505      103949.65      47.019104      47.019104      47.019104      0.80697569    -1194.575       469.15847     -189.52739    
    313000   626000         385.03983      317.81877      6012.4563      5531.2941      4130.6824      1400.6117      1312.8071      1400.5167      2531.5038      0             -3844.216       0              0             -132.68427      103809.25      46.997925      46.997925      46.997925      0.80806715     874.38616      593.65643     -514.58628    
    313500   627000         383.41656      119.9357       5857.7596      5675.663       4113.2681      1562.3949      1425.4062      1378.6492      2613.4725      0             -3855.133       0              0             -132.30555      104106.4       47.042726      47.042726      47.042726      0.80576068     86.045155     -254.1651       527.92704    
    314000   628000         397.85438      514.96128      6511.8214      5743.9739      4268.1561      1475.8178      1381.9822      1413.8656      2582.3856      0             -3902.4156      0              0             -134.71965      102240.87      46.760036      46.760036      46.760036      0.82046296     465.56068      673.34643      405.97674    
    314500   629000         391.93551     -878.86146      4513.2016      5846.3779      4204.6588      1641.7191      1431.2184      1459.3526      2568.8181      0             -3817.67        0              0             -132.42324      104013.87      47.028785      47.028785      47.028785      0.80647744    -1031.2998     -744.17579     -861.10879    
    315000   630000         380.90003     -1392.5211      3394.7548      5507.6307      4086.2709      1421.3598      1352.3663      1351.3748      2564.4189      0             -3846.8003      0              0             -132.39122      104039.03      47.032576      47.032576      47.032576      0.80628244    -1752.6127     -1681.2258     -743.72484    
    315500   631000         392.43357     -832.49055      4531.9966      5799.9733      4210.002       1589.9713      1457.4478      1357.4418      2596.0984      0             -3821.0166      0              0             -131.88621      104437.41      47.092531      47.092531      47.092531      0.80320686    -1087.7295     -912.09301     -497.64916    
    316000   632000         383.6135      -274.13562      5279.3792      5697.5614      4115.3808      1582.1806      1366.1907      1443.8337      2583.4512      0             -3811.295       0              0             -131.68346      104598.21      47.116687      47.116687      47.116687      0.8019721      53.764056     -728.84835     -147.32258    
    316500   633000         390.36765      37.360197      5766.6675      5709.7323      4187.8389      1521.8934      1408.661       1323.8882      2580.5232      0             -3791.1791      0              0             -131.81341      104495.09      47.101198      47.101198      47.101198      0.80276353    -273.53738      104.16181      281.45616    
    317000   634000         380.1962      -364.06646      5067.6434      5615.7434      4078.7203      1537.0231      1361.4969      1411.7417      2631.1707      0             -3867.3862      0              0             -133.42962      103229.36      46.910249      46.910249      46.910249      0.81260646    -401.48318     -423.30718     -267.40903    
    317500   635000         390.6457       19.864407      5813.2725      5783.3664      4190.8219      1592.5445      1408.3561      1388.9202      2641.8847      0             -3846.6165      0              0             -133.42802      103230.6       46.910437      46.910437      46.910437      0.81259672     144.27832      138.3822      -223.0673     
    318000   636000         384.89824      58.920962      5824.9932      5735.3324      4129.1634      1606.169       1425.0971      1357.9938      2627.1834      0             -3804.1054      0              0             -132.00748      104341.47      47.078106      47.078106      47.078106      0.80394539    -25.797354      33.617553      168.94269    
    318500   637000         394.73967     -8.612665       5729.4413      5742.6109      4234.7416      1507.8692      1384.6131      1350.8687      2580.6216      0             -3808.2341      0              0             -131.37046      104847.42      47.154077      47.154077      47.154077      0.80006587    -282.22871      163.86694      92.52377     
    319000   638000         385.80144     -65.386721      5647.2285      5746.003       4138.8529      1607.1502      1399.737       1422.9847      2613.8431      0             -3829.4146      0              0             -132.97684      103580.85      46.963431      46.963431      46.963431      0.80984898    -323.03047      365.40114     -238.53083    
    319500   639000         392.37392     -169.96199      5411.3761      5668.3091      4209.362       1458.947       1383.0358      1383.8436      2542.6302      0             -3850.5626      0              0             -132.88116      103655.44      46.974701      46.974701      46.974701      0.80926623     1017.7005     -877.18377     -650.40275    
    320000   640000         387.62106     -903.97348      4450.9849      5826.1776      4158.3737      1667.8039      1440.0598      1430.0143      2639.5331      0             -3841.8033      0              0             -132.04547      104311.45      47.07359       47.07359       47.07359       0.80417678    -1301.3877     -805.56728     -604.96547    
    320500   641000         387.43643      275.98816      6162.3657      5745.3586      4156.393       1588.9656      1417.3545      1399.5893      2598.9925      0             -3826.9708      0              0             -132.94695      103604.14      46.966951      46.966951      46.966951      0.80966693    -161.02265      761.38         227.60714    
    321000   642000         378.10007     -667.05618      4664.2966      5684.5607      4056.2331      1628.3276      1432.3867      1462.4622      2497.2508      0             -3763.7722      0              0             -131.3352       104875.57      47.158297      47.158297      47.158297      0.79985114    -1115.2757     -714.8906      -171.00219    
    321500   643000         398.76071      566.84278      6797.3687      5933.8241      4277.8792      1655.9449      1479.2729      1391.4876      2604.7667      0             -3819.5822      0              0             -131.85882      104459.1       47.095791      47.095791      47.095791      0.80304007     215.14034      914.57827      570.80972    
    322000   644000         389.21004     -20.120263      5768.3028      5798.9074      4175.4201      1623.4872      1438.6088      1377.0424      2624.6939      0             -3816.8578      0              0             -132.06225      104298.2       47.071597      47.071597      47.071597      0.80427895    -330.58215      37.80677       232.41459    
    322500   645000         381.62727     -384.80026      5107.771       5698.3426      4094.0727      1604.2698      1452.6251      1335.4247      2627.5881      0             -3811.368       0              0             -130.8863       105235.26      47.212148      47.212148      47.212148      0.79711727    -530.95563     -592.15548     -31.28968     
    323000   646000         395.27138     -501.81705      5073.6553      5834.1261      4240.4458      1593.6803      1403.1875      1422.714       2613.0008      0             -3845.2221      0              0             -132.55442      103910.93      47.013265      47.013265      47.013265      0.80727639    -1056.7881     -472.8478       24.184708    
    323500   647000         390.58429     -235.06561      5466.7114      5823.0891      4190.163       1632.9261      1399.594       1456.7661      2597.7388      0             -3821.1728      0              0             -132.4982       103955.03      47.019914      47.019914      47.019914      0.80693397    -467.70056     -298.0005       60.504223    
    324000   648000         386.18693     -468.13695      4964.7629      5673.7414      4142.9884      1530.753       1408.0081      1408.7143      2542.9291      0             -3828.8985      0              0             -132.63901      103844.67      47.003269      47.003269      47.003269      0.80779154    -1042.8212      84.285205     -445.87482    
    324500   649000         381.89007     -544.76884      4867.5564      5696.2686      4096.892       1599.3766      1425.4998      1394.9106      2591.3619      0             -3812.3957      0              0             -132.05045      104307.51      47.072999      47.072999      47.072999      0.8042071     -251.0805      -599.66144     -783.5646     
    325000   650000         387.41445     -828.51708      4514.1832      5786.2041      4156.1572      1630.0469      1452.7723      1381.6833      2560.3416      0             -3764.7503      0              0             -130.83941      105272.97      47.217787      47.217787      47.217787      0.79683172    -981.07253     -914.59769     -589.88104    
    325500   651000         399.2008      -235.06829      5561.2568      5917.0784      4282.6004      1634.478       1440.3375      1411.1595      2637.5744      0             -3854.5933      0              0             -132.70679      103791.63      46.995266      46.995266      46.995266      0.80820432    -199.37649      196.84642     -702.67481    
    326000   652000         390.27788     -524.90427      4960.1593      5751.799       4186.8759      1564.923       1417.2541      1389.8616      2601.8835      0             -3844.0762      0              0             -133.19378      103412.14      46.937921      46.937921      46.937921      0.81117014    -687.4392      -529.75426     -357.51935    
    326500   653000         393.38672      388.92252      6385.1728      5794.527       4220.2273      1574.2997      1412.9317      1380.925       2590.5637      0             -3810.1207      0              0             -132.27181      104132.95      47.046724      47.046724      47.046724      0.80555526    -607.47382      1445.24        329.00137    
    327000   654000         392.45945     -188.33011      5543.3533      5827.5392      4210.2797      1617.2595      1434.9103      1415.403       2604.8576      0             -3837.9114      0              0             -133.12163      103468.19      46.946399      46.946399      46.946399      0.81073073     111.99974     -823.78827      146.79819    
    327500   655000         385.17169     -75.708951      5609.0994      5723.7003      4132.097       1591.6033      1391.3699      1423.9587      2619.4603      0             -3843.1855      0              0             -132.70607      103792.2       46.995351      46.995351      46.995351      0.80819991     63.436849      280.25631     -570.82002    
    328000   656000         395.91405     -403.86824      5171.152       5783.7012      4247.3403      1536.3609      1429.4398      1372.2384      2547.5178      0             -3812.8351      0              0             -132.44332      103998.11      47.026408      47.026408      47.026408      0.80659972    -553.82925     -96.086128     -561.68935    
    328500   657000         397.94071      559.98489      6652.7434      5806.7731      4269.0823      1537.6908      1380.8034      1411.0728      2563.5929      0             -3817.7783      0              0             -132.96965      103586.45      46.964278      46.964278      46.964278      0.80980515     363.16491      559.49223      757.29752    
    329000   658000         384.11989      612.22364      6668.5251      5733.5645      4120.8134      1612.7511      1393.4534      1421.8169      2589.3766      0             -3791.8957      0              0             -131.53707      104714.62      47.13416       47.13416       47.13416       0.80108052     908.3786       538.29423      389.9981     
    329500   659000         390.52193     -90.121871      5744.1615      5881.5083      4189.494       1692.0143      1486.539       1410.1233      2622.3088      0             -3826.9568      0              0             -131.80839      104499.07      47.101796      47.101796      47.101796      0.80273294     372.47131     -12.465762     -630.37116    
    330000   660000         383.743        759.38472      6739.8386      5583.1459      4116.7701      1466.3759      1385.0659      1355.3478      2568.3272      0             -3842.365       0              0             -131.87888      104443.22      47.093403      47.093403      47.093403      0.80316221     649.59908      545.49424      1083.0608    
    330500   661000         393.76042     -99.277929      5610.8366      5761.2357      4224.2363      1536.9994      1434.5228      1375.3347      2578.3993      0             -3851.2575      0              0             -132.59854      103876.36      47.008051      47.008051      47.008051      0.80754505     219.95178     -306.95862     -210.82695    
    331000   662000         392.65845     -504.64661      5112.9282      5878.0401      4212.4145      1665.6256      1456.5819      1411.8632      2634.1306      0             -3836.9501      0              0             -132.49326      103958.9       47.020499      47.020499      47.020499      0.80690388    -434.15702     -699.93624     -379.84658    
    331500   663000         392.62143      87.846919      5866.3168      5732.5935      4212.0173      1520.5762      1411.6958      1368.3186      2550.7288      0             -3810.1671      0              0             -131.96259      104376.96      47.083443      47.083443      47.083443      0.80367205     311.16071     -1.6969504     -45.922998    
    332000   664000         391.16679     -600.3941       4921.4582      5842.3863      4196.4121      1645.9743      1436.2141      1395.719       2613.4227      0             -3799.3816      0              0             -130.96102      105175.22      47.203167      47.203167      47.203167      0.79757233    -884.90533     -553.0252      -363.25176    
    332500   665000         378.49544      31.182518      5833.2701      5785.9999      4060.4746      1725.5253      1452.3342      1426.3971      2658.1632      0             -3811.3693      0              0             -132.51193      103944.26      47.01829       47.01829       47.01829       0.80701758    -678.29885      377.33666      394.50975    
    333000   666000         382.79111     -70.174284      5530.8785      5636.669       4106.5583      1530.1106      1452.8276      1394.2366      2574.897       0             -3891.8506      0              0             -133.24866      103369.55      46.931475      46.931475      46.931475      0.81150441    -281.56706      76.298793     -5.254589     
    333500   667000         401.97112      641.80133      6838.0756      5866.8712      4312.3202      1554.551       1403.8779      1374.0395      2624.2649      0             -3847.6313      0              0             -132.74598      103760.99      46.990641      46.990641      46.990641      0.80844297     751.06168      901.77036      272.57195    
    334000   668000         389.65607      278.47545      6124.4843      5702.7097      4180.2052      1522.5046      1394.5433      1403.8741      2544.0457      0             -3819.9586      0              0             -132.62882      103852.64      47.004473      47.004473      47.004473      0.80772949     664.37824     -86.731711      257.77983    
    334500   669000         388.51374     -91.760706      5696.1176      5836.088       4167.9503      1668.1377      1489.4846      1369.9379      2585.0986      0             -3776.3835      0              0             -131.6897       104593.25      47.115943      47.115943      47.115943      0.80201008     594.05683     -335.55815     -533.7808     
    335000   670000         383.0153      -250.86117      5305.4452      5684.9753      4108.9634      1576.0119      1407.5839      1363.2986      2630.6888      0             -3825.5594      0              0             -132.7757       103737.76      46.987134      46.987134      46.987134      0.80862399    -50.768514     -867.21459      165.39961    
    335500   671000         383.56853     -310.84993      5296.5324      5768.5265      4114.8984      1653.6282      1454.2967      1367.2912      2646.9978      0             -3814.9576      0              0             -132.29565      104114.19      47.043898      47.043898      47.043898      0.80570042     50.060296     -337.22626     -645.38381    
    336000   672000         396.8956       69.28904       5951.6213      5846.7143      4257.8703      1588.8439      1393.1235      1429.3583      2599.7696      0             -3833.4074      0              0             -132.67573      103815.93      46.998933      46.998933      46.998933      0.80801514    -104.72141     -326.08353      638.67206    
    336500   673000         395.70471      209.9568       6155.7729      5839.8106      4245.0945      1594.716       1369.6695      1451.7642      2611.7142      0             -3838.4318      0              0             -133.48302      103188.06      46.903993      46.903993      46.903993      0.8129317      195.46709      364.15336      70.249962    
    337000   674000         390.34012      516.65531      6521.1888      5734.213       4187.5436      1546.6694      1416.0684      1361.4876      2558.5002      0             -3789.3869      0              0             -131.87756      104444.26      47.09356       47.09356       47.09356       0.80315418     421.6969       597.71422      530.55483    
    337500   675000         391.15642      399.89928      6406.5916      5802.2239      4196.3008      1605.9231      1405.6193      1392.0552      2606.043       0             -3797.7944      0              0             -132.91706      103627.43      46.970471      46.970471      46.970471      0.80948492    -106.54367      1076.339       229.90252    
    338000   676000         397.91626      144.96517      6095.9241      5874.2984      4268.8199      1605.4784      1449.6677      1392.1068      2567.6521      0             -3803.9482      0              0             -131.39378      104828.81      47.151287      47.151287      47.151287      0.8002079      315.79415      535.89221     -416.79084    
    338500   677000         390.71904      275.61918      6259.5022      5842.3282      4191.6086      1650.7196      1428.4715      1416.158       2634.0048      0             -3827.9146      0              0             -132.7161       103784.35      46.994167      46.994167      46.994167      0.808261      -258.83243      501.87776      583.81221    
    339000   678000         385.68164     -596.72923      4836.3585      5747.9528      4137.5677      1610.385       1391.7909      1374.1033      2650.5793      0             -3806.0884      0              0             -131.49436      104748.63      47.139263      47.139263      47.139263      0.80082041    -586.70078     -939.94418     -263.54274    
    339500   679000         397.32915     -756.68355      4801.4773      5938.2809      4262.5215      1675.7594      1436.3542      1463.4212      2673.3575      0             -3897.3736      0              0             -133.70888      103013.76      46.877569      46.877569      46.877569      0.81430718    -872.34382     -761.95866     -635.74818    
    340000   680000         389.04426     -495.55745      5095.1849      5845.7757      4173.6417      1672.134       1443.6623      1440.5062      2645.5939      0             -3857.6283      0              0             -132.624        103856.42      47.005043      47.005043      47.005043      0.8077001     -456.96036     -493.66832     -536.04366    
    340500   681000         385.29859     -419.75228      5071.5461      5702.0373      4133.4584      1568.5789      1422.6734      1421.1089      2619.3785      0             -3894.582       0              0             -133.7351       102993.56      46.874505      46.874505      46.874505      0.81446686    -111.08498     -1029.8382     -118.3337     
    341000   682000         385.14556      8.7042187      5715.46        5702.2028      4131.8167      1570.3861      1438.835       1399.0335      2554.769       0             -3822.2514      0              0             -131.88931      104434.95      47.092161      47.092161      47.092161      0.80322576    -470.00465     -416.75154      912.86884    
    341500   683000         396.51548     -496.15949      5133.9182      5886.9146      4253.7925      1633.1221      1459.3706      1441.1914      2570.8887      0             -3838.3286      0              0             -132.36093      104062.84      47.036163      47.036163      47.036163      0.80609799    -759.50693      50.977089     -779.94863    
    342000   684000         385.55907      622.58981      6573.3446      5636.8788      4136.2528      1500.626       1382.6683      1405.6383      2557.1052      0             -3844.7858      0              0             -133.54924      103136.89      46.896239      46.896239      46.896239      0.81333498     515.67903      982.50529      369.5851     
    342500   685000         391.50667      593.34411      6651.8639      5762.9734      4200.0582      1562.9151      1426.3665      1419.907       2589.4111      0             -3872.7695      0              0             -134.08794      102722.54      46.833353      46.833353      46.833353      0.81661573     1078.8935      336.58325      364.55554    
    343000   686000         388.73365      2.6141108      5719.2018      5715.2405      4170.3095      1544.931       1395.6024      1418.1799      2531.4037      0             -3800.255       0              0             -132.56207      103904.94      47.012361      47.012361      47.012361      0.80732297     204.3524      -575.05266      378.5426     
    343500   687000         386.26279      225.9102       6016.6984      5678.4968      4143.8023      1534.6946      1408.3218      1368.4115      2641.431       0             -3883.4697      0              0             -134.18117      102651.17      46.822504      46.822504      46.822504      0.81718349    -669.0544       422.57518      924.20983    
    344000   688000         387.5927      -169.88727      5489.2495      5750.1584      4158.0695      1592.0889      1423.4428      1345.2805      2590.2622      0             -3766.8966      0              0             -130.79869      105305.75      47.222687      47.222687      47.222687      0.79658371     178.76581     -910.39148      221.96385    
    344500   689000         393.39911     -70.248711      5773.4093      5879.8723      4220.3602      1659.512       1418.5938      1414.2939      2639.4004      0             -3812.7761      0              0             -132.54734      103916.49      47.014103      47.014103      47.014103      0.80723326    -121.37253      171.40024     -260.77384    
    345000   690000         400.15819     -351.77996      5276.5639      5810.8535      4292.8712      1517.9823      1389.9992      1374.6871      2566.7257      0             -3813.4296      0              0             -132.25916      104142.91      47.048224      47.048224      47.048224      0.80547821    -454.98882     -574.1267      -26.224366    
    345500   691000         390.20702      457.10657      6465.6039      5775.1767      4186.1157      1589.061       1433.3163      1398.8335      2593.9233      0             -3837.0121      0              0             -132.99366      103567.75      46.961452      46.961452      46.961452      0.8099514      1021.4875      484.81897     -134.98678    
    346000   692000         393.68224      215.5118       6150.8061      5822.6859      4223.3977      1599.2882      1455.0592      1331.0563      2606.0531      0             -3792.8804      0              0             -131.93787      104396.51      47.086383      47.086383      47.086383      0.8035215      483.76853      162.41862      0.34823312   
    346500   693000         392.54642      187.96375      5972.6468      5686.3274      4211.2126      1475.1147      1403.3631      1373.1701      2546.3228      0             -3847.7413      0              0             -131.87264      104448.16      47.094146      47.094146      47.094146      0.80312421     538.68554     -209.83188      235.0376     
    347000   694000         380.11503      19.526202      5727.831       5698.2221      4077.8495      1620.3725      1402.3785      1439.1152      2613.2765      0             -3834.3977      0              0             -132.4728       103974.96      47.022919      47.022919      47.022919      0.80677929     1.6700152      355.22345     -298.31486    
    347500   695000         394.78508     -362.02467      5410.553       5961.232       4235.2289      1726.0032      1498.9483      1426.8798      2615.5376      0             -3815.3625      0              0             -132.0599       104300.05      47.071876      47.071876      47.071876      0.80426466    -479.80209     -398.08132     -208.19058    
    348000   696000         392.88361      401.16259      6319.1796      5708.0926      4214.83        1493.2626      1441.9141      1351.0321      2559.4486      0             -3859.1322      0              0             -131.87082      104449.59      47.094362      47.094362      47.094362      0.80311316     541.37041     -10.62504       672.74239    
    348500   697000         389.85192     -110.04183      5500.358       5665.7032      4182.3062      1483.397       1413.5577      1390.3606      2568.833       0             -3889.3542      0              0             -133.68955      103028.65      46.879828      46.879828      46.879828      0.81418945    -626.46265      141.80911      154.52804    
    349000   698000         391.54297      493.97235      6474.2939      5736.1438      4200.4477      1535.6961      1456.9965      1405.5627      2556.5324      0             -3883.3955      0              0             -134.42788      102462.78      46.793843      46.793843      46.793843      0.81868599     1599.3491     -206.56468      89.132618    
    349500   699000         385.71679     -130.88344      5469.1364      5666.8201      4137.9448      1528.8753      1446.5831      1433.9422      2532.1049      0             -3883.755       0              0             -132.99804      103564.34      46.960936      46.960936      46.960936      0.80997809    -511.16473      210.57033     -92.055903    
    350000   700000         389.76431      536.23461      6497.8182      5690.2335      4181.3663      1508.8672      1443.7913      1416.6397      2531.6174      0             -3883.1813      0              0             -133.38228      103266         46.915799      46.915799      46.915799      0.81231813     741.62731      175.69078      691.38574    
    350500   701000         377.20969      58.774945      5720.7814      5631.9895      4046.6812      1585.3083      1449.8338      1458.5679      2503.5114      0             -3826.6048      0              0             -132.96895      103586.99      46.96436       46.96436       46.96436       0.80980094     138.22264     -217.26894      255.37114    
    351000   702000         387.35158     -326.88202      5237.2581      5735.7502      4155.4827      1580.2675      1425.5945      1428.0195      2561.6242      0             -3834.9707      0              0             -131.72377      104566.2       47.111881      47.111881      47.111881      0.80221758    -385.37287     -948.37513      353.10194    
    351500   703000         392.67601      327.25943      6381.582       5886.3325      4212.6028      1673.7297      1465.801       1470.735       2564.5941      0             -3827.4004      0              0             -132.73928      103766.22      46.991431      46.991431      46.991431      0.8084022      531.00272      392.81428      57.961295    
    352000   704000         406.05714      571.02807      6581.4562      5715.5413      4356.1547      1359.3866      1352.8159      1314.7485      2503.9234      0             -3812.1013      0              0             -132.4688       103978.1       47.023393      47.023393      47.023393      0.8067549      552.42597      313.99534      846.6629     
    352500   705000         388.79609      327.77152      6155.3123      5655.3276      4170.9793      1484.3483      1402.02        1407.8954      2514.2887      0             -3839.8558      0              0             -131.6879       104594.68      47.116158      47.116158      47.116158      0.80199914    -49.600683      651.11907      381.79618    
    353000   706000         396.89628     -54.528229      5686.1736      5768.4841      4257.8776      1510.6065      1393.1968      1389.1805      2554.5686      0             -3826.3394      0              0             -133.07532      103504.2       46.951844      46.951844      46.951844      0.81044872    -192.03308     -878.51629      906.96469    
    353500   707000         388.13532      174.60025      5827.67        5564.6607      4163.8906      1400.7701      1371.3945      1314.6333      2584.4726      0             -3869.7304      0              0             -133.35369      103288.13      46.919151      46.919151      46.919151      0.81214405     102.45397      439.61357     -18.266791    
    354000   708000         392.64824      254.56488      6071.9685      5686.9607      4212.3049      1474.6558      1436.1465      1390.9866      2511.493       0             -3863.9703      0              0             -132.81905      103703.9       46.982022      46.982022      46.982022      0.80888801     652.15449     -172.35228      283.89242    
    354500   709000         378.61381      176.37458      5860.8759      5595.7323      4061.7445      1533.9878      1397.0229      1421.8032      2581.7477      0             -3866.5861      0              0             -133.62455      103078.77      46.887428      46.887428      46.887428      0.81379361     3.9247482      767.87703     -242.67805    
    355000   710000         390.98521     -257.37902      5302.8878      5689.9186      4194.4641      1495.4545      1383.665       1426.9157      2551.3549      0             -3866.4811      0              0             -133.58537      103109         46.892011      46.892011      46.892011      0.81355502    -137.5054       391.08124     -1025.7129    
    355500   711000         387.41671     -1196.5979      3843.6853      5675.7431      4156.1814      1519.5617      1398.2149      1396.8912      2533.1341      0             -3808.6785      0              0             -131.202        104982.04      47.17425       47.17425       47.17425       0.79903992    -997.22262     -1228.4206     -1364.1506    
    356000   712000         388.71692     -579.03055      4836.9383      5708.9061      4170.13        1538.7761      1416.3702      1426.8553      2588.5785      0             -3893.0279      0              0             -133.39281      103257.84      46.914564      46.914564      46.914564      0.81238228    -626.59272     -269.22137     -841.27754    
    356500   713000         388.28297      594.1143       6642.2158      5740.331       4165.4747      1574.8563      1452.2339      1398.1763      2569.3189      0             -3844.8728      0              0             -132.32756      104089.08      47.040117      47.040117      47.040117      0.80589475     1547.6986      259.79324     -25.148931    
    357000   714000         397.10641      623.88942      6656.7007      5719.0862      4260.1319      1458.9543      1419.6568      1404.4476      2531.6012      0             -3896.7513      0              0             -133.66406      103048.3       46.882807      46.882807      46.882807      0.81403427     800.69546      411.05608      659.91672    
    357500   715000         382.42081      178.99907      5971.9233      5701.9912      4102.5857      1599.4055      1445.1314      1410.9692      2587.6334      0             -3844.3285      0              0             -133.20716      103401.75      46.936349      46.936349      46.936349      0.81125166     473.30112     -337.85076      401.54684    
    358000   716000         383.63442     -297.30829      5312.4067      5762.9504      4115.6053      1647.3451      1451.9216      1435.719       2594.1836      0             -3834.479       0              0             -132.55662      103909.21      47.013005      47.013005      47.013005      0.80728979     254.32382     -890.25765     -255.99106    
    358500   717000         388.08285      36.950355      5736.9007      5681.2024      4163.3278      1517.8746      1398.6307      1390.7223      2574.8734      0             -3846.3518      0              0             -133.26241      103358.89      46.929862      46.929862      46.929862      0.8115881     -153.43058      322.95237     -58.670734    
    359000   718000         390.59656     -83.531357      5676.7856      5802.709       4190.2946      1612.4144      1492.5062      1382.1139      2588.4756      0             -3850.6813      0              0             -133.2522       103366.8       46.931059      46.931059      46.931059      0.81152597    -93.45543       422.14281     -579.28145    
    359500   719000         389.80047     -34.32705       5666.1979      5718.3404      4181.7542      1536.5862      1447.3731      1407.5683      2510.2271      0             -3828.5824      0              0             -132.24398      104154.86      47.050024      47.050024      47.050024      0.80538577    -715.66526      544.35282      68.331298    
    360000   720000         381.73644      459.02082      6432.5489      5738.8242      4095.2438      1643.5804      1420.2542      1462.7741      2636.4334      0             -3875.8814      0              0             -132.91579      103628.43      46.970621      46.970621      46.970621      0.80947715     808.12667      387.55578      181.38       
    360500   721000         390.15792      272.49097      6138.7746      5725.8452      4185.589       1540.2562      1434.6885      1390.1627      2563.2548      0             -3847.8498      0              0             -132.55852      103907.72      47.012781      47.012781      47.012781      0.80730135     7.6478432      170.63795      639.18711    
    361000   722000         393.54694     -680.67109      4713.7719      5752.4965      4221.9461      1530.5504      1406.6513      1368.7321      2584.9764      0             -3829.8093      0              0             -131.63405      104637.47      47.122582      47.122582      47.122582      0.80167115    -346.42108     -937.04202     -758.55017    
    361500   723000         387.07335     -321.89301      5314.8468      5803.174       4152.4979      1650.6761      1429.9614      1447.3323      2619.0791      0             -3845.6966      0              0             -132.41341      104021.59      47.029948      47.029948      47.029948      0.80641761    -358.96834     -624.2588       17.548121    
    362000   724000         383.69938     -136.50071      5495.2313      5704.2698      4116.3022      1587.9676      1403.474       1407.4281      2563.478       0             -3786.4124      0              0             -131.17164      105006.34      47.177889      47.177889      47.177889      0.79885503    -394.39142     -185.76722      170.65651    
    362500   725000         393.95518     -123.81163      5663.6617      5851.5479      4226.3257      1625.2222      1414.8641      1387.3017      2627.6963      0             -3804.6399      0              0             -132.37255      104053.7       47.034787      47.034787      47.034787      0.80616876     164.64699     -541.83596      5.7540654    
    363000   726000         390.33216      200.84683      6061.1789      5758.8013      4187.4582      1571.3431      1414.6485      1446.8454      2568.9684      0             -3859.1192      0              0             -133.42795      103230.65      46.910446      46.910446      46.910446      0.81259626     179.2759       405.28764      17.976949    
    363500   727000         392.8712       82.394707      5734.4358      5609.9386      4214.6968      1395.2418      1354.3703      1317.6528      2548.7268      0             -3825.5081      0              0             -132.94476      103605.84      46.967209      46.967209      46.967209      0.8096536      830.91433     -537.84522     -45.884989    
    364000   728000         397.80281     -912.50901      4474.0688      5863.987       4267.6029      1596.3841      1452.4713      1349.4742      2610.5264      0             -3816.0878      0              0             -131.88011      104442.24      47.093257      47.093257      47.093257      0.80316971    -2261.4658     -392.48682     -83.574409    
    364500   729000         378.69902     -503.91539      4915.4731      5686.9117      4062.6586      1624.2531      1443.0757      1408.2506      2556.8122      0             -3783.8854      0              0             -131.21625      104970.64      47.172543      47.172543      47.172543      0.79912669    -773.02944     -314.23012     -424.4866     
    365000   730000         389.7707      -199.98339      5580.3948      5883.9267      4181.4349      1702.4919      1482.013       1406.6158      2645.4531      0             -3831.59        0              0             -132.3491       104072.14      47.037565      47.037565      47.037565      0.80602592    -186.52184     -976.17447      562.74613    
    365500   731000         377.39822      401.25852      6365.3313      5750.9495      4048.7037      1702.2458      1483.5591      1392.1771      2596.8419      0             -3770.3323      0              0             -131.195        104987.65      47.17509       47.17509       47.17509       0.79899728     509.84525      773.94033     -80.010018    
    366000   732000         396.71144      98.351822      6036.0458      5887.2958      4255.8947      1631.4011      1398.1831      1444.3218      2603.4361      0             -3814.5398      0              0             -132.81798      103704.74      46.982148      46.982148      46.982148      0.80888149    -459.03278      348.73438      405.35386    
    366500   733000         386.44074     -93.155181      5567.5494      5709.2162      4145.7112      1563.505       1431.7099      1438.407       2523.0404      0             -3829.6523      0              0             -132.09011      104276.19      47.068286      47.068286      47.068286      0.80444867     521.24212     -623.76731     -176.94035    
    367000   734000         393.88674      162.20753      6062.5349      5815.5349      4225.5915      1589.9434      1386.0453      1444.7791      2581.7632      0             -3822.6442      0              0             -131.91837      104411.94      47.088703      47.088703      47.088703      0.80340275     306.1297       136.57721      43.915677    
    367500   735000         392.79499      118.46623      5981.2665      5801.444       4213.8792      1587.5647      1426.3886      1381.9161      2595.529       0             -3816.269       0              0             -132.33715      104081.54      47.038981      47.038981      47.038981      0.80595313     302.95022      726.33635     -673.88787    
    368000   736000         399.45618      610.45394      6757.6079      5835.1847      4285.3401      1549.8446      1441.0607      1371.6762      2544.5782      0             -3807.4705      0              0             -132.93951      103609.94      46.967828      46.967828      46.967828      0.80962159     473.63387      543.74195      813.986      
    368500   737000         385.63536     -609.91256      4809.8169      5744.4207      4137.0712      1607.3495      1377.5139      1402.8674      2613.389       0             -3786.4208      0              0             -131.09056      105071.29      47.187614      47.187614      47.187614      0.79836124    -373.98109     -1044.4664     -411.29022    
    369000   738000         395.1843      -675.05008      4692.88        5716.8499      4239.5116      1477.3383      1403.3232      1320.6261      2583.0692      0             -3829.6802      0              0             -132.4281       104010.06      47.02821       47.02821       47.02821       0.80650705    -143.63197     -827.6668      -1053.8515    
    369500   739000         389.62327     -171.33405      5532.6355      5792.6368      4179.8533      1612.7835      1403.3497      1422.4756      2587.823       0             -3800.8647      0              0             -132.37303      104053.33      47.03473       47.03473       47.03473       0.80617166    -103.40109     -557.43242      146.83136    
    370000   740000         388.96913     -336.69464      5158.4941      5670.9833      4172.8357      1498.1476      1356.3101      1426.5418      2533.7468      0             -3818.4511      0              0             -131.97232      104369.26      47.082286      47.082286      47.082286      0.80373131    -544.9111      -369.14346     -96.029355    
    370500   741000         386.67803     -419.91736      5115.8921      5767.4369      4148.2569      1619.18        1422.4326      1412.722       2545.3717      0             -3761.3462      0              0             -129.46456      106390.93      47.384343      47.384343      47.384343      0.78845863    -1139.3028     -593.95902      473.5097     
    371000   742000         392.89244     -111.36428      5611.7423      5782.2508      4214.9247      1567.3261      1381.8088      1386.8142      2583.0234      0             -3784.3203      0              0             -131.19918      104984.3       47.174588      47.174588      47.174588      0.79902274    -187.9988       372.53078     -518.62482    
    371500   743000         384.94979      294.68807      6114.4131      5663.5514      4129.7164      1533.835       1386.9973      1353.791       2567.7151      0             -3774.6685      0              0             -131.29572      104907.1       47.163023      47.163023      47.163023      0.79961071     381.99028      304.9574       197.11654    
    372000   744000         391.36734      29.918156      5860.139       5814.143       4198.5635      1615.5795      1429.1202      1410.7401      2539.6638      0             -3763.9446      0              0             -130.66098      105416.74      47.239272      47.239272      47.239272      0.795745       133.4523      -128.00264      84.304808    
    372500   745000         388.39169      448.04835      6537.0824      5854.2269      4166.6409      1687.586       1407.0154      1418.704       2660.1004      0             -3798.2338      0              0             -131.80364      104502.83      47.102362      47.102362      47.102362      0.80270401    -22.321603      1428.9685     -62.501844    
    373000   746000         391.28281     -79.612103      5664.2317      5785.6685      4197.6567      1588.0118      1433.0698      1394.1532      2550.8264      0             -3790.0376      0              0             -131.69228      104591.2       47.115635      47.115635      47.115635      0.80202581    -520.51643      174.19402      107.48611    
    373500   747000         384.95124      47.942454      5839.9422      5766.7241      4129.732       1636.9922      1415.6483      1401.6282      2575.4205      0             -3755.7048      0              0             -131.53261      104718.17      47.134693      47.134693      47.134693      0.80105339     568.80688     -36.764572     -388.21494    
    374000   748000         388.18422     -531.92467      4968.8236      5784.548       4164.4152      1620.1328      1427.5245      1382.8518      2602.1623      0             -3792.4059      0              0             -130.98997      105151.98      47.19969       47.19969       47.19969       0.79774861    -200.41934     -560.00591     -835.34877    
    374500   749000         388.80226      1410.421       7836.3748      5703.0034      4171.0456      1531.9579      1384.7053      1405.0526      2601.0059      0             -3858.806       0              0             -132.80477      103715.05      46.983706      46.983706      46.983706      0.80880103     1125.7467      1635.7757      1469.7407    
    375000   750000         391.86414      516.16618      6533.3071      5750.7175      4203.8932      1546.8242      1409.1902      1389.7971      2585.4445      0             -3837.6076      0              0             -132.49114      103960.57      47.02075       47.02075       47.02075       0.80689096     1013.7296     -654.63714      1189.4061    
    375500   751000         391.04917     -140.39214      5617.5746      5830.2297      4195.1502      1635.0795      1412.8557      1468.9832      2597.8304      0             -3844.5898      0              0             -132.61672      103862.12      47.005903      47.005903      47.005903      0.80765579    -186.17149     -34.879765     -200.12516    
    376000   752000         396.35694      124.36654      6036.5369      5848.1692      4252.0917      1596.0775      1413.6424      1434.6396      2537.1135      0             -3789.318       0              0             -132.62594      103854.9       47.004813      47.004813      47.004813      0.80771196     366.17013     -243.68353      250.61301    
    376500   753000         387.16379      245.46015      6059.4504      5688.2656      4153.4681      1534.7976      1373.5132      1434.4489      2588.9441      0             -3862.1086      0              0             -132.83796      103689.14      46.979793      46.979793      46.979793      0.80900314     107.67824      79.881225      548.82099    
    377000   754000         403.6421      -378.54796      5298.5218      5874.1098      4330.2464      1543.8634      1342.3801      1378.335       2638.7883      0             -3815.6401      0              0             -132.11147      104259.33      47.06575       47.06575       47.06575       0.80457875    -125.95122     -7.9524743     -1001.7402    
    377500   755000         395.97927     -176.15713      5519.5733      5788.9605      4248.04        1540.9205      1402.2505      1327.076       2611.7261      0             -3800.1322      0              0             -131.35744      104857.81      47.155635      47.155635      47.155635      0.79998658    -345.82751      225.66545     -408.30932    
    378000   756000         385.51701     -200.66167      5421.0114      5726.0547      4135.8016      1590.2531      1353.8808      1445.0707      2610.8255      0             -3819.5239      0              0             -132.13997      104236.85      47.062366      47.062366      47.062366      0.80475228    -265.35914     -166.69153     -169.93434    
    378500   757000         381.61295      761.13127      6913.7176      5752.9127      4093.919       1658.9937      1445.3932      1350.3338      2663.9817      0             -3800.7149      0              0             -131.71393      104574.01      47.113053      47.113053      47.113053      0.80215768     358.61306      404.09339      1520.6874    
    379000   758000         392.58033     -66.16378       5775.2804      5876.9712      4211.5764      1665.3949      1406.3205      1413.5533      2602.093       0             -3756.5719      0              0             -130.69833      105386.61      47.234771      47.234771      47.234771      0.7959725      687.75039     -1174.2544      288.01266    
    379500   759000         388.66735      87.39643       5997.8552      5864.5732      4169.5982      1694.975       1419.6324      1414.8005      2669.0575      0             -3808.5154      0              0             -131.7206       104568.71      47.112258      47.112258      47.112258      0.8021983     -117.22228     -34.999581      414.41115    
    380000   760000         376.94799     -530.10307      4991.5067      5802.5079      4043.8737      1758.6343      1417.4848      1467.113       2676.7393      0             -3802.7028      0              0             -131.30165      104902.37      47.162314      47.162314      47.162314      0.79964678    -1133.9835     -323.02863     -133.29706    
    380500   761000         392.22872      452.0541       6558.0009      5862.8871      4207.8044      1655.0828      1415.4655      1395.8246      2625.9347      0             -3782.1421      0              0             -130.6369       105436.17      47.242173      47.242173      47.242173      0.79559839     903.46212     -164.86661      617.56678    
    381000   762000         388.30896      110.15907      5980.6487      5812.3037      4165.7534      1646.5503      1416.7006      1418.5066      2593.3993      0             -3782.0562      0              0             -131.44721      104786.21      47.144899      47.144899      47.144899      0.80053326    -338.43372      230.73928      438.17166    
    381500   763000         390.85803      951.72018      7254.8446      5811.6925      4193.0997      1618.5927      1402.2221      1405.7369      2645.4065      0             -3834.7728      0              0             -132.47336      103974.52      47.022853      47.022853      47.022853      0.80678268     1603.5286      732.37704      519.25492    
    382000   764000         388.75589      514.74221      6601.1363      5818.3203      4170.5481      1647.7722      1427.1142      1399.2157      2613.2836      0             -3791.8413      0              0             -132.08742      104278.32      47.068606      47.068606      47.068606      0.80443229     446.33171      350.50258      747.39235    
    382500   765000         398.60923      462.67387      6583.7111      5886.2808      4276.2541      1610.0267      1383.8915      1478.0685      2583.4555      0             -3835.3889      0              0             -133.26176      103359.39      46.929937      46.929937      46.929937      0.81158418    -74.053293      1112.9529      349.12197    
    383000   766000         394.32934     -61.17788       5657.5814      5749.9084      4230.3397      1519.5687      1379.6706      1384.2388      2613.1759      0             -3857.5166      0              0             -133.10587      103480.44      46.948252      46.948252      46.948252      0.81063476    -426.01426      104.06644      138.41418    
    383500   767000         398.43769      199.11007      6233.0965      5930.0707      4274.4138      1655.6569      1432.4855      1415.5269      2617.1257      0             -3809.4812      0              0             -131.99118      104354.35      47.080043      47.080043      47.080043      0.80384615     353.73605      754.05037     -510.45623    
    384000   768000         385.17126     -81.973936      5642.6158      5767.141       4132.0924      1635.0486      1414.247       1386.0639      2619.289       0             -3784.5513      0              0             -132.23606      104161.11      47.050964      47.050964      47.050964      0.80533749    -450.58085      377.02492     -172.36588    
    384500   769000         390.56037      240.34443      6140.62        5776.2809      4189.9064      1586.3744      1381.9731      1369.8701      2612.5113      0             -3777.9801      0              0             -132.51335      103943.14      47.018122      47.018122      47.018122      0.80702623     600.10362     -5.7820638      126.71173    
    385000   770000         392.0967       12.842057      5809.1723      5789.7307      4206.3881      1583.3427      1374.0712      1398.995       2634.4454      0             -3824.169       0              0             -132.68888      103805.64      46.997381      46.997381      46.997381      0.80809522    -276.25488      373.22177     -58.440716    
    385500   771000         385.29767      395.49077      6409.6522      5798.1452      4133.4485      1664.6967      1382.192       1440.5474      2597.7121      0             -3755.7548      0              0             -129.9171       106020.33      47.329261      47.329261      47.329261      0.79121468     389.88697     -6.6433242      803.22867    
    386000   772000         390.96085     -291.40918      5481.9236      5926.498       4194.2027      1732.2953      1435.6802      1386.2628      2706.569       0             -3796.2167      0              0             -131.671        104608.11      47.118173      47.118173      47.118173      0.80189621    -1208.3002      187.12586      146.94677    
    386500   773000         384.47691     -6.5004085      5753.5599      5763.5309      4124.6434      1638.8875      1429.5222      1407.7255      2563.5888      0             -3761.949       0              0             -130.95821      105177.48      47.203506      47.203506      47.203506      0.79755518    -721.26811     -301.38259      1003.1495    
    387000   774000         394.91561      372.17275      6524.2659      5954.6826      4236.6292      1718.0535      1431.3398      1419.2336      2652.0637      0             -3784.5837      0              0             -131.25586      104938.97      47.167797      47.167797      47.167797      0.79936792     649.48556      596.42441     -129.39171    
    387500   775000         389.68772     -34.609601      5776.6311      5829.9538      4180.5447      1649.409       1430.3532      1330.4577      2642.4104      0             -3753.8122      0              0             -130.38158      105642.64      47.27299       47.27299       47.27299       0.79404345    -239.03798     -24.126188      159.33537    
    388000   776000         394.61303      293.81329      6330.4819      5882.2067      4233.3831      1648.8236      1416.4036      1380.7628      2660.6341      0             -3808.9769      0              0             -131.66128      104615.83      47.119333      47.119333      47.119333      0.80183699     160.14436      127.77153      593.52398    
    388500   777000         392.40549     -453.33879      5099.571       5795.6529      4209.7008      1585.9521      1371.555       1403.5044      2591.028       0             -3780.1354      0              0             -130.82597      105283.79      47.219405      47.219405      47.219405      0.79674983    -419.89658     -296.93456     -643.18522    
    389000   778000         392.8842       372.97627      6392.3725      5825.7884      4214.8363      1610.9521      1402.6653      1411.6171      2618.0698      0             -3821.4002      0              0             -132.23553      104161.52      47.051027      47.051027      47.051027      0.80533427     755.67209     -1113.9496      1477.2063    
    389500   779000         387.37813      633.54516      6837.2292      5870.4544      4155.7676      1714.6868      1422.5367      1407.6315      2664.7981      0             -3780.2795      0              0             -131.63872      104633.76      47.122025      47.122025      47.122025      0.80169959     1300.9169      414.00936      185.70924    
    390000   780000         393.2476      -881.27922      4607.7298      5949.5843      4218.7348      1730.8495      1407.67        1464.2738      2668.9259      0             -3810.0202      0              0             -131.92875      104403.73      47.087468      47.087468      47.087468      0.80346596    -1189.5806     -574.31917     -879.93794    
    390500   781000         379.28444      512.68953      6463.2098      5672.2896      4068.939       1603.3507      1402.0506      1383.1133      2587.0475      0             -3768.8607      0              0             -130.21264      105779.7       47.293426      47.293426      47.293426      0.7930146      971.18262     -12.705671      579.59164    
    391000   782000         388.16267      78.97412       6016.1678      5895.6039      4164.184       1731.4199      1433.2621      1459.313       2638.4037      0             -3799.5589      0              0             -131.58279      104678.23      47.1287        47.1287        47.1287        0.80135898    -67.402821      363.4328      -59.107616    
    391500   783000         394.42649     -238.02025      5484.1208      5844.9542      4231.3819      1613.5723      1396.8812      1393.071       2679.9185      0             -3856.2984      0              0             -132.5069       103948.2       47.018885      47.018885      47.018885      0.80698697    -237.76569     -346.2301      -130.06495    
    392000   784000         386.28439     -39.04578       5676.7293      5736.4102      4144.034       1592.3762      1382.8207      1367.9289      2641.4053      0             -3799.7787      0              0             -131.42258      104805.84      47.147843      47.147843      47.147843      0.80038327     71.795111     -756.08593      567.15348    
    392500   785000         388.57428     -156.95581      5575.2449      5814.1393      4168.5998      1645.5395      1422.639       1395.5613      2635.0787      0             -3807.7396      0              0             -131.97838      104364.48      47.081566      47.081566      47.081566      0.80376817     498.894       -498.73718     -471.02426    
    393000   786000         394.02841     -491.45701      5016.6579      5766.1759      4227.1114      1539.0645      1348.8088      1403.2081      2593.8978      0             -3806.8502      0              0             -131.71488      104573.26      47.11294       47.11294       47.11294       0.80216345    -602.43915     -734.75228     -137.17958    
    393500   787000         385.59632     -241.56251      5377.7211      5745.1945      4136.6524      1608.5421      1402.0783      1369.4208      2656.5024      0             -3819.4595      0              0             -132.04897      104308.68      47.073174      47.073174      47.073174      0.80419811     7.2085963     -400.62239     -331.27372    
    394000   788000         388.62455      865.27175      7254.8971      5933.817       4169.139       1764.678       1449.0163      1461.3511      2655.229       0             -3800.9184      0              0             -131.56935      104688.93      47.130305      47.130305      47.130305      0.80127714     712.04079      1448.1698      435.60462    
    394500   789000         384.86018     -381.93779      5182.1242      5768.7019      4128.7551      1639.9468      1358.0892      1437.854       2590.5249      0             -3746.5213      0              0             -130.7972       105306.95      47.222866      47.222866      47.222866      0.79657463    -272.51176     -504.23221     -369.06938    
    395000   790000         392.07116      125.10468      6036.664       5846.3798      4206.114       1640.2658      1336.8173      1447.2708      2667.4846      0             -3811.307       0              0             -132.06941      104292.54      47.070745      47.070745      47.070745      0.8043226      746.57377     -398.49408      27.234359    
    395500   791000         384.11701     -449.21073      4929.9289      5615.6928      4120.7825      1494.9103      1364.0291      1367.3079      2587.0898      0             -3823.5165      0              0             -131.58516      104676.35      47.128417      47.128417      47.128417      0.80137343    -953.51803      207.24829     -601.36246    
    396000   792000         392.5335      -188.42517      5488.242       5778.3798      4211.074       1567.3058      1379.0642      1396.4092      2551.7611      0             -3759.9287      0              0             -130.45655      105581.92      47.263933      47.263933      47.263933      0.79450004    -315.70391     -267.21019      17.638601    
    396500   793000         392.34418      54.26498       5946.5433      5863.9729      4209.043       1654.9299      1391.5864      1438.358       2638.3712      0             -3813.3857      0              0             -132.01603      104334.71      47.077089      47.077089      47.077089      0.80399749    -162.62077      346.31783     -20.902116    
    397000   794000         389.59186     -633.97995      4793.0783      5770.5591      4179.5163      1591.0428      1422.0824      1367.6658      2570.8851      0             -3769.5905      0              0             -130.28627      105719.92      47.284516      47.284516      47.284516      0.79346297    -659.404       -674.56349     -567.97237    
    397500   795000         383.08333     -236.60623      5232.318       5594.9965      4109.6932      1485.3032      1369.6326      1369.8395      2560.8397      0             -3815.0085      0              0             -131.04961      105104.12      47.192529      47.192529      47.192529      0.79811183    -441.18996      425.76063     -694.38935    
    398000   796000         394.99662      213.98544      6138.8545      5812.5047      4237.4982      1575.0065      1405.7951      1417.4091      2569.9441      0             -3818.1419      0              0             -131.71408      104573.89      47.113036      47.113036      47.113036      0.80215857     364.38471     -263.27206      540.84368    
    398500   797000         382.80027      224.89649      5861.1634      5519.9006      4106.6566      1413.244       1330.4881      1357.7342      2549.2813      0             -3824.2596      0              0             -132.3808       104047.22      47.03381       47.03381       47.03381       0.806219      -393.35735      10.986324      1057.0605    
    399000   798000         388.4647       396.83219      6404.8899      5802.9493      4167.4242      1635.5251      1433.278       1374.6028      2631.5112      0             -3803.8668      0              0             -132.42945      104008.99      47.028049      47.028049      47.028049      0.80651531     695.64979     -342.7873       837.6341     
    399500   799000         378.08436     -1040.4892      3900.1949      5470.2162      4056.0645      1414.1516      1357.0598      1368.5244      2531.9519      0             -3843.3846      0              0             -133.12615      103464.67      46.945867      46.945867      46.945867      0.8107583     -1737.5642     -413.79897     -970.10428    
    400000   800000         382.17202     -299.57479      5267.9483      5723.7946      4099.9167      1623.8779      1415.1122      1430.3953      2584.0361      0             -3805.6657      0              0             -132.01344      104336.76      47.077397      47.077397      47.077397      0.80398171    -119.8363      -412.34251     -366.54556    
    400500   801000         390.18951     -314.81399      5303.7148      5783.1495      4185.9279      1597.2217      1410.5052      1399.2446      2624.4333      0             -3836.9615      0              0             -131.90336      104423.83      47.090489      47.090489      47.090489      0.80331132     34.877611     -512.0879      -467.23169    
    401000   802000         396.1306       21.364511      5935.7725      5903.4467      4249.6634      1653.7833      1442.6788      1408.404       2627.9491      0             -3825.2486      0              0             -132.76266      103747.95      46.988672      46.988672      46.988672      0.80854459    -837.63827      654.03236      247.69944    
    401500   803000         393.00157      99.12316       5920.5633      5772.255       4216.0954      1556.1596      1423.1246      1382.54        2612.7822      0             -3862.2872      0              0             -134.25827      102592.22      46.813539      46.813539      46.813539      0.81765307     707.05027     -272.95157     -136.72921    
    402000   804000         378.48686     -479.67286      4902.4032      5620.437       4060.3825      1560.0545      1418.1712      1408.1975      2601.3187      0             -3867.6329      0              0             -134.19354      102641.71      46.821065      46.821065      46.821065      0.81725887    -770.5032       375.09295     -1043.6083    
    402500   805000         388.5112       546.31454      6582.266       5755.7477      4167.9231      1587.8246      1408.1774      1392.1385      2633.5065      0             -3845.9978      0              0             -132.77663      103737.04      46.987025      46.987025      46.987025      0.80862963     148.3127       448.46904      1042.1619    
    403000   806000         393.14649     -245.01232      5397.0872      5768.6699      4217.6501      1551.0198      1400.968       1410.7891      2569.7426      0             -3830.4798      0              0             -132.45359      103990.04      47.025193      47.025193      47.025193      0.80666227     709.74322     -415.71987     -1029.0603    
    403500   807000         393.63281     -239.36141      5338.4032      5696.1953      4222.8674      1473.328       1420.9664      1352.5787      2562.6692      0             -3862.8863      0              0             -134.38622      102494.54      46.798678      46.798678      46.798678      0.81843228    -383.85829     -973.11515      638.8892     
    404000   808000         383.7649      -1031.9027      4263.732       5830.395       4117.005       1713.39        1451.7291      1440.3925      2635.3508      0             -3814.0824      0              0             -132.31057      104102.45      47.04213       47.04213       47.04213       0.80579126    -968.01268     -1238.0469     -889.64854    
    404500   809000         388.14499     -19.173745      5583.995       5612.9503      4163.9943      1448.956       1401.7907      1344.8076      2566.0721      0             -3863.7145      0              0             -133.01775      103548.99      46.958617      46.958617      46.958617      0.81009811     395.06223     -225.70857     -226.87489    
    405000   810000         396.44579     -176.7064       5460.8937      5730.4184      4253.0448      1477.3737      1421.8074      1383.494       2491.131       0             -3819.0588      0              0             -131.69975      104585.27      47.114745      47.114745      47.114745      0.80207128    -614.15931      308.3892      -224.34908    
    405500   811000         395.47297      160.53629      6132.388       5889.3358      4242.6085      1646.7273      1481.9843      1414.6021      2589.0635      0             -3838.9225      0              0             -132.67983      103812.72      46.998448      46.998448      46.998448      0.80804015     650.33038     -785.28552      616.56402    
    406000   812000         386.92295     -993.84564      4226.7863      5738.1038      4150.8844      1587.2194      1465.9489      1428.091       2514.9032      0             -3821.7237      0              0             -132.0975       104270.36      47.067409      47.067409      47.067409      0.80449366    -1061.8691     -877.39607     -1042.2717    
    406500   813000         395.92547      371.22906      6350.9152      5786.8038      4247.4629      1539.3409      1402.2641      1411.662       2560.2538      0             -3834.839       0              0             -132.19298      104195.05      47.056074      47.056074      47.056074      0.80507515     332.6625       62.09139       718.93329    
    407000   814000         382.0221       41.054634      5665.7975      5603.3814      4098.3084      1505.073       1388.9179      1417.4879      2523.8333      0             -3825.1661      0              0             -132.12864      104245.79      47.063711      47.063711      47.063711      0.8046833     -812.06491      198.56497      736.66383    
    407500   815000         391.93232     -69.809621      5662.1175      5767.3882      4204.6246      1562.7635      1402.6717      1486.4253      2536.0607      0             -3862.3942      0              0             -133.21075      103398.96      46.935927      46.935927      46.935927      0.81127354     188.25296     -237.08997     -160.59185    
    408000   816000         384.70487     -115.40137      5520.4117      5695.0978      4127.089       1568.0088      1420.0161      1450.2275      2546.6773      0             -3848.9122      0              0             -132.70403      103793.79      46.995592      46.995592      46.995592      0.80818749     170.16261     -56.63123      -459.73549    
    408500   817000         391.01948     -1216.7559      3806.8579      5659.1641      4194.8317      1464.3324      1394.2533      1355.6453      2543.8141      0             -3829.3804      0              0             -131.95385      104383.87      47.084483      47.084483      47.084483      0.8036188     -1667.5737     -1041.9874     -940.70671    
    409000   818000         387.38668      617.13285      6563.1379      5631.9075      4155.8592      1476.0483      1430.0499      1391.4519      2506.9487      0             -3852.4021      0              0             -133.12294      103467.17      46.946245      46.946245      46.946245      0.81073872     961.4211       623.78957      266.18789    
    409500   819000         390.351        538.30197      6585.5065      5768.353       4187.6603      1580.6927      1473.6495      1392.2578      2524.2342      0             -3809.4488      0              0             -132.32859      104088.27      47.039995      47.039995      47.039995      0.80590101     83.883157      596.57514      934.44763    
    410000   820000         388.20739      192.1098       5936.1791      5646.7264      4164.6638      1482.0627      1439.1249      1346.8491      2563.4051      0             -3867.3165      0              0             -133.32246      103312.33      46.922815      46.922815      46.922815      0.81195383    -141.85446      920.1833      -201.99944    
    410500   821000         387.05583      57.778764      5782.9403      5695.5228      4152.3099      1543.2129      1385.2831      1438.6839      2563.0193      0             -3843.7735      0              0             -132.77041      103741.9       46.987759      46.987759      46.987759      0.80859175     616.25596     -274.28443     -168.63523    
    411000   822000         392.16309     -579.97647      4935.3315      5819.3755      4207.1003      1612.2752      1410.2698      1415.3589      2616.7587      0             -3830.1122      0              0             -131.78557      104517.16      47.104515      47.104515      47.104515      0.80259397    -204.3527      -901.10421     -634.4725     
    411500   823000         390.53217     -399.35771      5192.5948      5799.1399      4189.6038      1609.5361      1433.7037      1365.3362      2644.2607      0             -3833.7645      0              0             -132.26056      104141.81      47.048059      47.048059      47.048059      0.80548669    -1220.0921      1030.3136     -1008.2946    
    412000   824000         381.30833     -153.2274       5480.273       5712.1204      4090.6511      1621.4693      1501.661       1359.5776      2601.0475      0             -3840.8168      0              0             -132.7595       103750.42      46.989046      46.989046      46.989046      0.80852532    -144.49212     -98.048259     -217.14183    
    412500   825000         388.99189     -114.38021      5580.7227      5755.4535      4173.0798      1582.3737      1436.3541      1357.6265      2609.0552      0             -3820.6621      0              0             -131.49605      104747.28      47.13906       47.13906       47.13906       0.80083075    -773.56703      599.31751     -168.89111    
    413000   826000         385.99276      80.886738      5877.5928      5755.4062      4140.9054      1614.5009      1437.2295      1407.2817      2633.5054      0             -3863.5157      0              0             -132.97965      103578.66      46.9631        46.9631        46.9631        0.8098661      173.36729     -403.02903      472.32196    
    413500   827000         393.62749     -312.94359      5334.1338      5811.186       4222.8103      1588.3757      1377.133       1398.3192      2627.6906      0             -3814.7671      0              0             -131.77456      104525.9       47.105827      47.105827      47.105827      0.8025269     -1098.5261     -215.63512      375.33047    
    414000   828000         389.37576      56.685904      5776.1151      5690.2309      4177.198       1513.0329      1418.3367      1371.0806      2574.8038      0             -3851.1882      0              0             -132.58461      103887.28      47.009698      47.009698      47.009698      0.8074602     -263.86421      426.56523      7.3566847    
    414500   829000         386.92936     -200.85241      5363.1555      5666.1464      4150.9532      1515.1932      1378.5233      1411.4515      2567.0483      0             -3841.8299      0              0             -133.16157      103437.15      46.941704      46.941704      46.941704      0.81097403     251.01879     -723.05767     -130.51834    
    415000   830000         392.60517     -438.35788      5157.4885      5826.4027      4211.8429      1614.5598      1440.1988      1403.0122      2583.1122      0             -3811.7634      0              0             -131.64057      104632.29      47.121804      47.121804      47.121804      0.80171089    -2.3866385     -689.60529     -623.08172    
    415500   831000         389.40831      36.26261       5801.2845      5746.2833      4177.5472      1568.7361      1403.6412      1382.5624      2613.9742      0             -3831.4417      0              0             -132.43971      104000.94      47.026836      47.026836      47.026836      0.80657774     577.74085     -837.49011      368.53709    
    416000   832000         391.36576      65.832572      5873.6414      5773.473       4198.5466      1574.9264      1406.8028      1375.6187      2616.8096      0             -3824.3047      0              0             -132.02048      104331.2       47.076561      47.076561      47.076561      0.80402456     40.959572      561.33594     -404.79779    
    416500   833000         396.75852     -222.37947      5541.7399      5878.709       4256.3997      1622.3092      1456.5473      1368.493       2613.8323      0             -3816.5633      0              0             -132.56719      103900.93      47.011756      47.011756      47.011756      0.80735412    -1011.0677      121.65195      222.27736    
    417000   834000         385.03659      171.68691      5960.652       5699.5745      4130.6476      1568.9269      1380.6929      1352.5124      2637.8382      0             -3802.1166      0              0             -132.0989       104269.26      47.067243      47.067243      47.067243      0.80450218    -240.17767      986.97338     -231.73498    
    417500   835000         391.15469     -26.446025      5797.8735      5838.4526      4196.2823      1642.1704      1438.7653      1390.5658      2606.0191      0             -3793.1798      0              0             -130.91481      105212.35      47.208721      47.208721      47.208721      0.79729086    -404.35887      215.94814      109.07265    
    418000   836000         395.59088      118.59388      6049.087       5868.9941      4243.8734      1625.1207      1446.0435      1364.7787      2652.4568      0             -3838.1583      0              0             -132.2809       104125.8       47.045647      47.045647      47.045647      0.80561059     179.16792      20.842975      155.77075    
    418500   837000         392.22969     -16.406944      5782.6338      5807.5047      4207.8148      1599.6899      1406.1195      1386.3312      2642.5677      0             -3835.3285      0              0             -132.51592      103941.13      47.017818      47.017818      47.017818      0.8070419      330.29324     -223.34763     -156.16645    
    419000   838000         386.78834     -519.49789      5001.5546      5797.5471      4149.4403      1648.1067      1379.3088      1394.3964      2692.9188      0             -3818.5173      0              0             -131.10105      105062.88      47.186356      47.186356      47.186356      0.79842512    -58.434575     -521.02227     -979.03682    
    419500   839000         393.44986      502.53136      6670.8134      5905.1668      4220.9047      1684.2621      1424.2994      1398.9961      2684.2976      0             -3823.331       0              0             -131.84575      104469.46      47.097347      47.097347      47.097347      0.80296046    -95.666459      64.489527      1538.771     
    420000   840000         387.46341      43.404047      5701.7034      5636.4424      4156.6824      1479.76        1373.7103      1361.4591      2607.0248      0             -3862.4342      0              0             -133.60033      103097.46      46.890261      46.890261      46.890261      0.8136461     -111.47218     -485.43274      727.11706    
    420500   841000         393.48298     -257.74994      5520.1079      5909.305       4221.26        1688.045       1453.3398      1377.2537      2706.1836      0             -3848.7321      0              0             -133.0333       103536.89      46.956787      46.956787      46.956787      0.8101928     -701.47268     -113.45191      41.674764    
    421000   842000         388.8647      -778.1666       4535.0567      5718.0072      4171.7154      1546.2918      1376.9051      1380.3786      2620.3419      0             -3831.3338      0              0             -132.14094      104236.08      47.062251      47.062251      47.062251      0.8047582     -686.7615      -428.88593     -1218.8524    
    421500   843000         388.30223      150.61521      6017.3102      5790.0663      4165.6812      1624.3851      1372.6563      1417.3912      2679.9591      0             -3845.6214      0              0             -133.13982      103454.05      46.944261      46.944261      46.944261      0.81084153     589.28586     -573.85857      436.41835    
    422000   844000         388.13589      5.4142865      5814.7636      5806.5329      4163.8968      1642.6361      1419.8652      1440.2353      2616.1023      0             -3833.5668      0              0             -132.13965      104237.1       47.062403      47.062403      47.062403      0.80475038    -221.3797       33.348622      204.27394    
    422500   845000         394.11984     -246.2332       5512.3041      5888.2803      4228.0921      1660.1882      1417.381       1394.2573      2657.5638      0             -3809.0139      0              0             -131.55808      104697.9       47.131651      47.131651      47.131651      0.80120848    -315.54608     -240.22141     -182.9321     
    423000   846000         389.90518     -77.12124       5585.4787      5702.9969      4182.8775      1520.1193      1360.3898      1382.2202      2622.4326      0             -3844.9233      0              0             -131.82571      104485.34      47.099733      47.099733      47.099733      0.80283843     89.074441     -168.38523     -152.05294    
    423500   847000         393.76811      449.23185      6513.8037      5829.1442      4224.3189      1604.8254      1397.2866      1420.0584      2603.363       0             -3815.8826      0              0             -131.8036       104502.87      47.102367      47.102367      47.102367      0.80270375     604.91407      500.20634      242.57514    
    424000   848000         394.14649      298.87039      6384.9548      5930.076       4228.378       1701.6979      1401.7198      1451.9987      2662.6601      0             -3814.6806      0              0             -131.98316      104360.69      47.080997      47.080997      47.080997      0.80379731     122.50064      177.51635      596.59418    
    424500   849000         389.87736      175.68043      6180.6391      5911.3         4182.5791      1728.7208      1384.4909      1449.2151      2653.1421      0             -3758.1273      0              0             -131.02531      105123.61      47.195445      47.195445      47.195445      0.79796388    -231.80573     -184.78462      943.63164    
    425000   850000         391.48099      167.36214      5971.6203      5716.2063      4199.7827      1516.4236      1385.7073      1345.681       2564.6482      0             -3779.6129      0              0             -131.6267       104643.32      47.123459      47.123459      47.123459      0.80162639    -306.65778      900.16691     -91.422701    
    425500   851000         391.06013      396.07546      6234.6477      5632.7313      4195.2678      1437.4635      1342.4306      1370.3655      2529.0063      0             -3804.3388      0              0             -132.18224      104203.52      47.057349      47.057349      47.057349      0.80500971    -73.530343      412.06405      849.69268    
    426000   852000         392.20815     -52.305463      5765.5773      5845.3141      4207.5836      1637.7305      1409.2562      1424.6353      2611.401       0             -3807.5621      0              0             -131.77093      104528.77      47.106259      47.106259      47.106259      0.80250481     271.72559     -61.128587     -367.51339    
    426500   853000         381.96561      262.97061      6116.3674      5714.0785      4097.7024      1616.3761      1376.8961      1454.5728      2609.6414      0             -3824.7342      0              0             -131.31082      104895.04      47.161215      47.161215      47.161215      0.79970268    -687.43921      334.69015      1141.6609    
    427000   854000         389.66724      220.65772      6136.7486      5800.125       4180.325       1619.8         1354.6396      1411.6001      2650.8071      0             -3797.2467      0              0             -131.67581      104604.29      47.1176        47.1176        47.1176        0.80192549     178.75216      767.50079     -284.27979    
    427500   855000         385.21117      321.94499      6116.5692      5632.0247      4132.5205      1499.5042      1315.7063      1353.9012      2667.2366      0             -3837.3399      0              0             -133.46868      103199.15      46.905673      46.905673      46.905673      0.81284435     248.49125     -144.64419      861.98791    
    428000   856000         383.43063     -801.3437       4501.3786      5726.0242      4113.419       1612.6053      1379.6335      1438.702       2614.8268      0             -3820.5571      0              0             -131.44369      104789.01      47.145319      47.145319      47.145319      0.80051185    -800.44661     -1329.2584     -274.32612    
    428500   857000         391.24723     -102.88045      5670.0346      5826.5212      4197.275       1629.2463      1429.8028      1434.1667      2568.1404      0             -3802.8636      0              0             -132.0648       104296.18      47.071293      47.071293      47.071293      0.80429453    -1116.1018      707.74154      99.718945    
    429000   858000         397.05033      127.61223      6063.1587      5871.0103      4259.5303      1611.4799      1397.4389      1414.6988      2684.3952      0             -3885.053       0              0             -133.40952      103244.91      46.912605      46.912605      46.912605      0.81248406     543.40119     -88.288315     -72.276183    
    429500   859000         382.83913      147.73937      5871.8101      5645.5697      4107.0734      1538.4963      1345.7656      1426.665       2566.1811      0             -3800.1155      0              0             -131.17691      105002.13      47.177258      47.177258      47.177258      0.79888709     330.23618      368.88534     -255.9034     
    430000   860000         387.29947     -16.240512      5792.0007      5816.9936      4154.9237      1662.0698      1429.0257      1394.0391      2579.5976      0             -3740.5926      0              0             -130.53161      105521.22      47.254873      47.254873      47.254873      0.79495712    -480.17924      278.6041       152.8536     
    430500   861000         390.9609      -600.89182      4753.1695      5670.0665      4194.2033      1475.8632      1358.5493      1339.7286      2586.9218      0             -3809.3366      0              0             -131.64583      104628.11      47.121176      47.121176      47.121176      0.8017429     -336.66366     -1310.9815     -155.03028    
    431000   862000         386.63328     -7.9011775      5604.0544      5615.9667      4147.7768      1468.1899      1378.6752      1389.4354      2537.5826      0             -3837.5033      0              0             -133.23759      103378.14      46.932775      46.932775      46.932775      0.81143697    -227.82443     -95.576655      299.69755    
    431500   863000         384.45351     -365.58524      5104.0063      5663.5806      4124.3924      1539.1882      1379.9224      1415.42        2575.1851      0             -3831.3392      0              0             -131.2388       104952.6       47.16984       47.16984       47.16984       0.79926405    -10.543866     -857.98353     -228.22832    
    432000   864000         393.50684      63.842868      5857.1905      5758.6101      4221.5159      1537.0942      1356.141       1376.1859      2556.2714      0             -3751.5041      0              0             -130.09274      105877.19      47.307951      47.307951      47.307951      0.79228438    -415.9755       168.58467      438.91943    
    432500   865000         395.94644      285.91121      6293.4756      5860.5754      4247.6878      1612.8876      1373.629       1417.6042      2610.0989      0             -3788.4446      0              0             -132.6706       103819.94      46.999539      46.999539      46.999539      0.80798391    -198.19585      259.22481      796.70467    
    433000   866000         381.10016      37.090195      5717.2904      5661.3767      4088.4179      1572.9588      1367.7123      1449.4906      2587.4807      0             -3831.7248      0              0             -133.25166      103367.22      46.931123      46.931123      46.931123      0.81152268    -346.44578      444.40391      13.312453    
    433500   867000         388.08911     -913.71389      4333.2163      5718.6246      4163.3949      1555.2297      1328.1883      1431.3744      2630.9374      0             -3835.2704      0              0             -132.48412      103966.08      47.02158       47.02158       47.02158       0.80684821    -889.13215     -821.47358     -1030.5359    
    434000   868000         399.19223     -467.08731      5115.6014      5824.0918      4282.5085      1541.5833      1356.5174      1379.4424      2636.8068      0             -3831.1831      0              0             -132.43276      104006.4       47.027658      47.027658      47.027658      0.80653544    -429.67808     -945.14734     -26.43652     
    434500   869000         389.51823     -108.58754      5550.2873      5714.9782      4178.7264      1536.2518      1364.3493      1415.7593      2603.4918      0             -3847.3486      0              0             -132.44689      103995.3       47.025985      47.025985      47.025985      0.8066215     -524.13712      260.92356     -62.549042    
    435000   870000         382.39928     -508.53558      4907.0931      5673.3357      4102.3548      1570.9809      1365.0848      1412.6807      2644.8083      0             -3851.593       0              0             -133.31728      103316.35      46.923422      46.923422      46.923422      0.81192228     309.57712     -1000.3708     -834.8131     
    435500   871000         393.66137      166.69129      6126.7465      5875.837       4223.1737      1652.6633      1437.0856      1408.9802      2673.0307      0             -3866.4332      0              0             -133.45265      103211.55      46.907551      46.907551      46.907551      0.8127467      347.42846     -42.750092      195.39549    
    436000   872000         388.91782      16.592209      5786.2631      5761.0364      4172.2852      1588.7512      1396.4854      1389.9028      2595.819       0             -3793.456       0              0             -132.12187      104251.13      47.064515      47.064515      47.064515      0.80464207     704.93681     -1321.9817      666.82149    
    436500   873000         395.51288     -39.141999      5766.8595      5826.2428      4243.0366      1583.2062      1336.9773      1441.2213      2624.7328      0             -3819.7252      0              0             -132.40677      104026.81      47.030734      47.030734      47.030734      0.80637717     240.65974      438.55586     -796.64159    
    437000   874000         388.19571      33.196293      5757.8634      5707.3046      4164.5385      1542.7661      1366.4462      1444.1243      2568.5681      0             -3836.3725      0              0             -131.89386      104431.35      47.09162       47.09162       47.09162       0.80325348     105.91177      120.44643     -126.76932    
    437500   875000         389.83967     -35.800721      5623.4345      5677.4672      4182.1747      1495.2924      1310.727       1439.0261      2559.7667      0             -3814.2273      0              0             -133.09657      103487.67      46.949345      46.949345      46.949345      0.81057812    -281.74334     -278.27688      452.61806    
    438000   876000         396.98855      152.77394      6076.0392      5845.9905      4258.8675      1587.123       1360.8022      1424.1254      2643.5407      0             -3841.3453      0              0             -133.40152      103251.11      46.913543      46.913543      46.913543      0.81243531     283.98762      83.152322      91.181877    
    438500   877000         388.74196     -168.63336      5431.1506      5683.1461      4170.3986      1512.7475      1394.2751      1398.6797      2601.6889      0             -3881.8963      0              0             -134.42562      102464.5       46.794104      46.794104      46.794104      0.81867227    -531.58634     -387.98398      413.67024    
    439000   878000         390.46         44.324984      5775.1999      5708.3634      4188.8297      1519.5337      1379.9299      1391.017       2612.1359      0             -3863.5491      0              0             -133.21905      103392.52      46.934952      46.934952      46.934952      0.81132409     225.53333      118.00102     -210.5594     
    439500   879000         384.24544      207.54768      5996.2828      5684.0532      4122.1603      1561.893       1403.5999      1415.8628      2606.3224      0             -3863.8921      0              0             -133.52889      103152.62      46.898622      46.898622      46.898622      0.81321102    -817.10199      645.11406      794.63097    
    440000   880000         385.43777     -719.14247      4572.9483      5671.9772      4134.9515      1537.0257      1429.6485      1394.1388      2557.6559      0             -3844.4176      0              0             -131.44293      104789.62      47.14541       47.14541       47.14541       0.80050719    -440.99067     -428.82559     -1287.6112    
    440500   881000         388.2267       565.38287      6514.9834      5671.442       4164.8709      1506.5711      1423.3104      1400.1821      2558.4921      0             -3875.4134      0              0             -134.63799      102302.88      46.769489      46.769489      46.769489      0.81996559     382.29589      795.19332      518.6594     
    441000   882000         393.54268     -53.112789      5569.6971      5649.8634      4221.9004      1427.9631      1344.7555      1366.0394      2567.1374      0             -3849.9692      0              0             -133.08787      103494.43      46.950368      46.950368      46.950368      0.81052516    -777.77517      921.14186     -302.70506    
    441500   883000         386.03489      325.12052      6282.0852      5791.8309      4141.3574      1650.4735      1427.3978      1461.2038      2623.3338      0             -3861.4618      0              0             -133.21536      103395.39      46.935385      46.935385      46.935385      0.81130162     551.6241      -316.21507      739.95253    
    442000   884000         383.05403     -606.7026       4773.7417      5693.4081      4109.3789      1584.0292      1377.8303      1409.7775      2639.4135      0             -3842.9921      0              0             -132.51863      103939         47.017498      47.017498      47.017498      0.80705837    -242.37089     -481.48228     -1096.2546    
    442500   885000         385.44901      570.00368      6683.8328      5820.8394      4135.072       1685.7674      1429.0881      1447.7522      2637.0633      0             -3828.1363      0              0             -132.67881      103813.52      46.998569      46.998569      46.998569      0.8080339     -869.36906      1414.6346      1164.7455    
    443000   886000         383.45171      64.387474      5718.2525      5621.3945      4113.6452      1507.7494      1370.5133      1399.8032      2607.5093      0             -3870.0764      0              0             -133.53574      103147.33      46.89782       46.89782       46.89782       0.81325273    -404.68304      540.61942      57.22604     
    443500   887000         391.28533      67.26732       5872.5773      5770.0652      4197.6837      1572.3815      1451.5903      1417.5348      2549.4999      0             -3846.2436      0              0             -131.81364      104494.91      47.101171      47.101171      47.101171      0.80276491    -1.9065596      210.71333     -7.0048105    
    444000   888000         389.69032     -455.37787      4953.0103      5634.5427      4180.5726      1453.9701      1385.3672      1374.8841      2593.4458      0             -3899.7271      0              0             -134.21986      102621.58      46.818004      46.818004      46.818004      0.81741917    -1228.2317     -647.36118      509.45924    
    444500   889000         385.86246     -588.81385      4779.4509      5667.5436      4139.5075      1528.0361      1416.743       1383.3208      2581.123       0             -3853.1506      0              0             -133.1837       103419.97      46.939105      46.939105      46.939105      0.81110877    -554.54747     -277.6969      -934.19718    
    445000   890000         392.53047      149.9487       6081.1354      5856.9109      4211.0416      1645.8693      1464.1167      1501.5185      2612.8342      0             -3932.6002      0              0             -134.33556      102533.2       46.80456       46.80456       46.80456       0.81812375    -653.60071      976.08023      127.36656    
    445500   891000         387.61893      209.59347      5974.4235      5659.001       4158.3508      1500.6502      1399.172       1400.9967      2582.6753      0             -3882.1938      0              0             -133.48006      103190.35      46.90434       46.90434       46.90434       0.81291366     325.86033      591.79085     -288.87076    
    446000   892000         393.92823     -467.95274      5172.6614      5880.9005      4226.0366      1654.8639      1456.1404      1433.249       2617.9072      0             -3852.4327      0              0             -132.72523      103777.21      46.993089      46.993089      46.993089      0.80831663    -239.59046     -883.23193     -281.03582    
    446500   893000         394.06895     -123.90563      5612.1429      5800.0406      4227.5462      1572.4944      1419.6346      1420.8532      2568.8163      0             -3836.8097      0              0             -132.46498      103981.09      47.023844      47.023844      47.023844      0.80673169    -74.810322      531.6546      -828.56117    
    447000   894000         393.80724     -359.58949      5269.9939      5810.2632      4224.7386      1585.5246      1376.4335      1380.7297      2696.0528      0             -3867.6915      0              0             -133.69896      103021.4       46.878727      46.878727      46.878727      0.8142468     -1149.2286      178.54404     -108.08396    
    447500   895000         398.57051     -428.12022      5146.673       5797.2503      4275.8387      1521.4116      1399.9646      1381.5842      2587.7743      0             -3847.9115      0              0             -132.18987      104197.5       47.056443      47.056443      47.056443      0.80505623    -642.40193      201.78372     -843.74244    
    448000   896000         388.2302       20.449063      5805.9228      5775.0677      4164.9085      1610.1592      1460.2146      1407.8256      2570.4966      0             -3828.3775      0              0             -133.13064      103461.18      46.945339      46.945339      46.945339      0.81078565    -448.71163      946.70476     -436.64594    
    448500   897000         398.70071      17.0658        5910.3395      5885.0193      4277.2354      1607.7838      1442.5709      1421.2231      2642.3993      0             -3898.4095      0              0             -135.39128      101733.68      46.682588      46.682588      46.682588      0.8245533     -599.83967      430.16418      220.8729     
    449000   898000         390.82487      593.02068      6575.5254      5691.767       4192.744       1499.0231      1376.6943      1412.2665      2637.2685      0             -3927.2062      0              0             -134.7931       102185.16      46.751542      46.751542      46.751542      0.82091025     952.13315      833.08193     -6.1530458    
    449500   899000         387.59037      206.82816      5962.2002      5649.6598      4158.0444      1491.6154      1383.8125      1425.4952      2541.1483      0             -3858.8407      0              0             -132.93362      103614.53      46.968521      46.968521      46.968521      0.80958574    -655.37511      1303.8387     -27.979149    
    450000   900000         388.47102      344.82966      6222.142       5702.8899      4167.492       1535.398       1422.811       1421.3087      2541.7716      0             -3850.4934      0              0             -133.4006       103251.82      46.913651      46.913651      46.913651      0.8124297     -106.74535      786.65927      354.57507    
    450500   901000         385.19491      458.03051      6267.7485      5585.7999      4132.3461      1453.4538      1360.4489      1443.0304      2578.5613      0             -3928.5868      0              0             -134.91931      102089.57      46.73696       46.73696       46.73696       0.82167889     782.54561      147.55886      443.98706    
    451000   902000         387.97822     -55.123753      5646.591       5730.2776      4162.2053      1568.0723      1433.9944      1413.0755      2571.9633      0             -3850.9609      0              0             -132.31665      104097.67      47.04141       47.04141       47.04141       0.80582829     243.05935      149.91251     -558.34312    
    451500   903000         379.7377      -146.31094      5431.7284      5652.8441      4073.8016      1579.0426      1459.0433      1368.5595      2583.9828      0             -3832.543       0              0             -132.91943      103625.59      46.970192      46.970192      46.970192      0.80949932     243.46576     -656.34388     -26.05471     
    452000   904000         382.10609      99.742994      5905.8423      5752.7022      4099.2095      1653.4927      1437.0324      1378.8323      2602.9998      0             -3765.3718      0              0             -130.83526      105276.31      47.218287      47.218287      47.218287      0.79680642     1115.3989     -1175.8901      359.72025    
    452500   905000         385.86045      10.978486      5797.9775      5781.3414      4139.486       1641.8555      1431.7751      1353.0595      2686.583       0             -3829.5622      0              0             -132.56341      103903.89      47.012203      47.012203      47.012203      0.80733113    -79.930985      389.0226      -276.15616    
    453000   906000         394.9613       642.26389      6847.7889      5877.4613      4237.1193      1640.342       1398.2558      1406.1573      2648.7654      0             -3812.8366      0              0             -132.96169      103592.65      46.965215      46.965215      46.965215      0.80975669     508.25011     -62.024876      1480.5664    
    453500   907000         383.13696     -521.41394      4977.7312      5770.4271      4110.2685      1660.1586      1430.4295      1429.4572      2626.1486      0             -3825.8767      0              0             -132.13181      104243.29      47.063335      47.063335      47.063335      0.80470258     219.8274      -1174.5304     -609.5388     
    454000   908000         389.25297     -144.63906      5528.6246      5749.0428      4175.8807      1573.1621      1416.4935      1371.9951      2590.5821      0             -3805.9085      0              0             -131.81645      104492.68      47.100837      47.100837      47.100837      0.80278201    -322.68766     -248.03919      136.80969    
    454500   909000         399.78439     -871.29778      4658.5634      5973.3435      4288.8611      1684.4824      1500.139       1449.6539      2597.8003      0             -3863.1107      0              0             -133.12048      103469.08      46.946534      46.946534      46.946534      0.81072374    -1422.1477     -636.95721     -554.78838    
    455000   910000         390.68284      479.76265      6475.5067      5746.4715      4191.2202      1555.2513      1341.5679      1424.7698      2652.7918      0             -3863.8783      0              0             -132.19326      104194.83      47.056041      47.056041      47.056041      0.80507684     1083.1917      115.85632      240.23996    
    455500   911000         387.97635      665.0388       6770.9249      5769.1673      4162.1852      1606.982       1434.3175      1381.7838      2639.5286      0             -3848.6479      0              0             -133.35696      103285.6       46.918768      46.918768      46.918768      0.81216394     324.18348      1607.9588      62.974086    
    456000   912000         393.19998     -34.311335      5835.1361      5887.0293      4218.2239      1668.8054      1468.4016      1389.4466      2661.7764      0             -3850.8191      0              0             -132.81835      103704.45      46.982105      46.982105      46.982105      0.80888371     326.97117     -986.16173      556.25655    
    456500   913000         390.75154      155.44662      5929.2513      5692.6809      4191.9573      1500.7236      1390.3147      1406.6388      2525.0503      0             -3821.2802      0              0             -131.99343      104352.57      47.079775      47.079775      47.079775      0.80385987     188.0094       126.25976      152.07072    
    457000   914000         391.03473      175.07577      6036.3455      5771.3296      4194.9953      1576.3342      1421.3682      1379.3353      2608.8079      0             -3833.1771      0              0             -132.70444      103793.47      46.995543      46.995543      46.995543      0.80819        42.235124      221.87367      261.11852    
    457500   915000         386.14574     -665.54884      4659.9928      5676.7376      4142.5465      1534.1911      1377.286       1368.1562      2594.8971      0             -3806.1482      0              0             -131.49201      104750.5       47.139543      47.139543      47.139543      0.80080613    -1072.8579     -504.75379     -419.0348     
    458000   916000         384.89706     -507.15337      4866.3288      5636.3891      4129.1508      1507.2383      1380.0713      1386.044       2566.2898      0             -3825.1668      0              0             -132.29576      104114.1       47.043886      47.043886      47.043886      0.80570106    -712.8572      -170.7299      -637.87302    
    458500   917000         389.93984     -871.14863      4416.463       5751.8934      4183.2494      1568.644       1405.6143      1421.9664      2549.0486      0             -3807.9854      0              0             -131.03954      105112.19      47.193737      47.193737      47.193737      0.79805054    -1289.8201     -846.13411     -477.49166    
    459000   918000         393.24772     -614.15476      4751.7703      5690.1771      4218.7361      1471.441       1405.6186      1363.4676      2464.7319      0             -3762.3771      0              0             -131.46739      104770.12      47.142486      47.142486      47.142486      0.80065619    -655.65325     -961.81178     -224.99926    
    459500   919000         390.60569      142.05183      6015.9231      5799.6418      4190.3926      1609.2492      1428.6962      1404.6883      2572.5555      0             -3796.6908      0              0             -131.93476      104398.98      47.086753      47.086753      47.086753      0.80350254     491.80562     -44.044079     -21.606046    
    460000   920000         390.08508     -153.90396      5562.2361      5795.8356      4184.8075      1611.0281      1447.5353      1365.4121      2634.2106      0             -3836.1299      0              0             -132.34549      104074.98      47.037992      47.037992      47.037992      0.80600395    -492.60778     -12.770548      43.666432    
    460500   921000         388.24585      699.03363      6754.4023      5696.4389      4165.0764      1531.3625      1410.4683      1366.635       2582.0786      0             -3827.8194      0              0             -132.72684      103775.95      46.992899      46.992899      46.992899      0.80832645     339.40478      741.91829      1015.7778    
    461000   922000         393.61414      64.888643      5874.8826      5776.608       4222.6671      1553.9409      1395.1332      1399.3467      2582.3613      0             -3822.9002      0              0             -132.63523      103847.63      47.003716      47.003716      47.003716      0.80776849    -216.34776      621.96596     -210.95227    
    461500   923000         393.36018      307.37121      6253.5118      5785.8087      4219.9426      1565.8661      1393.6554      1422.5967      2555.4815      0             -3805.8675      0              0             -132.01532      104335.27      47.077173      47.077173      47.077173      0.80399317     527.75787      321.54609      72.809659    
    462000   924000         382.51532     -33.633777      5668.2387      5718.9565      4103.5996      1615.3569      1378.674       1450.6187      2610.1661      0             -3824.1019      0              0             -133.21293      103397.28      46.935671      46.935671      46.935671      0.81128679     306.00384     -943.26714      536.36197    
    462500   925000         394.11698     -96.454542      5752.5672      5898.7715      4228.0615      1670.71        1422.8013      1408.6383      2671.9989      0             -3832.7286      0              0             -132.52381      103934.94      47.016886      47.016886      47.016886      0.80708992     62.963969     -31.093993     -321.2336     
    463000   926000         390.38686     -182.61325      5462.8115      5735.669       4188.045       1547.624       1412.2604      1443.4575      2580.2267      0             -3888.3206      0              0             -134.43973      102453.75      46.792468      46.792468      46.792468      0.81875819    -186.92542     -510.12744      149.21312    
    463500   927000         390.39628      365.42945      6161.4096      5612.2254      4188.1461      1424.0793      1432.5033      1335.722       2554.5409      0             -3898.6868      0              0             -133.66475      103047.77      46.882727      46.882727      46.882727      0.81403844     160.09454      364.64862      571.54519    
    464000   928000         389.29398      506.56482      6535.7523      5763.1582      4176.3207      1586.8375      1426.4497      1402.0419      2611.8849      0             -3853.5389      0              0             -131.70886      104578.03      47.113658      47.113658      47.113658      0.8021268      938.43613      89.289925      491.96839    
    464500   929000         396.57982      267.96884      6132.2466      5726.8133      4254.4827      1472.3306      1405.7685      1399.8183      2558.9934      0             -3892.2497      0              0             -132.76885      103743.11      46.987942      46.987942      46.987942      0.80858229     737.68342      877.24271     -811.01962    
    465000   930000         396.81602     -103.97981      5686.3129      5842.7969      4257.0167      1585.7802      1438.9174      1405.806       2632.5822      0             -3891.5253      0              0             -133.47823      103191.77      46.904555      46.904555      46.904555      0.81290249    -683.8055       862.85055     -490.9845     
    465500   931000         398.26904     -124.65762      5568.0563      5755.2105      4272.6046      1482.606       1412.0953      1409.9949      2572.6181      0             -3912.1023      0              0             -133.79826      102944.94      46.867128      46.867128      46.867128      0.81485152     395.41305      36.543822     -805.92975    
    466000   932000         392.68909     -138.74662      5423.7865      5630.4924      4212.7432      1417.7492      1397.7716      1394.4977      2541.3213      0             -3915.8414      0              0             -134.83443      102153.83      46.746764      46.746764      46.746764      0.821162      -35.039566     -447.82247      66.622182    
    466500   933000         401.38626      561.21797      6732.2299      5884.7498      4306.0458      1578.704       1426.4941      1418.2658      2600.4436      0             -3866.4995      0              0             -133.02505      103543.31      46.957757      46.957757      46.957757      0.81014258     326.69176      737.51645      619.44571    
    467000   934000         387.66979     -48.498648      5571.12        5644.1263      4158.8964      1485.2299      1402.8229      1389.0397      2580.9326      0             -3887.5654      0              0             -133.44456      103217.8       46.908499      46.908499      46.908499      0.81269746    -354.89831      463.52852     -254.12616    
    467500   935000         386.23256      69.939605      5852.2324      5747.4593      4143.478       1603.9813      1456.5987      1416.3704      2608.7954      0             -3877.7832      0              0             -134.09259      102718.98      46.832812      46.832812      46.832812      0.81664405     331.96567     -818.86598      696.71912    
    468000   936000         382.61205      253.4463       6008.4965      5624.4663      4104.6373      1519.829       1441.1665      1344.785       2606.3669      0             -3872.4894      0              0             -132.57206      103897.11      47.011181      47.011181      47.011181      0.80738377    -269.18008      240.50677      789.01221    
    468500   937000         392.82422      89.685718      5946.7534      5811.1806      4214.1928      1596.9879      1396.9453      1462.5301      2586.9199      0             -3849.4074      0              0             -132.8869       103650.95      46.974024      46.974024      46.974024      0.80930122     210.7597      -118.24         176.53746    
    469000   938000         386.73661      362.75932      6346.4849      5804.3253      4148.8854      1655.4399      1458.2258      1401.3823      2663.3628      0             -3867.5311      0              0             -134.40728      102478.48      46.796233      46.796233      46.796233      0.81856056     792.17165      666.49977     -370.39344    
    469500   939000         396.08062      146.48142      6116.0757      5894.1883      4249.1273      1645.0611      1455.5837      1427.5517      2596.84        0             -3834.9143      0              0             -132.61156      103866.16      47.006512      47.006512      47.006512      0.80762437    -544.56935      216.40863      767.60497    
    470000   940000         394.11325      640.16883      6787.3775      5826.5216      4228.0215      1598.5         1406.956       1399.6872      2660.1423      0             -3868.2855      0              0             -133.83435      102917.18      46.862914      46.862914      46.862914      0.81507135     494.57913      679.30554      746.62183    
    470500   941000         393.81727     -645.23817      4892.4418      5864.1524      4224.8462      1639.3062      1447.3615      1330.929       2702.8435      0             -3841.8279      0              0             -133.3873       103262.11      46.91521       46.91521       46.91521       0.81234874    -1222.2411     -430.43037     -283.04305    
    471000   942000         393.64472      591.12621      6616.6579      5738.2362      4222.9951      1515.2411      1423.6393      1394.6079      2616.5445      0             -3919.5506      0              0             -135.17878      101893.61      46.707037      46.707037      46.707037      0.8232591      625.85059      957.41155      190.11649    
    471500   943000         380.63416     -449.54496      5013.7582      5694.8917      4083.4186      1611.473       1450.3807      1377.1482      2626.2931      0             -3842.3489      0              0             -132.57826      103892.25      47.010448      47.010448      47.010448      0.80742155    -1054.4869     -236.42037     -57.727576    
    472000   944000         390.73081      224.94351      6105.2293      5762.6279      4191.7349      1570.893       1444.6879      1354.7513      2577.9806      0             -3806.5268      0              0             -131.89115      104433.5       47.091943      47.091943      47.091943      0.80323694     570.5587      -350.00861      454.28045    
    472500   945000         393.38391      242.713        6229.4206      5857.886       4220.1971      1637.6889      1458.2924      1433.5783      2511.5737      0             -3765.7555      0              0             -131.22759      104961.57      47.171184      47.171184      47.171184      0.79919576     292.93922      315.79493      119.40486    
    473000   946000         397.01804     -236.61025      5410.9905      5774.9243      4259.1838      1515.7405      1385.7112      1384.5918      2538.5266      0             -3793.0891      0              0             -130.5998       105466.12      47.246647      47.246647      47.246647      0.79537241    -656.14028     -53.815492      0.12501462   
    473500   947000         388.57284      118.6878       5835.8899      5655.8864      4168.5843      1487.3021      1362.8731      1358.204       2615.7399      0             -3849.5149      0              0             -132.45139      103991.77      47.025453      47.025453      47.025453      0.80664891     55.405213      101.8571       198.80108    
    474000   948000         390.54788      398.56569      6287.4754      5693.9415      4189.7724      1504.1691      1439.7091      1408.8625      2544.4921      0             -3888.8946      0              0             -134.89184      102110.36      46.740132      46.740132      46.740132      0.82151161     541.6103       245.33625      408.75052    
    474500   949000         398.57487      404.16332      6438.4349      5825.3581      4275.8854      1549.4727      1411.6406      1401.1506      2592.8331      0             -3856.1515      0              0             -132.42603      104011.68      47.028455      47.028455      47.028455      0.80649443     281.31937      294.0809       637.0897     
    475000   950000         382.35741     -1141.4665      3889.0472      5627.3947      4101.9055      1525.4892      1407.686       1358.9572      2566.0391      0             -3807.1931      0              0             -131.90399      104423.33      47.090415      47.090415      47.090415      0.80331514    -1859.3693     -665.21253     -899.81776    
    475500   951000         392.9431      -1023.7897      4222.7383      5754.6735      4215.4682      1539.2053      1404.7763      1445.7032      2568.6611      0             -3879.9352      0              0             -134.24612      102601.51      46.814951      46.814951      46.814951      0.81757907    -1411.9276     -1184.4545     -474.98704    
    476000   952000         388.13328      377.48317      6302.1593      5734.7589      4163.8687      1570.8902      1366.1426      1413.6019      2689.5194      0             -3898.3736      0              0             -133.64089      103066.17      46.885517      46.885517      46.885517      0.81389311     758.43134      754.01138     -379.99319    
    476500   953000         396.3737       3.2955951      5872.6965      5867.7752      4252.2714      1615.5038      1466.3056      1387.8382      2636.9039      0             -3875.5439      0              0             -134.51801      102394.13      46.783389      46.783389      46.783389      0.81923492     483.96929     -586.86619      112.78368    
    477000   954000         393.22041      212.93441      6080.2803      5757.4245      4218.4432      1538.9814      1437.638       1363.8954      2558.6975      0             -3821.2495      0              0             -132.48561      103964.91      47.021404      47.021404      47.021404      0.80685728     375.93667      538.26579     -275.39922    
    477500   955000         395.27785     -90.70878       5726.0926      5861.4664      4240.5152      1620.9512      1412.3151      1425.4509      2681.0577      0             -3897.8725      0              0             -134.60033      102331.5       46.773849      46.773849      46.773849      0.81973628    -742.7197      -104.9944       575.58776    
    478000   956000         386.92109      369.64631      6318.4625      5764.3991      4150.8644      1613.5346      1404.7675      1375.4571      2701.3959      0             -3868.0859      0              0             -134.01649      102777.31      46.841674      46.841674      46.841674      0.81618061     372.96545     -14.663361      750.63685    
    478500   957000         382.14954     -37.496468      5682.8016      5739.1586      4099.6755      1639.4831      1406.3646      1397.6369      2674.8775      0             -3839.3959      0              0             -133.65152      103057.97      46.884274      46.884274      46.884274      0.81395786    -90.574982     -96.871962      74.957539    
    479000   958000         387.9288      -236.37195      5366.1759      5722.2696      4161.6751      1560.5945      1420.495       1387.8304      2612.6545      0             -3860.3854      0              0             -133.34079      103298.13      46.920664      46.920664      46.920664      0.81206546     69.278008      36.270645     -814.66451    
    479500   959000         393.14537     -90.893196      5639.7149      5777.1291      4217.6381      1559.491       1437.6412      1361.1387      2622.4224      0             -3861.7113      0              0             -132.87128      103663.14      46.975866      46.975866      46.975866      0.80920606    -30.683005     -423.03989      181.04331    
    480000   960000         396.14688     -822.52384      4494.3611      5738.3985      4249.8381      1488.5604      1403.8412      1362.8055      2586.6919      0             -3864.7782      0              0             -132.81478      103707.24      46.982525      46.982525      46.982525      0.80886202    -1242.2992     -290.09746     -935.17485    
    480500   961000         382.72204     -195.04517      5291.4487      5586.6598      4105.8174      1480.8424      1414.2151      1339.8246      2543.213       0             -3816.4104      0              0             -132.71923      103781.9       46.993798      46.993798      46.993798      0.80828005    -844.66095      135.92173      123.60371    
    481000   962000         388.19308     -422.5942       5038.8679      5678.6195      4164.5102      1514.1093      1364.9165      1376.2674      2607.2132      0             -3834.2878      0              0             -132.69162      103803.49      46.997056      46.997056      46.997056      0.80811195    -666.52296     -299.37025     -301.88938    
    481500   963000         390.37171     -128.46782      5515.224       5710.4378      4187.8824      1522.5553      1407.0994      1385.4118      2547.3879      0             -3817.3437      0              0             -132.19508      104193.4       47.055826      47.055826      47.055826      0.80508791    -408.22162     -295.22941      318.04758    
    482000   964000         394.25134     -527.96768      5011.6969      5817.7913      4229.5029      1588.2884      1416.4499      1378.4354      2610.4262      0             -3817.0232      0              0             -131.56877      104689.39      47.130374      47.130374      47.130374      0.80127359    -29.018026     -758.85683     -796.02819    
    482500   965000         379.29705     -849.49789      4314.7514      5603.9477      4069.0742      1534.8735      1375.6745      1437.1805      2514.6094      0             -3792.5909      0              0             -132.36544      104059.29      47.035629      47.035629      47.035629      0.80612544    -1278.2938     -1467.5156      197.31575    
    483000   966000         397.51993      87.930369      6081.5059      5947.698       4264.5681      1683.1299      1431.4257      1462.0453      2602.9193      0             -3813.2604      0              0             -132.00441      104343.89      47.078471      47.078471      47.078471      0.80392671    -81.660282      414.09525     -68.643863    
    483500   967000         393.60553     -525.29029      4961.4041      5749.8012      4222.5747      1527.2265      1399.1747      1396.5255      2609.3352      0             -3877.8089      0              0             -133.83994      102912.89      46.862263      46.862263      46.862263      0.81510535    -743.0406      -1010.2583      177.42804    
    484000   968000         391.58301     -159.60136      5590.7448      5833.5444      4200.8773      1632.6671      1403.2623      1432.0873      2608.7206      0             -3811.4031      0              0             -132.04442      104312.27      47.073715      47.073715      47.073715      0.80417041     157.74795     -435.34141     -201.21064    
    484500   969000         383.44031      7.8724609      5651.3575      5639.569       4113.5228      1526.0462      1407.0764      1401.2397      2604.1034      0             -3886.3734      0              0             -134.14714      102677.21      46.826462      46.826462      46.826462      0.8169763      312.82567     -320.90448      31.696194    
    485000   970000         394.12296     -559.83181      5022.1066      5869.4819      4228.1257      1641.3562      1438.1623      1434.0553      2605.5096      0             -3836.371       0              0             -132.71291      103786.85      46.994544      46.994544      46.994544      0.80824156    -1000.4678     -213.17696     -465.85068    
    485500   971000         382.51435     -235.10271      5391.5189      5746.5289      4103.5892      1642.9397      1423.2895      1466.2549      2606.6197      0             -3853.2243      0              0             -133.02963      103539.75      46.957219      46.957219      46.957219      0.81017044    -790.03472      202.39884     -117.67224    
    486000   972000         381.7684       97.110424      5871.4103      5723.9005      4095.5867      1628.3138      1390.6665      1450.531       2615.1687      0             -3828.0525      0              0             -132.24414      104154.74      47.050006      47.050006      47.050006      0.8053867      198.94742      82.136115      10.247733    
    486500   973000         385.66227      592.11148      6719.5116      5821.9061      4137.3599      1684.5462      1457.6912      1427.6567      2621.9752      0             -3822.777       0              0             -132.5102       103945.62      47.018495      47.018495      47.018495      0.80700704     754.02327      887.40474      134.90643    
    487000   974000         391.61238      529.65164      6602.6929      5811.5421      4201.1923      1610.3497      1425.6166      1409.1556      2641.5798      0             -3866.0023      0              0             -134.48145      102421.96      46.787628      46.787628      46.787628      0.81901229     795.77589      111.95606      681.22297    
    487500   975000         396.34912     -116.67683      5723.1226      5900.2092      4252.0077      1648.2015      1437.6084      1424.1944      2603.986       0             -3817.5873      0              0             -132.35193      104069.91      47.037229      47.037229      47.037229      0.80604319    -130.32243     -372.64669      152.93863    
    488000   976000         398.03871     -126.82039      5673.0629      5867.3094      4270.1336      1597.1758      1398.6419      1408.2575      2592.2481      0             -3801.9717      0              0             -131.14969      105023.92      47.180521      47.180521      47.180521      0.79872134    -358.11059      361.97784     -384.32842    
    488500   977000         391.20907     -165.78692      5595.2272      5848.1211      4196.8657      1651.2554      1441.6646      1392.1631      2622.8647      0             -3805.4369      0              0             -131.68709      104595.32      47.116254      47.116254      47.116254      0.80199421     163.79604      283.55443     -944.71123    
    489000   978000         386.65622     -306.75994      5207.5979      5671.373       4148.0229      1523.3501      1380.6303      1396.4296      2589.1508      0             -3842.8607      0              0             -132.86866      103665.18      46.976174      46.976174      46.976174      0.80919012    -233.40811     -262.93868     -423.93302    
    489500   979000         391.97486     -184.22837      5527.9478      5806.9205      4205.081       1601.8395      1433.1352      1423.3476      2595.6401      0             -3850.2833      0              0             -132.65576      103831.56      47.001291      47.001291      47.001291      0.80789352    -243.33678      257.67755     -567.02587    
    490000   980000         393.23939      710.56331      6968.5275      5898.9796      4218.6468      1680.3328      1451.9665      1440.3968      2605.2356      0             -3817.2661      0              0             -133.45471      103209.95      46.90731       46.90731       46.90731       0.81275925     1327.0473      373.68478      430.95782    
    490500   981000         395.62395     -135.82075      5538.153       5743.5874      4244.2282      1499.3592      1426.0689      1363.9783      2549.2839      0             -3839.972       0              0             -132.80802      103712.52      46.983323      46.983323      46.983323      0.8088208     -229.13015      86.87667      -265.20876    
    491000   982000         387.29417      861.47628      7044.0231      5741.2209      4154.8668      1586.3541      1411.2242      1383.0294      2657.1531      0             -3865.0526      0              0             -132.83001      103695.35      46.98073       46.98073       46.98073       0.80895474     1126.6378      251.81486      1205.9762    
    491500   983000         396.47323     -136.46054      5681.3408      5886.489       4253.3392      1633.1498      1429.4702      1409.6927      2639.1726      0             -3845.1857      0              0             -133.61978      103082.45      46.887986      46.887986      46.887986      0.81376454    -415.41867      1140.9088     -1134.8718    
    492000   984000         397.55076      311.69212      6293.6134      5825.6897      4264.8988      1560.7909      1422.8182      1363.6789      2615.5221      0             -3841.2284      0              0             -133.80802      102937.44      46.865989      46.865989      46.865989      0.81491095     253.73949      791.08795     -109.75109    
    492500   985000         385.65671     -10.372378      5757.1743      5772.9885      4137.3002      1635.6883      1400.859       1385.8139      2648.2085      0             -3799.1931      0              0             -131.75348      104542.62      47.108339      47.108339      47.108339      0.80239854     164.75037      189.22884     -385.09634    
    493000   986000         387.18224     -518.92873      4973.3429      5762.425       4153.6661      1608.7589      1385.3193      1411.0682      2627.251       0             -3814.8796      0              0             -132.10428      104265.01      47.066604      47.066604      47.066604      0.80453494    -552.47652     -458.67351     -545.63617    
    493500   987000         380.32035     -398.47332      5057.9148      5664.7106      4080.0521      1584.6584      1394.1414      1391.2554      2632.432       0             -3833.1704      0              0             -131.91315      104416.08      47.089325      47.089325      47.089325      0.80337094     112.69105     -668.14163     -639.96937    
    494000   988000         392.41636      548.95996      6647.3194      5814.8369      4209.8174      1605.0196      1455.8713      1330.7878      2671.3938      0             -3853.0334      0              0             -132.46372      103982.09      47.023994      47.023994      47.023994      0.80672397     973.86261      708.01046     -34.993202    
    494500   989000         386.53834     -761.11981      4577.3845      5735.8932      4146.7583      1589.1349      1429.9481      1393.3699      2582.8666      0             -3817.0497      0              0             -131.97301      104368.72      47.082204      47.082204      47.082204      0.80373548    -571.97919     -1277.5206     -433.85967    
    495000   990000         382.16566     -150.85324      5582.1493      5810.888       4099.8485      1711.0395      1491.5487      1438.202       2594.1017      0             -3812.8128      0              0             -132.47877      103970.28      47.022213      47.022213      47.022213      0.80681562    -443.63297      164.89398     -173.82074    
    495500   991000         386.24556     -491.97617      5014.4124      5770.6557      4143.6174      1627.0383      1374.1175      1434.6706      2623.3072      0             -3805.0571      0              0             -130.68142      105400.25      47.236808      47.236808      47.236808      0.79586952    -217.59817     -607.7179      -650.61244    
    496000   992000         384.55256      299.42612      6238.9138      5780.1052      4125.455       1654.6502      1385.3491      1457.9789      2574.4485      0             -3763.1263      0              0             -131.096        105066.93      47.186961      47.186961      47.186961      0.79839436     517.61769     -230.10091      610.76157    
    496500   993000         394.84646      701.06748      6932.0515      5860.7775      4235.8873      1624.8902      1373.0901      1379.27        2658.357       0             -3785.8268      0              0             -131.45909      104776.73      47.143477      47.143477      47.143477      0.80060566     772.26012      1013.8967      317.04558    
    497000   994000         386.76453      142.25379      5935.9355      5717.4761      4149.1849      1568.2913      1365.4343      1396.2882      2595.023       0             -3788.4542      0              0             -130.80509      105300.6       47.221917      47.221917      47.221917      0.79662266     863.08121      348.53369     -784.85354    
    497500   995000         400.16866      376.71209      6469.3197      5894.4462      4292.9835      1601.4626      1386.6546      1362.5923      2682.5773      0             -3830.3615      0              0             -131.63416      104637.38      47.122568      47.122568      47.122568      0.80167186     130.66366      307.43556      692.03705    
    498000   996000         397.86389      432.47245      6583.0057      5926.8353      4268.2581      1658.5772      1426.8244      1446.5846      2643.7404      0             -3858.5722      0              0             -132.39549      104035.67      47.03207       47.03207       47.03207       0.80630847     463.88026      651.03533      182.50175    
    498500   997000         389.58694      565.0545       6696.1201      5848.7266      4179.4635      1669.2632      1413.7708      1385.4428      2726.4252      0             -3856.3757      0              0             -133.9481       102829.78      46.849645      46.849645      46.849645      0.81576411     842.97392      369.18045      483.00912    
    499000   998000         387.82302      223.21518      6133.0591      5795.3462      4160.5403      1634.8059      1442.0882      1366.6713      2681.7408      0             -3855.6944      0              0             -132.77228      103740.43      46.987537      46.987537      46.987537      0.80860318     249.54053      919.15061     -499.0456     
    499500   999000         383.67643     -82.574466      5521.4744      5647.298       4116.0559      1531.2421      1392.7073      1359.4148      2589.2912      0             -3810.1712      0              0             -131.8302       104481.78      47.099199      47.099199      47.099199      0.80286575    -149.96583      197.45077     -295.20834    
    500000   1000000        392.39222     -251.96441      5433.9167      5814.7843      4209.5584      1605.2259      1408.4745      1394.5613      2627.5316      0             -3825.3416      0              0             -132.89129      103647.53      46.973507      46.973507      46.973507      0.80932794    -54.375257     -814.98259      113.46461    
    500500   1001000        377.23489      235.94518      5880.8995      5527.2569      4046.9515      1480.3054      1366.2724      1346.8657      2627.4551      0             -3860.2878      0              0             -134.02255      102772.66      46.840968      46.840968      46.840968      0.8162175      235.38421      150.96433      321.48701    
    501000   1002000        392.21071     -418.40816      5147.0849      5782.8062      4207.6112      1575.195       1392.0357      1409.2538      2617.8889      0             -3843.9834      0              0             -132.21014      104181.52      47.054038      47.054038      47.054038      0.80517965    -771.28977      155.74055     -639.67526    
    501500   1003000        390.94726     -289.60391      5322.4594      5762.9249      4194.057       1568.8679      1408.7192      1383.3393      2588.3484      0             -3811.539       0              0             -132.07599      104287.34      47.069964      47.069964      47.069964      0.80436268     366.82038     -737.0832      -498.5489     
    502000   1004000        388.589       -209.78099      5464.4875      5780.4389      4168.7577      1611.6813      1391.7606      1433.5242      2637.7441      0             -3851.3477      0              0             -133.37584      103270.98      46.916554      46.916554      46.916554      0.81227894    -625.66615     -599.79231      596.11548    
    502500   1005000        380.42889      55.276313      5751.2407      5668.1673      4081.2166      1586.9507      1431.6775      1366.4333      2647.3749      0             -3858.5349      0              0             -133.66201      103049.88      46.883047      46.883047      46.883047      0.81402174    -275.7634      -208.60123      650.19357    
    503000   1006000        398.44156      562.41078      6672.3918      5823.288       4274.4553      1548.8327      1422.2268      1372.996       2590.4842      0             -3836.8743      0              0             -133.05286      103521.67      46.954486      46.954486      46.954486      0.81031191     459.98766      948.34902      278.89566    
    503500   1007000        373.92633      456.77073      6181.1057      5492.2868      4011.4576      1480.8292      1377.498       1374.6072      2570.9159      0             -3842.1919      0              0             -133.20624      103402.47      46.936456      46.936456      46.936456      0.81124606     768.89042      621.0628      -19.641036    
    504000   1008000        391.59239     -83.653843      5713.4634      5839.903       4200.9778      1638.9252      1442.6418      1436.133       2591.9578      0             -3831.8074      0              0             -132.90284      103638.52      46.972146      46.972146      46.972146      0.80939832     721.6632      -216.02901     -756.59572    
    504500   1009000        385.43151      589.08496      6613.9991      5741.3356      4134.8843      1606.4513      1421.2504      1434.9621      2682.0987      0             -3931.8598      0              0             -135.60088      101576.43      46.658523      46.658523      46.658523      0.82582979    -67.57215       1010.4318      824.39524    
    505000   1010000        393.9179      -184.87556      5452.3825      5730.6117      4225.9257      1504.686       1421.4351      1374.1193      2592.7706      0             -3883.639       0              0             -133.47753      103192.31      46.904636      46.904636      46.904636      0.81289823    -26.075322     -606.01384      77.462494    
    505500   1011000        391.88017     -390.42971      5147.5673      5736.1555      4204.0651      1532.0904      1387.2047      1395.4251      2594.9594      0             -3845.4988      0              0             -133.24861      103369.59      46.931481      46.931481      46.931481      0.81150409    -421.58012     -505.39665     -244.31237    
    506000   1012000        391.2219      -174.52337      5528.7959      5794.0827      4197.0033      1597.0794      1409.0134      1434.2957      2613.6757      0             -3859.9054      0              0             -132.1507       104228.39      47.061093      47.061093      47.061093      0.80481762    -237.85533     -91.535756     -194.17904    
    506500   1013000        382.41554     -266.23264      5232.4244      5633.4367      4102.5292      1530.9075      1399.9197      1386.5593      2626.0633      0             -3881.6349      0              0             -133.36291      103281         46.91807       46.91807       46.91807       0.81220018    -184.37234     -159.15145     -455.17413    
    507000   1014000        395.15752      601.11578      6738.177       5835.5014      4239.2244      1596.277       1413.784       1419.5389      2612.3803      0             -3849.4262      0              0             -133.76971      102966.91      46.870462      46.870462      46.870462      0.81467766     901.45994      266.8222       635.06519    
    507500   1015000        393.28888     -360.80903      5249.9632      5791.2417      4219.1776      1572.0641      1445.9122      1426.466       2573.9701      0             -3874.2842      0              0             -133.90227      102864.97      46.854989      46.854989      46.854989      0.815485      -121.45562     -523.9956      -436.97588    
    508000   1016000        388.96591     -1259.1908      3768.9927      5644.5579      4172.8011      1471.7568      1378.1863      1420.153       2601.3376      0             -3927.9202      0              0             -134.86235      102132.68      46.743538      46.743538      46.743538      0.82133204    -1278.0421     -1177.1323     -1322.398     
    508500   1017000        390.99344     -338.34294      5182.6461      5695.1335      4194.5524      1500.5811      1415.1553      1355.1624      2563.6896      0             -3833.4262      0              0             -132.61886      103860.44      47.00565       47.00565       47.00565       0.80766883    -818.42961     -91.495902     -105.10331    
    509000   1018000        392.99518     -427.01555      5166.9344      5805.9525      4216.0269      1589.9255      1470.8025      1418.2504      2595.2436      0             -3894.3709      0              0             -134.23381      102610.92      46.816383      46.816383      46.816383      0.81750408     113.67583     -286.83548     -1107.887     
    509500   1019000        385.85899     -94.156072      5521.4096      5663.3875      4139.4703      1523.9173      1327.3554      1473.9037      2584.0547      0             -3861.3965      0              0             -133.21673      103394.32      46.935224      46.935224      46.935224      0.81130996    -25.708785     -41.595377     -215.16405    
    510000   1020000        389.49506      461.27198      6374.8548      5689.0437      4178.4779      1510.5658      1374.3339      1397.0574      2630.8154      0             -3891.6409      0              0             -135.10889      101946.32      46.715089      46.715089      46.715089      0.82283347     45.360397      360.89811      977.55743    
    510500   1021000        390.08584      393.28738      6436.4606      5846.8454      4184.8157      1662.0297      1440.4979      1430.4845      2636.5981      0             -3845.5508      0              0             -133.9901       102797.55      46.84475       46.84475       46.84475       0.81601986     32.525515      662.64801      484.68863    
    511000   1022000        389.46279      376.10824      6335.45        5764.5954      4178.1316      1586.4637      1415.5448      1404.966       2587.818       0             -3821.8651      0              0             -132.3484       104072.69      47.037648      47.037648      47.037648      0.80602165     728.92541      253.98418      145.41513    
    511500   1023000        387.5409       322.30887      6261.8097      5775.8854      4157.5138      1618.3716      1396.49        1481.0644      2590.7029      0             -3849.8857      0              0             -133.2401       103376.19      46.932481      46.932481      46.932481      0.81145226     205.36176      408.02074      353.54411    
    512000   1024000        390.82885     -551.07665      4798.6977      5633.3527      4192.7867      1440.566       1389.4069      1371.386       2512.6054      0             -3832.8323      0              0             -132.62835      103853.02      47.004529      47.004529      47.004529      0.80772661    -984.95801      4.8643109     -673.13626    
    512500   1025000        383.26239     -239.06065      5189.4356      5553.2991      4111.6141      1441.685       1387.52        1364.8656      2506.3844      0             -3817.0849      0              0             -131.97783      104364.91      47.081631      47.081631      47.081631      0.80376482    -338.07916     -286.58925     -92.51355     
    513000   1026000        389.20521      185.73761      5995.1177      5716.3488      4175.3683      1540.9805      1426.2148      1422.5582      2539.0431      0             -3846.8356      0              0             -133.84029      102912.62      46.862221      46.862221      46.862221      0.81510749     105.54353      617.77656     -166.10725    
    513500   1027000        388.26944      581.15724      6577.5471      5704.6519      4165.3295      1539.3224      1450.0259      1399.1218      2587.4676      0             -3897.2929      0              0             -133.74049      102989.41      46.873875      46.873875      46.873875      0.81449969     225.76376      1000.2179      517.49001    
    514000   1028000        386.53711      844.16073      6950.0232      5694.0702      4146.7452      1547.3251      1437.8253      1417.1154      2613.4037      0             -3921.0193      0              0             -135.01534      102016.95      46.725876      46.725876      46.725876      0.82226376     666.17658      1043.5877      822.71794    
    514500   1029000        388.62332     -573.10725      4804.5251      5657.904       4169.1259      1488.7781      1402.2413      1410.4482      2612.0903      0             -3936.0016      0              0             -134.90416      102101.03      46.738709      46.738709      46.738709      0.82158665    -1025.6266     -539.33399     -154.36112    
    515000   1030000        386.76454     -533.56711      4802.6468      5608.2776      4149.185       1459.0926      1400.6183      1386.8893      2542.9864      0             -3871.4014      0              0             -133.04065      103531.17      46.955921      46.955921      46.955921      0.81023761    -717.30977      179.94073     -1063.3323    
    515500   1031000        386.96201     -702.74914      4749.512       5809.0467      4151.3034      1657.7433      1479.5114      1406.1581      2644.9831      0             -3872.9093      0              0             -133.23444      103380.58      46.933145      46.933145      46.933145      0.81141781    -452.61329     -1064.8332     -590.8009     
    516000   1032000        394.23455     -572.50532      4895.7432      5759.7567      4229.3228      1530.4339      1424.8959      1373.8078      2598.9922      0             -3867.262       0              0             -133.10378      103482.07      46.948497      46.948497      46.948497      0.81062204    -1560.3962      278.94302     -436.06282    
    516500   1033000        396.97061     -265.32756      5503.4298      5905.2154      4258.675       1646.5404      1440.1431      1440.6506      2597.7874      0             -3832.0406      0              0             -132.65369      103833.17      47.001535      47.001535      47.001535      0.80788095    -377.98149     -439.52111      21.5199      
    517000   1034000        390.30569      42.546404      5885.4762      5821.187       4187.1742      1634.0128      1442.6827      1444.9791      2624.0302      0             -3877.6792      0              0             -132.9402       103609.4       46.967746      46.967746      46.967746      0.8096258     -236.58949      64.258114      299.97058    
    517500   1035000        391.39853      433.37752      6393.8805      5743.436       4198.8982      1544.5379      1370.1512      1461.7564      2593.8286      0             -3881.1984      0              0             -133.84049      102912.46      46.862197      46.862197      46.862197      0.81510875    -434.2246       1581.1692      153.18803    
    518000   1036000        380.07421     -347.29029      5123.6277      5648.6962      4077.4116      1571.2846      1410.0801      1437.5218      2557.6611      0             -3833.9784      0              0             -132.86421      103668.66      46.976698      46.976698      46.976698      0.80916303    -398.49595      62.079645     -705.45456    
    518500   1037000        394.18767      162.70936      6019.8512      5773.6208      4228.8198      1544.8009      1405.2471      1389.9678      2596.8534      0             -3847.2674      0              0             -132.7401       103765.58      46.991334      46.991334      46.991334      0.8084072      440.82076      32.228833      15.078471    
    519000   1038000        387.36878      91.630844      5797.9246      5659.2363      4155.6673      1503.569       1406.5008      1355.2111      2556.603       0             -3814.7459      0              0             -132.719        103782.08      46.993825      46.993825      46.993825      0.80827868     144.8743       362.88722     -232.869      
    519500   1039000        403.41715      82.023368      6045.7624      5920.902       4327.8331      1593.0689      1440.1028      1404.6447      2559.8937      0             -3811.5723      0              0             -131.96068      104378.47      47.08367       47.08367       47.08367       0.80366041    -435.98948      846.37242     -164.31283    
    520000   1040000        398.09418     -474.81722      5086.2785      5809.2805      4270.7287      1538.5519      1421.3632      1317.7324      2660.4872      0             -3861.0309      0              0             -131.92234      104408.81      47.088231      47.088231      47.088231      0.80342688    -509.16834     -282.77599     -632.50734    
    520500   1041000        396.79301     -1323.6978      3711.3539      5694.5762      4256.7697      1437.8065      1393.6462      1387.4312      2541.4273      0             -3884.6982      0              0             -134.07531      102732.22      46.834823      46.834823      46.834823      0.81653884    -1924.8863     -1166.8813     -879.32585    
    521000   1042000        381.47374     -571.64729      4766.179       5636.3436      4092.4256      1543.918       1388.9195      1394.629       2574.8691      0             -3814.4996      0              0             -131.96479      104375.22      47.083181      47.083181      47.083181      0.80368545    -629.50244     -842.59333     -242.84612    
    521500   1043000        378.17076     -153.68191      5309.0467      5538.0332      4056.9915      1481.0417      1385.1062      1416.6464      2566.7896      0             -3887.5005      0              0             -134.8169       102167.12      46.748791      46.748791      46.748791      0.8210552      15.616551     -578.23871      101.57643    
    522000   1044000        382.8798      -698.09569      4701.5716      5753.9044      4107.5098      1646.3946      1462.0328      1444.855       2590.6775      0             -3851.1707      0              0             -133.25798      103362.32      46.930382      46.930382      46.930382      0.81156114    -1641.9175      489.28474     -941.65431    
    522500   1045000        387.08774     -10.155254      5627.5692      5642.8265      4152.6523      1490.1743      1429.7189      1370.1172      2586.1516      0             -3895.8135      0              0             -133.70357      103017.85      46.878189      46.878189      46.878189      0.81427487     280.4568      -21.993493     -288.92907    
    523000   1046000        386.232        595.73134      6452.8674      5564.8238      4143.472       1421.3519      1387.7316      1377.4239      2528.3973      0             -3872.201       0              0             -134.75583      102213.42      46.755852      46.755852      46.755852      0.82068326    -424.98297      1461.1939      750.98308    
    523500   1047000        389.86691      303.00151      6219.7856      5765.4584      4182.467       1582.9914      1474.4841      1402.0697      2571.217       0             -3864.7793      0              0             -133.96997      102813         46.847096      46.847096      46.847096      0.81589728    -78.838632      341.42732      646.41584    
    524000   1048000        390.07819      565.21212      6669.8917      5816.9974      4184.7336      1632.2638      1482.6858      1394.5151      2612.0891      0             -3857.0262      0              0             -133.12132      103468.43      46.946435      46.946435      46.946435      0.81072887     758.25014      593.73957      343.64666    
    524500   1049000        382.09836      236.34851      6045.5608      5690.3588      4099.1265      1591.2323      1461.1459      1404.6234      2597.1144      0             -3871.6514      0              0             -133.66228      103049.67      46.883015      46.883015      46.883015      0.8140234     -305.72936      911.43974      103.33516    
    525000   1050000        390.00704      8.4350456      5710.1983      5697.6179      4183.9703      1513.6476      1410.7673      1405.5283      2592.0169      0             -3894.6649      0              0             -134.68743      102265.32      46.763765      46.763765      46.763765      0.82026674     238.44827     -719.31478      506.17165    
    525500   1051000        386.11185      248.52351      6054.0318      5676.5848      4142.183       1534.4018      1398.345       1382.0126      2596.7377      0             -3842.6936      0              0             -132.26436      104138.81      47.047608      47.047608      47.047608      0.80550988     100.01467      595.78252      49.77333     
    526000   1052000        384.48898      108.62244      5996.1486      5830.4348      4124.7729      1705.6619      1473.8746      1457.179       2581.6698      0             -3807.0614      0              0             -131.67167      104607.58      47.118094      47.118094      47.118094      0.80190026     158.97066      183.77517     -16.878502    
    526500   1053000        388.14468     -56.809358      5695.3428      5780.9767      4163.991       1616.9856      1455.0058      1425.6677      2581.2811      0             -3844.9689      0              0             -133.26182      103359.34      46.92993       46.92993       46.92993       0.81158455     563.65998      263.30994     -997.39799    
    527000   1054000        386.55542      77.147816      5882.5921      5767.0569      4146.9416      1620.1154      1453.3419      1447.2158      2572.9057      0             -3853.348       0              0             -134.13466      102686.77      46.827916      46.827916      46.827916      0.81690023     521.97846     -583.31378      292.77878    
    527500   1055000        396.61361     -159.54402      5624.8546      5863.86        4254.8451      1609.0148      1444.3577      1407.1373      2629.7821      0             -3872.2623      0              0             -134.09243      102719.1       46.83283       46.83283       46.83283       0.81664308     430.4065      -95.48378      -813.55477    
    528000   1056000        385.62267     -760.26183      4626.7365      5775.4245      4136.9351      1638.4894      1435.981       1414.9912      2618.3442      0             -3830.827       0              0             -132.95126      103600.78      46.966443      46.966443      46.966443      0.8096932     -1191.3324     -564.31729     -525.13576    
    528500   1057000        400.921        92.296631      6033.0069      5892.6147      4301.0545      1591.5602      1456.4717      1385.4783      2566.5228      0             -3816.9125      0              0             -132.06091      104299.25      47.071756      47.071756      47.071756      0.80427079     295.27617      47.710855     -66.097136    
    529000   1058000        381.47987      20.145253      5650.7623      5620.243       4092.4914      1527.7515      1427.6741      1366.7874      2546.7889      0             -3813.4989      0              0             -132.59575      103878.55      47.008381      47.008381      47.008381      0.80752805    -1179.9544      628.78637      611.60375    
    529500   1059000        389.82165      330.9608       6227.8629      5728.8334      4181.9814      1546.852       1409.3164      1427.5995      2574.7407      0             -3864.8047      0              0             -133.22376      103388.87      46.934399      46.934399      46.934399      0.81135275     752.61674      44.711016      195.55464    
    530000   1060000        395.91443     -95.815955      5585.4216      5728.881       4247.3444      1481.5366      1416.5077      1433.525       2491.6237      0             -3860.1198      0              0             -134.16528      102663.33      46.824352      46.824352      46.824352      0.81708675    -735.61245      9.2091336      438.95545    
    530500   1061000        399.99631     -161.52396      5590.7515      5833.5883      4291.1345      1542.4538      1451.364       1363.8851      2591.4101      0             -3864.2054      0              0             -133.61457      103086.47      46.888595      46.888595      46.888595      0.81373285    -471.2942       131.00243     -144.28011    
    531000   1062000        387.49349      414.59942      6317.5313      5693.6059      4157.0051      1536.6008      1430.3234      1393.7672      2560.4292      0             -3847.919       0              0             -133.48344      103187.74      46.903944      46.903944      46.903944      0.81293422     548.60502      654.9807       40.212547    
    531500   1063000        397.64454     -528.18419      4932.5347      5731.7249      4265.9049      1465.82        1413.8044      1390.1867      2525.4693      0             -3863.6403      0              0             -132.7598       103750.18      46.98901       46.98901       46.98901       0.80852718    -307.21493     -542.45562     -734.88203    
    532000   1064000        381.91254     -87.368911      5429.9949      5563.2119      4097.1331      1466.0788      1417.0067      1432.4182      2455.8432      0             -3839.1893      0              0             -131.74335      104550.66      47.109546      47.109546      47.109546      0.80233684     236.31473     -107.42619     -390.99527    
    532500   1065000        384.96656     -644.72799      4638.7596      5617.6394      4129.8964      1487.7431      1400.284       1424.3546      2469.6627      0             -3806.5583      0              0             -132.30569      104106.29      47.042709      47.042709      47.042709      0.80576154    -692.61631     -139.46028     -1102.1074    
    533000   1066000        398.42379      132.79865      6048.772       5847.2674      4274.2647      1573.0027      1436.6205      1432.5853      2570.7936      0             -3866.9967      0              0             -132.38539      104043.61      47.033267      47.033267      47.033267      0.80624692     144.5907      -104.49354      358.29877    
    533500   1067000        386.74767     -452.23272      4909.0494      5599.9037      4149.004       1450.8997      1406.4541      1356.8187      2522.1969      0             -3834.57        0              0             -131.49429      104748.69      47.139271      47.139271      47.139271      0.80082       -162.18398     -138.71457     -1055.7996    
    534000   1068000        392.59364      300.4526       6228.7854      5774.7845      4211.7192      1563.0653      1409.5744      1412.985       2615.4866      0             -3874.9808      0              0             -132.93846      103610.76      46.967951      46.967951      46.967951      0.80961521    -141.78347      35.095551      1008.0457    
    534500   1069000        395.36522      96.549387      5805.7859      5659.8985      4241.4525      1418.446       1350.1521      1374.4162      2572.636       0             -3878.7583      0              0             -132.94222      103607.82      46.967507      46.967507      46.967507      0.80963815     377.16376     -567.7992       480.2836     
    535000   1070000        393.29497      654.30896      6775.9694      5792.9454      4219.243       1573.7024      1408.4981      1399.3308      2634.2072      0             -3868.3336      0              0             -133.70576      103016.16      46.877933      46.877933      46.877933      0.81428818     443.11039      741.53022      778.28626    
    535500   1071000        386.77618     -75.079686      5495.8174      5608.0221      4149.3099      1458.7122      1396.4568      1398.8588      2555.2257      0             -3891.8291      0              0             -134.41352      102473.73      46.795509      46.795509      46.795509      0.81859856    -491.4876       78.112049      188.13649    
    536000   1072000        393.22306     -426.83525      5156.6506      5810.9612      4218.4716      1592.4897      1410.3723      1447.3905      2504.6598      0             -3769.9329      0              0             -131.04115      105110.91      47.193544      47.193544      47.193544      0.79806031     363.71405     -743.25986     -900.95994    
    536500   1073000        401.76758      818.08599      7126.315       5891.7731      4310.1367      1581.6364      1394.5846      1421.5315      2632.4974      0             -3866.9771      0              0             -133.11423      103473.94      46.947268      46.947268      46.947268      0.8106857      1073.675       1367.8463      12.736664    
    537000   1074000        391.43032     -22.591443      5706.2682      5740.7266      4199.2392      1541.4874      1436.9553      1397.7024      2530.6505      0             -3823.8207      0              0             -131.69858      104586.2       47.114884      47.114884      47.114884      0.80206415    -808.4167       124.57279      616.06959    
    537500   1075000        384.99138      309.48325      6079.7109      5611.6035      4130.1627      1481.4408      1404.5591      1408.6647      2537.9062      0             -3869.6893      0              0             -132.80763      103712.83      46.983369      46.983369      46.983369      0.80881842    -141.71999      201.15108      869.01865    
    538000   1076000        391.27824     -216.54768      5475.9397      5802.6533      4197.6076      1605.0457      1473.773       1439.6305      2532.3216      0             -3840.6795      0              0             -133.14281      103451.73      46.94391       46.94391       46.94391       0.81085972    -411.16448     -399.76134      161.28279    
    538500   1077000        405.96055      349.15259      6400.6082      5870.1537      4355.1185      1515.0351      1447.0942      1381.9395      2527.8677      0             -3841.8663      0              0             -132.2204       104173.44      47.052821      47.052821      47.052821      0.80524216     574.19839     -206.10832      679.36769    
    539000   1078000        391.37355      363.51402      6298.7213      5748.5483      4198.6301      1549.9182      1428.0894      1373.3014      2589.2897      0             -3840.7624      0              0             -132.72516      103777.26      46.993097      46.993097      46.993097      0.80831622     383.07163      657.54825      49.922193    
    539500   1079000        385.36427      67.999468      5943.6192      5839.2154      4134.163       1705.0524      1473.12        1397.8689      2619.9512      0             -3785.8877      0              0             -130.83397      105277.35      47.218442      47.218442      47.218442      0.79679858     82.326775      111.00962      10.662014    
    540000   1080000        391.39093     -939.63173      4293.3112      5722.7481      4198.8166      1523.9315      1412.9693      1385.4786      2563.3942      0             -3837.9107      0              0             -132.04564      104311.32      47.073571      47.073571      47.073571      0.80417779    -997.53999     -1340.1997     -481.15552    
    540500   1081000        394.69242      53.391231      5913.1508      5831.7756      4234.2348      1597.5409      1401.5232      1400.783       2620.6576      0             -3825.4228      0              0             -131.79813      104507.21      47.103019      47.103019      47.103019      0.80267042    -201.8274       179.94425      182.05685    
    541000   1082000        389.97406     -350.26969      5182.151       5718.807       4183.6165      1535.1905      1332.2837      1419.6772      2611.3222      0             -3828.0926      0              0             -131.11063      105055.2       47.185206      47.185206      47.185206      0.79848347    -114.78771     -65.165996     -870.85536    
    541500   1083000        380.08261     -802.0519       4417.3124      5627.5051      4077.5016      1550.0035      1370.7012      1424.2338      2604.2052      0             -3849.1368      0              0             -133.13104      103460.88      46.945293      46.945293      46.945293      0.81078804    -1720.296      -149.69519     -536.16455    
    542000   1084000        389.70651      100.79905      5870.7409      5718.1345      4180.7463      1537.3883      1413.2841      1404.1481      2562.3233      0             -3842.3672      0              0             -132.68295      103810.28      46.99808       46.99808       46.99808       0.80805913    -553.31175      419.89172      435.81716    
    542500   1085000        393.68223     -38.136184      5687.0109      5745.2482      4223.3976      1521.8507      1383.271       1336.0993      2611.265       0             -3808.7846      0              0             -131.54269      104710.14      47.133488      47.133488      47.133488      0.8011148     -273.3715       865.75123     -706.78828    
    543000   1086000        391.13017     -192.45663      5667.9977      5958.8867      4196.0192      1762.8675      1471.2185      1402.9467      2706.9144      0             -3818.212       0              0             -132.90365      103637.89      46.972051      46.972051      46.972051      0.80940322    -736.30643     -403.87668      562.81323    
    543500   1087000        388.46433      150.95659      5949.5044      5719.379       4167.4203      1551.9588      1393.9149      1402.7323      2589.9817      0             -3834.6701      0              0             -131.77072      104528.95      47.106285      47.106285      47.106285      0.80250349     717.25084     -811.25194      546.87089    
    544000   1088000        387.04534      528.32231      6622.4081      5823.1614      4152.1974      1670.9641      1428.1064      1405.8926      2660.4317      0             -3823.4666      0              0             -132.78515      103730.38      46.98602       46.98602       46.98602       0.80868154     888.12561      673.19362      23.647691    
    544500   1089000        384.18522      312.67362      6152.4185      5679.6367      4121.5142      1558.1225      1413.9333      1415.172       2564.9034      0             -3835.8863      0              0             -132.85008      103679.68      46.978363      46.978363      46.978363      0.80907699    -136.77515     -19.099856      1093.8959    
    545000   1090000        392.70768     -49.300078      5760.4463      5834.8854      4212.9426      1621.9428      1422.7097      1443.4559      2592.0822      0             -3836.3051      0              0             -133.03857      103532.78      46.956166      46.956166      46.956166      0.81022493    -62.72387      -283.08268      197.90632    
    545500   1091000        396.32738     -510.91931      5108.3819      5885.4647      4251.7745      1633.6902      1437.9786      1419.3017      2614.5007      0             -3838.0907      0              0             -132.07372      104289.14      47.070234      47.070234      47.070234      0.80434881    -457.21648     -359.96309     -715.57838    
    546000   1092000        383.235        129.00125      6026.9635      5831.1622      4111.3204      1719.8419      1466.0761      1453.532       2625.5334      0             -3825.2996      0              0             -132.34568      104074.83      47.03797       47.03797       47.03797       0.80600508     948.45943      59.086682     -620.54237    
    546500   1093000        383.86382      210.43638      5979.8506      5660.1076      4118.0663      1542.0413      1368.8387      1429.7297      2580.2499      0             -3836.7769      0              0             -132.20598      104184.8       47.054532      47.054532      47.054532      0.80515433    -19.618458      574.03595      76.891659    
    547000   1094000        392.75842      79.296008      5834.7948      5716.0717      4213.487       1502.5847      1418.9043      1397.1926      2575.1968      0             -3888.709       0              0             -134.16755      102661.59      46.824089      46.824089      46.824089      0.81710054     281.86594     -448.1806       404.20268    
    547500   1095000        384.5723       335.27956      6100.0698      5597.09        4125.6668      1471.4232      1414.0167      1398.7309      2539.5029      0             -3880.8273      0              0             -133.90225      102864.99      46.854992      46.854992      46.854992      0.81548486    -54.847488      404.0377       656.64848    
    548000   1096000        381.05958      406.22101      6275.4695      5659.0141      4087.9825      1571.0316      1425.223       1385.909       2599.8373      0             -3839.9378      0              0             -132.37077      104055.1       47.034998      47.034998      47.034998      0.8061579      286.22256      699.90725      232.53323    
    548500   1097000        382.24306     -694.49224      4558.8858      5613.3292      4100.6788      1512.6504      1393.608       1341.1478      2592.7885      0             -3814.8939      0              0             -132.30477      104107.01      47.042818      47.042818      47.042818      0.80575594     321.12244     -1233.015      -1171.5842    
    549000   1098000        388.5845       138.11343      6037.0382      5829.3264      4168.7094      1660.617       1453.3532      1432.2932      2639.1641      0             -3864.1935      0              0             -133.56914      103121.53      46.89391       46.89391       46.89391       0.81345618     34.501381      411.44356     -31.604664    
    549500   1099000        385.95254     -649.0719       4770.78        5755.2053      4140.4739      1614.7314      1410.5359      1415.7689      2633.392       0             -3844.9653      0              0             -132.44677      103995.39      47.025999      47.025999      47.025999      0.80662077    -873.29616     -633.56679     -440.35273    
    550000   1100000        383.92948     -19.806976      5666.8567      5696.9581      4118.7707      1578.1874      1397.1102      1415.8788      2598.1545      0             -3832.956       0              0             -132.1793       104205.83      47.057698      47.057698      47.057698      0.80499183     595.23924     -288.93554     -365.72463    
    550500   1101000        390.5841       410.26598      6446.0003      5826.753       4190.161       1636.592       1463.2395      1422.6102      2575.606       0             -3824.8636      0              0             -133.0861       103495.81      46.950576      46.950576      46.950576      0.8105144      355.07055      574.6476       301.07979    
    551000   1102000        385.959        318.01265      6188.611       5703.019       4140.5432      1562.4758      1355.765       1376.5862      2632.1186      0             -3801.9941      0              0             -131.55407      104701.08      47.132129      47.132129      47.132129      0.80118409     594.01018     -252.58602      612.61379    
    551500   1103000        386.89793     -883.51028      4361.9232      5702.3381      4150.616       1551.7221      1394.1385      1410.6872      2575.9631      0             -3829.0668      0              0             -132.40481      104028.35      47.030967      47.030967      47.030967      0.80636519    -1016.7949     -737.59191     -896.14403    
    552000   1104000        390.25512     -665.54132      4722.4656      5729.0829      4186.6317      1542.4511      1385.8297      1372.0249      2639.5524      0             -3854.9558      0              0             -132.81344      103708.28      46.982683      46.982683      46.982683      0.80885385    -697.10999     -762.72184     -536.79213    
    552500   1105000        383.07045     -317.0585       5212.363       5690.3137      4109.555       1580.7587      1372.4349      1403.0413      2645.198       0             -3839.9155      0              0             -133.25627      103363.64      46.930582      46.930582      46.930582      0.81155076     451.58292     -1140.4927     -262.26576    
    553000   1106000        397.50628      384.30812      6365.975       5782.4065      4264.4217      1517.9848      1395.2908      1375.1763      2556.1162      0             -3808.5986      0              0             -132.28758      104120.54      47.044855      47.044855      47.044855      0.80565129     177.62596      462.31242      512.986      
    553500   1107000        386.41659     -224.94057      5472.8867      5812.24        4145.4522      1666.7879      1417.2504      1439.4452      2662.199       0             -3852.1067      0              0             -133.15182      103444.73      46.942851      46.942851      46.942851      0.8109146     -237.01851     -148.57231     -289.23091    
    554000   1108000        388.80289     -439.16852      5053.1262      5711.5327      4171.0522      1540.4805      1378.4554      1391.4514      2631.865       0             -3861.2914      0              0             -133.98878      102798.56      46.844903      46.844903      46.844903      0.81601183    -268.02441      50.770479     -1100.2516    
    554500   1109000        391.85819     -383.28825      5294.0396      5877.3925      4203.8293      1673.5632      1425.1351      1391.2296      2665.3049      0             -3808.1063      0              0             -131.98528      104359.01      47.080745      47.080745      47.080745      0.80381024     202.08579     -1233.4549     -118.49569    
    555000   1110000        393.98895      93.372143      5906.333       5765.6584      4226.688       1538.9704      1382.6599      1379.5629      2614.2497      0             -3837.5022      0              0             -133.33158      103305.26      46.921745      46.921745      46.921745      0.81200938     129.3954      -76.424393      227.14542    
    555500   1111000        388.38331      429.33643      6483.1024      5833.6935      4166.5511      1667.1425      1369.1868      1441.1652      2679.5507      0             -3822.7602      0              0             -132.80393      103715.71      46.983805      46.983805      46.983805      0.8087959      375.14141      330.53043      582.33746    
    556000   1112000        379.99302      301.13384      6164.9846      5709.3768      4076.5406      1632.8362      1406.2179      1423.6007      2621.0693      0             -3818.0517      0              0             -132.76993      103742.27      46.987815      46.987815      46.987815      0.80858886     1441.1286     -338.91827     -198.80878    
    556500   1113000        384.32696      296.72303      6168.3913      5720.7122      4123.0348      1597.6774      1402.5807      1423.3093      2630.2482      0             -3858.4609      0              0             -133.14222      103452.19      46.943979      46.943979      46.943979      0.81085615    -208.51299      229.03538      869.64671    
    557000   1114000        392.89712      84.127257      6055.1594      5927.3807      4214.9749      1712.4058      1413.9686      1404.38        2694.3178      0             -3800.2606      0              0             -132.25425      104146.78      47.048807      47.048807      47.048807      0.80544826     416.21516     -170.91508      7.0816858    
    557500   1115000        390.9483       38.777661      5779.2895      5721.0277      4194.0681      1526.9596      1365.4767      1374.3053      2665.0535      0             -3877.876       0              0             -133.69927      103021.16      46.878691      46.878691      46.878691      0.81424869    -23.051663      276.71549     -137.33084    
    558000   1116000        388.02872      566.71554      6637.2574      5771.4794      4162.747       1608.7324      1389.6608      1420.4204      2606.8293      0             -3808.1781      0              0             -131.48917      104752.77      47.139883      47.139883      47.139883      0.8007888      775.81434     -61.431258      985.76352    
    558500   1117000        392.3448      -8.5258382      5827.7689      5840.7865      4209.0497      1631.7368      1460.8185      1368.6773      2610.5176      0             -3808.2765      0              0             -131.5638       104693.34      47.130967      47.130967      47.130967      0.80124337    -800.02828      381.83771      392.61306    
    559000   1118000        377.74197      270.85358      6097.842       5682.175       4052.3914      1629.7836      1394.0364      1408.2113      2594.6323      0             -3767.0965      0              0             -130.89418      105228.93      47.211201      47.211201      47.211201      0.79716526     191.77877      711.76032     -90.978345    
    559500   1119000        385.67692      418.05102      6389.332       5749.785       4137.5171      1612.2679      1403.3549      1390.6798      2606.0279      0             -3787.7947      0              0             -131.30708      104898.03      47.161663      47.161663      47.161663      0.7996799     -171.80001      687.1926       738.76048    
    560000   1120000        389.16864     -516.51059      5031.3536      5824.8619      4174.976       1649.8859      1438.5814      1362.8615      2623.9572      0             -3775.5141      0              0             -130.75524      105340.74      47.227917      47.227917      47.227917      0.79631909    -768.02555     -318.46423     -463.04198    
    560500   1121000        394.24701     -267.92972      5426.0596      5833.2209      4229.4564      1603.7645      1425.747       1432.0573      2556.7157      0             -3810.7556      0              0             -132.1861       104200.47      47.056891      47.056891      47.056891      0.80503322    -5.385007       133.69551     -932.09966    
    561000   1122000        387.72636      653.32682      6676.8785      5683.3769      4159.5034      1523.8735      1395.4849      1399.8277      2545.6378      0             -3817.0769      0              0             -132.0971       104270.68      47.067457      47.067457      47.067457      0.80449121     935.40786      148.02426      876.54833    
    561500   1123000        380.95619     -673.34445      4604.2371      5618.7803      4086.8734      1531.907       1386.5626      1388.7376      2590.491       0             -3833.8841      0              0             -133.32086      103313.57      46.923002      46.923002      46.923002      0.81194408    -439.4522      -888.33753     -692.24363    
    562000   1124000        385.41257      164.06462      6044.9652      5797.0097      4134.6811      1662.3286      1438.8015      1420.0864      2666.478       0             -3863.0373      0              0             -132.91454      103629.4       46.970768      46.970768      46.970768      0.80946952     376.78672      201.09236     -85.685237    
    562500   1125000        391.94815      111.78383      5961.3713      5792.2222      4204.7944      1587.4278      1421.3059      1412.0765      2580.0126      0             -3825.9671      0              0             -132.75192      103756.34      46.989939      46.989939      46.989939      0.80847919     261.31852      163.14246     -89.109498    
    563000   1126000        386.72664      786.18999      6876.1841      5684.3952      4148.7784      1535.6169      1416.7611      1421.5176      2524.6314      0             -3827.2932      0              0             -132.51332      103943.16      47.018126      47.018126      47.018126      0.80702607     189.94549      593.24768      1575.3768    
    563500   1127000        385.19241     -356.23434      5150.0259      5696.6586      4132.3193      1564.3393      1402.7609      1325.9297      2596.5331      0             -3760.8845      0              0             -130.90961      105216.52      47.209346      47.209346      47.209346      0.79725923    -53.741267     -195.72398     -819.23778    
    564000   1128000        399.37633     -40.103958      5854.7887      5915.2431      4284.4834      1630.7597      1413.7515      1428.695       2623.2571      0             -3834.9439      0              0             -133.25713      103362.98      46.930482      46.930482      46.930482      0.81155595    -599.5757       495.1239      -15.860072    
    564500   1129000        384.94542     -170.39216      5504.1625      5762.4968      4129.6696      1632.8272      1407.6155      1408.0123      2626.7285      0             -3809.5291      0              0             -132.4948       103957.7       47.020317      47.020317      47.020317      0.80691325    -269.49276      87.851661     -329.53537    
    565000   1130000        387.15309     -228.86651      5333.5944      5683.9604      4153.3534      1530.607       1352.6207      1374.5337      2604.8503      0             -3801.3977      0              0             -131.2175       104969.64      47.172393      47.172393      47.172393      0.79913431    -166.98357     -498.43715     -21.178815    
    565500   1131000        399.69002      593.91516      6936.7727      6029.5442      4287.8487      1741.6955      1428.3551      1394.6077      2680.1902      0             -3761.4575      0              0             -131.50405      104740.91      47.138105      47.138105      47.138105      0.80087943     1569.1943     -52.275026      264.82616    
    566000   1132000        392.47314      344.48869      6374.1944      5846.3467      4210.4265      1635.9202      1415.0116      1394.4257      2631.3131      0             -3804.8302      0              0             -131.09849      105064.94      47.186663      47.186663      47.186663      0.7984095      0.64347822     892.16186      140.66073    
    566500   1133000        390.10388     -281.71321      5418.517       5848.3077      4185.0093      1663.2984      1463.6137      1373.5291      2648.0734      0             -3821.9178      0              0             -131.66841      104610.16      47.118483      47.118483      47.118483      0.80188043    -405.58071      246.65854     -686.21744    
    567000   1134000        384.82194      120.64747      5884.2248      5699.8214      4128.3449      1571.4765      1417.1441      1380.5832      2567.1605      0             -3793.4113      0              0             -131.42583      104803.25      47.147454      47.147454      47.147454      0.80040311     97.362262      41.238164      223.342      
    567500   1135000        390.1415      -205.84931      5502.8169      5816.0723      4185.4128      1630.6595      1410.9058      1397.5802      2635.2428      0             -3813.0692      0              0             -132.00252      104345.39      47.078695      47.078695      47.078695      0.8039152     -1025.6205      118.71905      289.35358    
    568000   1136000        389.13593      104.02881      5878.0162      5721.0557      4174.6251      1546.4306      1424.2187      1358.1757      2604.1106      0             -3840.0744      0              0             -133.13571      103457.25      46.944743      46.944743      46.944743      0.81081652     1149.473       227.60321     -1064.9898    
    568500   1137000        407.64317      718.47094      7171.6425      6084.3315      4373.1695      1711.1619      1413.8235      1495.9617      2625.0895      0             -3823.7129      0              0             -132.73541      103769.25      46.991888      46.991888      46.991888      0.80837861     650.10928      102.65054      1402.653     
    569000   1138000        385.75211     -25.162343      5578.5679      5617.0691      4138.3237      1478.7454      1377.6712      1318.58        2594.0986      0             -3811.6044      0              0             -131.28292      104917.33      47.164556      47.164556      47.164556      0.79953275    -900.87912      313.73211      511.65998    
    569500   1139000        394.74822      622.25972      6794.2886      5841.3021      4234.8334      1606.4687      1426.8254      1426.4178      2575.2002      0             -3821.9746      0              0             -131.1645       105012.06      47.178746      47.178746      47.178746      0.79881154     703.26752      218.94071      944.57094    
    570000   1140000        385.32064     -257.75046      5325.2773      5717.8305      4133.6949      1584.1357      1389.0617      1372.2337      2637.1112      0             -3814.2709      0              0             -131.89617      104429.52      47.091345      47.091345      47.091345      0.80326753    -171.42845      167.03225     -768.85518    
    570500   1141000        396.83657     -4.2026184      5801.8917      5808.2348      4257.2371      1550.9977      1397.8008      1423.922       2579.3599      0             -3850.085       0              0             -133.09049      103492.4       46.95006       46.95006       46.95006       0.81054111    -159.76261      147.68055     -0.52579162   
    571000   1142000        397.64131     -654.75239      4766.1154      5754.9257      4265.8703      1489.0555      1386.8821      1344.6682      2623.0474      0             -3865.5423      0              0             -133.01342      103552.36      46.959126      46.959126      46.959126      0.81007174    -1060.9364     -538.57018     -364.75058    
    571500   1143000        391.35954      136.80834      5991.1368      5786.0221      4198.4798      1587.5422      1401.2213      1404.1915      2628.3207      0             -3846.1913      0              0             -133.98218      102803.62      46.845672      46.845672      46.845672      0.81597167    -95.15357       314.04866      191.52994    
    572000   1144000        391.59027     -279.32385      5290.2874      5715.5465      4200.9552      1514.5913      1388.3105      1379.9         2564.0857      0             -3817.7048      0              0             -131.94284      104392.59      47.085793      47.085793      47.085793      0.80355173    -339.13262     -103.99729     -394.84165    
    572500   1145000        385.21831      488.43822      6501.2578      5752.3103      4132.5972      1619.7131      1437.4215      1406.0663      2568.1171      0             -3791.8918      0              0             -131.00554      105139.48      47.19782       47.19782       47.19782       0.79784344     719.14158      675.28467      70.888422    
    573000   1146000        390.76463      1039.2972      7424.398       5845.4491      4192.0976      1653.3515      1452.3169      1383.9572      2633.569       0             -3816.4916      0              0             -132.2218       104172.34      47.052656      47.052656      47.052656      0.80525063     760.22788      839.51419      1518.1495    
    573500   1147000        394.11929     -345.25105      5312.0587      5838.8509      4228.0862      1610.7647      1449.4904      1384.3605      2576.0069      0             -3799.0932      0              0             -131.65187      104623.31      47.120456      47.120456      47.120456      0.80177967    -652.4644      -0.69484324    -382.5939     
    574000   1148000        388.31168     -866.76567      4416.6769      5735.5488      4165.7826      1569.7663      1446.1839      1430.4189      2527.1843      0             -3834.0208      0              0             -132.01718      104333.8       47.076953      47.076953      47.076953      0.80400447    -1696.7349      284.52966     -1188.0918    
    574500   1149000        384.84338      34.201875      5702.4059      5649.8932      4128.5749      1521.3183      1392.1007      1431.3608      2506.3407      0             -3808.4839      0              0             -130.83289      105278.22      47.218572      47.218572      47.218572      0.79679199    -96.187863     -432.89021      631.6837     
    575000   1150000        411.85601      412.48217      6539.4398      5915.484       4418.3646      1497.1194      1405.7776      1397.1926      2537.9387      0             -3843.7895      0              0             -132.79532      103722.44      46.984821      46.984821      46.984821      0.80874346     108.00999      595.12857      534.30794    
    575500   1151000        394.75898     -201.48909      5434.3859      5741.9341      4234.9488      1506.9853      1387.3625      1394.3042      2536.9333      0             -3811.6147      0              0             -131.60421      104661.2       47.126143      47.126143      47.126143      0.80148943    -241.3054       940.01        -1303.1719    
    576000   1152000        395.29526     -241.07416      5448.7279      5814.2962      4240.702       1573.5941      1416.7407      1396.7495      2585.8523      0             -3825.7484      0              0             -132.46879      103978.11      47.023394      47.023394      47.023394      0.80675485    -259.33142     -474.41325      10.522171    
    576500   1153000        384.8375       233.58904      6147.5437      5793.0047      4128.5119      1664.4929      1475.4219      1437.4793      2549.7551      0             -3798.1634      0              0             -132.34874      104072.42      47.037607      47.037607      47.037607      0.80602374    -138.03213      789.0912       49.708051    
    577000   1154000        391.27183     -196.43457      5377.884       5675.1295      4197.5389      1477.5906      1429.1347      1367.7028      2540.1632      0             -3859.41        0              0             -132.74985      103757.96      46.990184      46.990184      46.990184      0.80846657    -502.35599      113.94039     -200.88811    
    577500   1155000        393.67861     -68.384816      5608.7254      5712.3491      4223.3587      1488.9904      1446.4953      1359.1506      2528.7437      0             -3845.3993      0              0             -132.56589      103901.95      47.01191       47.01191       47.01191       0.80734621    -12.801113     -119.48292     -72.870412    
    578000   1156000        390.68142     -218.81885      5325.0271      5657.5848      4191.205       1466.3799      1421.4349      1368.5845      2502.3674      0             -3826.0069      0              0             -132.1749       104209.3       47.058219      47.058219      47.058219      0.80496505    -282.69105      112.34106     -486.10656    
    578500   1157000        386.20212     -130.56604      5566.8413      5764.4294      4143.1514      1621.278       1405.4821      1471.1362      2595.3958      0             -3850.736       0              0             -132.73968      103765.91      46.991384      46.991384      46.991384      0.80840464     783.32432     -285.98516     -889.03729    
    579000   1158000        378.31669     -253.1397       5169.1135      5551.8608      4058.557       1493.3038      1382.0645      1359.6456      2588.7494      0             -3837.1558      0              0             -132.85547      103675.47      46.977728      46.977728      46.977728      0.80910982    -428.27798     -510.92509      179.78398    
    579500   1159000        401.26698      5.2962638      5837.6485      5829.6351      4304.7662      1524.8689      1425.4207      1354.3809      2586.2635      0             -3841.1962      0              0             -132.76521      103745.96      46.988372      46.988372      46.988372      0.8085601      58.518116      47.616072     -90.245396    
    580000   1160000        382.17837      424.1344       6329.3123      5681.1133      4099.9849      1581.1284      1452.1776      1370.1632      2577.9277      0             -3819.14        0              0             -131.43968      104792.21      47.145799      47.145799      47.145799      0.8004874      618.41372      762.27829     -108.28881    
    580500   1161000        391.3026      -173.88188      5506.0486      5769.9617      4197.869       1572.0928      1385.0311      1409.1661      2575.782       0             -3797.8866      0              0             -132.35022      104071.26      47.037432      47.037432      47.037432      0.80603274    -566.75093     -392.92581      438.03109    
    581000   1162000        383.14403      278.72222      6124.9999      5703.6375      4110.3444      1593.2931      1430.4182      1398.2377      2600.2919      0             -3835.6547      0              0             -132.87617      103659.32      46.975289      46.975289      46.975289      0.80923588    -475.8731       356.9552       955.08457    
    581500   1163000        387.27077     -323.56199      5411.8068      5907.8945      4154.6158      1753.2787      1511.4976      1471.1989      2554.6683      0             -3784.0861      0              0             -131.01781      105129.63      47.196346      47.196346      47.196346      0.7979182     -267.81388     -164.28187     -538.59023    
    582000   1164000        381.36579     -750.13877      4603.9656      5741.3767      4091.2675      1650.1091      1443.9785      1422.8077      2617.5948      0             -3834.2718      0              0             -132.48159      103968.06      47.021879      47.021879      47.021879      0.80683282    -809.46098     -592.96378     -847.99154    
    582500   1165000        380.71238     -998.04102      4271.7302      5806.4119      4084.2579      1722.154       1465.9301      1442.6494      2578.0077      0             -3764.4332      0              0             -130.63558      105437.24      47.242333      47.242333      47.242333      0.79559031    -1768.9311     -761.27873     -463.91323    
    583000   1166000        388.2236       30.045111      5906.881       5861.007       4164.8377      1696.1693      1371.9611      1459.6247      2665.2967      0             -3800.7132      0              0             -131.56455      104692.74      47.130878      47.130878      47.130878      0.80124793     567.24987     -842.85582      365.74128    
    583500   1167000        378.6163       63.288704      5719.1372      5622.3629      4061.7712      1560.5917      1369.5032      1388.503       2588.8133      0             -3786.2278      0              0             -131.37043      104847.44      47.154081      47.154081      47.154081      0.8000657      28.636805     -44.58957       205.81888    
    584000   1168000        399.57646      732.6313       6964.5233      5854.6449      4286.6304      1568.0144      1413.7911      1409.5626      2559.5689      0             -3814.9082      0              0             -132.59935      103875.72      47.007955      47.007955      47.007955      0.80755002     672.20557      319.78278      1205.9055    
    584500   1169000        389.93674      1068.2459      7516.2997      5872.4183      4183.2161      1689.2021      1389.4886      1424.3304      2662.7784      0             -3787.3953      0              0             -130.53655      105517.22      47.254276      47.254276      47.254276      0.79498724     842.80466      967.70653      1394.2266    
    585000   1170000        382.08556     -740.99985      4554.8371      5687.3185      4098.9892      1588.3293      1386.8133      1407.078       2562.8575      0             -3768.4194      0              0             -131.43724      104794.15      47.14609       47.14609       47.14609       0.80047256    -1461.8864     -645.61146     -115.50167    
    585500   1171000        389.71357      247.73696      6150.5569      5770.7335      4180.822       1589.9116      1400.4243      1447.7242      2515.6717      0             -3773.9086      0              0             -131.02085      105127.19      47.195982      47.195982      47.195982      0.79793668     133.13474     -152.71062      762.78676    
    586000   1172000        390.19953      763.96454      7039.0491      5866.5547      4186.0353      1680.5194      1400.1156      1461.6213      2594.3856      0             -3775.6031      0              0             -130.88618      105235.36      47.212162      47.212162      47.212162      0.79711654     1046.9538      846.94613      397.99367    
    586500   1173000        392.81676      231.03082      6103.1637      5750.9331      4214.1128      1536.8203      1397.5514      1414.2252      2511.3782      0             -3786.3345      0              0             -131.75716      104539.7       47.107901      47.107901      47.107901      0.80242093     363.33373     -56.833         386.59174    
    587000   1174000        381.33169      118.59172      5885.9786      5704.825       4090.9017      1613.9232      1426.1666      1382.8205      2597.9732      0             -3793.037       0              0             -131.5039       104741.03      47.138123      47.138123      47.138123      0.80087852     573.9252       144.66197     -362.812      
    587500   1175000        394.17816     -3.2649341      5757.0484      5761.9999      4228.7179      1533.282       1378.4186      1395.3129      2562.5194      0             -3802.9689      0              0             -132.45541      103988.61      47.024977      47.024977      47.024977      0.80667336    -86.430621      241.68951     -165.05369    
    588000   1176000        404.26881     -512.90372      5193.278       5970.7277      4336.9697      1633.758       1470.5491      1398.2545      2592.5229      0             -3827.5685      0              0             -132.52412      103934.7       47.016849      47.016849      47.016849      0.80709183    -586.18878     -343.72096     -608.80143    
    588500   1177000        390.01696      38.81751       5871.4652      5812.4223      4184.0768      1628.3455      1435.7164      1387.7527      2644.778       0             -3839.9016      0              0             -132.06598      104295.25      47.071153      47.071153      47.071153      0.8043017      121.86484     -404.03745      398.62514    
    589000   1178000        389.59922      47.999929      5765.6044      5692.7868      4179.5953      1513.1915      1371.9059      1332.632       2627.9582      0             -3819.3046      0              0             -132.41454      104020.71      47.029815      47.029815      47.029815      0.80642446     443.50198      227.34027     -526.84246    
    589500   1179000        388.54466      145.63632      5975.0291      5753.2702      4168.282       1584.9882      1436.5354      1363.7252      2581.3035      0             -3796.576       0              0             -131.92281      104408.44      47.088176      47.088176      47.088176      0.80342974    -230.95708     -645.7217       1313.5877    
    590000   1180000        394.61505     -386.38415      5260.3393      5851.3105      4233.4047      1617.9058      1402.8904      1349.6797      2663.0404      0             -3797.7046      0              0             -131.33617      104874.8       47.158181      47.158181      47.158181      0.79985703    -244.78207     -33.702613     -880.66777    
    590500   1181000        393.12659      623.49852      6736.783       5795.7272      4217.4366      1578.2906      1421.91        1422.8876      2593.4043      0             -3859.9113      0              0             -133.09183      103491.36      46.949902      46.949902      46.949902      0.81054927     872.29784      129.85324      868.34448    
    591000   1182000        391.8394      -449.68364      5086.3323      5769.3378      4203.6278      1565.71        1410.9369      1336.7674      2661.468       0             -3843.4621      0              0             -132.25565      104145.68      47.048641      47.048641      47.048641      0.80545681    -236.0235      -157.03293     -955.9945     
    591500   1183000        384.32276     -954.08528      4332.5864      5782.1203      4122.9897      1659.1306      1381.7145      1445.7693      2669.2378      0             -3837.591       0              0             -132.21787      104175.43      47.053121      47.053121      47.053121      0.80522675    -1062.1451     -589.2304      -1210.8803    
    592000   1184000        387.68199     -604.43058      4660.5589      5564.842       4159.0273      1405.8147      1322.1155      1396.1723      2585.1892      0             -3897.6623      0              0             -134.26827      102584.58      46.812377      46.812377      46.812377      0.81771395    -255.97664     -721.99298     -835.32213    
    592500   1185000        391.72787     -180.09524      5474.7011      5745.661       4202.4313      1543.2297      1369.588       1438.5834      2597.2565      0             -3862.1981      0              0             -133.51454      103163.7       46.900302      46.900302      46.900302      0.81312365    -208.12853     -225.54653     -106.61065    
    593000   1186000        394.17357      881.77607      7095.0217      5776.6381      4228.6686      1547.9695      1413.4646      1433.766       2575.7374      0             -3874.9984      0              0             -134.35316      102519.76      46.802515      46.802515      46.802515      0.81823098     1095.3107      1029.8631      520.15443    
    593500   1187000        393.57232      226.59951      6135.6684      5794.2491      4222.2184      1572.0307      1398.3218      1429.7288      2608.4239      0             -3864.4438      0              0             -133.32214      103312.58      46.922852      46.922852      46.922852      0.81195189     323.37338      632.1477      -275.72254    
    594000   1188000        393.51579      217.72198      6025.6766      5697.5996      4221.612       1475.9876      1386.729       1397.6661      2595.9282      0             -3904.3356      0              0             -133.30848      103323.17      46.924455      46.924455      46.924455      0.81186869    -88.655653     -228.66964      970.49123    
    594500   1189000        395.37253     -224.47406      5558.0308      5900.1675      4241.531       1658.6365      1412.364       1419.5598      2607.9098      0             -3781.197       0              0             -131.79469      104509.93      47.103429      47.103429      47.103429      0.80264948    -595.4548      -294.69611      216.72874    
    595000   1190000        387.9293       153.71728      5909.3119      5677.231       4161.6805      1515.5505      1399.7693      1352.8384      2603.1687      0             -3840.2259      0              0             -133.04995      103523.93      46.954828      46.954828      46.954828      0.81029421     90.884997     -43.06481       413.33164    
    595500   1191000        384.49953      11.669845      5547.4762      5529.7143      4124.8861      1404.8282      1338.4065      1321.9186      2566.6554      0             -3822.1522      0              0             -131.97967      104363.45      47.081412      47.081412      47.081412      0.80377606     376.9375      -532.64027      190.71231    
    596000   1192000        396.60067     -170.6842       5545.793       5802.2972      4254.7064      1547.5908      1407.5847      1437.721       2569.8884      0             -3867.6033      0              0             -133.66884      103044.61      46.882249      46.882249      46.882249      0.81406334    -39.357787      190.47566     -663.17048    
    596500   1193000        385.89447     -52.424481      5636.1903      5715.9915      4139.851       1576.1405      1386.5981      1429.7087      2576.7765      0             -3816.9429      0              0             -131.96413      104375.74      47.08326       47.08326       47.08326       0.8036814      95.843379      35.291695     -288.40852    
    597000   1194000        387.71983     -167.21777      5477.1451      5729.9465      4159.4332      1570.5133      1423.5955      1420.142       2586.0125      0             -3859.2367      0              0             -132.87226      103662.37      46.975749      46.975749      46.975749      0.80921208    -397.93866      193.81071     -297.52537    
    597500   1195000        385.93224      875.30796      7023.4552      5709.2289      4140.2561      1568.9728      1445.0223      1380.1564      2613.2006      0             -3869.4065      0              0             -133.78951      102951.67      46.868149      46.868149      46.868149      0.81479825     1002.337       321.68016      1301.9068    
    598000   1196000        395.73139      113.37351      6006.5235      5833.4264      4245.3808      1588.0457      1425.6182      1441.1429      2570.8115      0             -3849.5269      0              0             -131.56892      104689.27      47.130356      47.130356      47.130356      0.80127453    -587.32152      821.76363      105.67841    
    598500   1197000        386.5815       407.82672      6289.4623      5677.4125      4147.2214      1530.1911      1396.8954      1384.2217      2587.2451      0             -3838.1711      0              0             -133.85058      102904.7       46.86102       46.86102       46.86102       0.81517017    -444.53267      962.64195      705.37087    
    599000   1198000        385.25945      106.39322      5854.1533      5692.5046      4133.0384      1559.4661      1421.2161      1404.3105      2562.8221      0             -3828.8825      0              0             -132.21268      104179.52      47.053737      47.053737      47.053737      0.80519514    -187.30682      651.9263      -145.43981    
    599500   1199000        395.06139     -510.35325      4991.4281      5772.1727      4238.1931      1533.9796      1374.531       1427.7226      2546.5531      0             -3814.8272      0              0             -131.30864      104896.78      47.161476      47.161476      47.161476      0.79968939    -163.45166     -636.86042     -730.74768    
    600000   1200000        391.10844     -448.75597      5042.2223      5721.1056      4195.786       1525.3195      1379.8854      1402.989       2613.9057      0             -3871.4607      0              0             -132.78422      103731.1       46.986129      46.986129      46.986129      0.8086759     -541.78043     -806.28382      1.7963392    
    600500   1201000        384.81133      265.65544      6129.928       5728.302       4128.231       1600.071       1426.3573      1380.7876      2650.2589      0             -3857.3328      0              0             -132.87042      103663.81      46.975966      46.975966      46.975966      0.80920086     474.99744      441.1335      -119.16462    
    601000   1202000        380.99101     -717.10178      4543.0385      5630.9942      4087.2469      1543.7473      1412.7884      1416.3617      2551.3688      0             -3836.7716      0              0             -132.40395      104029.03      47.031069      47.031069      47.031069      0.80635997    -931.58293     -888.78425     -330.93816    
    601500   1203000        388.24112     -22.575666      5667.1829      5701.2806      4165.0256      1536.2549      1355.1015      1422.9353      2634.4628      0             -3876.2447      0              0             -132.99883      103563.72      46.960843      46.960843      46.960843      0.8099829      275.63051     -146.64629     -196.71122    
    602000   1204000        398.83926      378.49878      6403.3686      5834.3702      4278.7218      1555.6484      1431.9619      1420.2182      2598.7383      0             -3895.2699      0              0             -133.6241       103079.12      46.88748       46.88748       46.88748       0.81379087     510.06307      551.74761      73.685672    
    602500   1205000        388.79915      657.6233       6724.9252      5736.6792      4171.0122      1565.6671      1441.8494      1366.4032      2619.2577      0             -3861.8432      0              0             -133.67294      103041.45      46.881769      46.881769      46.881769      0.81408832     817.18982      338.15704      817.52304    
    603000   1206000        392.13687      678.49169      6651.1069      5623.5428      4206.819       1416.7237      1354.39        1418.9159      2513.1884      0             -3869.7706      0              0             -132.63769      103845.7       47.003425      47.003425      47.003425      0.80778351     277.60529      579.17928      1178.6905    
    603500   1207000        387.36171      514.8165       6409.2613      5628.026       4155.5913      1472.4347      1393.4735      1395.4112      2538.4321      0             -3854.8821      0              0             -132.37379      104052.73      47.03464       47.03464       47.03464       0.80617628    -42.617572      708.75006      878.31702    
    604000   1208000        390.85367      231.189        6192.7484      5840.9819      4193.053       1647.9289      1417.7897      1447.1346      2571.4353      0             -3788.4307      0              0             -132.02132      104330.53      47.076461      47.076461      47.076461      0.80402969     78.513594      989.52582     -374.47241    
    604500   1209000        389.56605      121.47735      5936.6182      5751.9854      4179.2394      1572.746       1438.5183      1427.2517      2550.9442      0             -3843.9682      0              0             -132.16537      104216.82      47.059351      47.059351      47.059351      0.80490698    -275.7518       202.3856       437.79824    
    605000   1210000        393.27964      549.08765      6546.5499      5719.0864      4219.0786      1500.0079      1358.3854      1434.7662      2568.2619      0             -3861.4056      0              0             -133.29818      103331.14      46.925663      46.925663      46.925663      0.811806       532.81366      1089.8635      24.585843    
    605500   1211000        398.86167      38.041783      5980.2218      5922.1249      4278.9622      1643.1627      1395.2564      1449.428       2602.3304      0             -3803.8521      0              0             -131.53432      104716.8       47.134488      47.134488      47.134488      0.80106383     51.294271     -138.0906       200.92168    
    606000   1212000        389.87156      454.48149      6486.3849      5794.8411      4182.5169      1612.3242      1392.8317      1432.181       2613.5914      0             -3826.28        0              0             -132.01638      104334.43      47.077047      47.077047      47.077047      0.80399964    -154.98965      864.95915      653.47497    
    606500   1213000        386.08969     -531.40542      4853.0636      5663.5957      4141.9453      1521.6505      1381.4985      1358.3157      2616.4209      0             -3834.5847      0              0             -131.70041      104584.75      47.114666      47.114666      47.114666      0.80207531    -577.74463     -323.68994     -692.78169    
    607000   1214000        394.58792     -88.329504      5575.5959      5708.857       4233.1137      1475.7433      1351.7272      1388.6431      2573.2847      0             -3837.9118      0              0             -133.14779      103447.86      46.943324      46.943324      46.943324      0.81089007    -176.38282     -394.6723       306.06661    
    607500   1215000        388.50405      573.88836      6732.1673      5856.9872      4167.8464      1689.1408      1427.174       1421.5942      2646.0371      0             -3805.6644      0              0             -131.72292      104566.88      47.111983      47.111983      47.111983      0.80221238     330.04281      799.61923      592.00304    
    608000   1216000        387.09827      307.18059      6145.3632      5681.973       4152.7652      1529.2078      1409.6912      1387.5409      2582.7117      0             -3850.736       0              0             -133.16138      103437.3       46.941727      46.941727      46.941727      0.81097284     344.08496      365.43292      212.02391    
    608500   1217000        389.85599     -46.49211       5717.4735      5788.5521      4182.3498      1606.2023      1406.7085      1406.8864      2585.7435      0             -3793.136       0              0             -131.39278      104829.61      47.151407      47.151407      47.151407      0.80020183    -212.58978     -255.79696      328.9104     
    609000   1218000        380.75182     -246.58756      5197.4013      5574.2708      4084.6809      1489.5899      1357.0299      1370.9235      2596.6899      0             -3835.0534      0              0             -131.43516      104795.81      47.146339      47.146339      47.146339      0.80045989    -445.80974     -106.66471     -187.28821    
    609500   1219000        395.96038      225.55708      6136.8474      5794.5726      4247.8374      1546.7352      1349.6844      1414.4071      2622.1547      0             -3839.511       0              0             -132.3771       104050.13      47.034248      47.034248      47.034248      0.80619646     603.49748     -49.074372      122.24813    
    610000   1220000        387.66907      82.820259      5766.4903      5640.2259      4158.8888      1481.3372      1352.5923      1404.444       2533.3795      0             -3809.0787      0              0             -131.76103      104536.63      47.10744       47.10744       47.10744       0.80244447    -277.64835      173.87634      352.23278    
    610500   1221000        401.94557     -140.74253      5695.2915      5910.6225      4312.0461      1598.5764      1417.004       1376.9268      2601.6413      0             -3796.9957      0              0             -131.29561      104907.2       47.163037      47.163037      47.163037      0.79960999     79.099523      75.747608     -577.07473    
    611000   1222000        391.93837     -335.73037      5249.7028      5760.88        4204.6895      1556.1905      1356.9727      1387.5121      2630.2381      0             -3818.5323      0              0             -131.9321       104401.08      47.08707       47.08707       47.08707       0.80348635     312.93378     -699.70666     -620.41824    
    611500   1223000        384.47671      42.849411      5808.1515      5742.7928      4124.6413      1618.1515      1408.1338      1431.5274      2601.4532      0             -3822.9629      0              0             -131.69606      104588.2       47.115185      47.115185      47.115185      0.8020488     -124.89277     -278.24188      531.68289    
    612000   1224000        390.11673     -277.08281      5396.3748      5820.0435      4185.147       1634.8964      1433.8367      1449.7028      2541.7731      0             -3790.4162      0              0             -131.37558      104843.33      47.153465      47.153465      47.153465      0.80009706     65.206291     -499.5915      -396.86323    
    612500   1225000        384.95762      53.096347      5764.6952      5684.0716      4129.8005      1554.271       1390.86        1384.0473      2582.1607      0             -3802.797       0              0             -132.29198      104117.08      47.044334      47.044334      47.044334      0.80567806    -351.71182      200.93375      310.06711    
    613000   1226000        392.15541     -415.59441      5180.1998      5810.5828      4207.0179      1603.5649      1432.5861      1350.7967      2623.8086      0             -3803.6266      0              0             -132.43312      104006.12      47.027616      47.027616      47.027616      0.8065376     -812.28443     -210.51082     -223.98798    
    613500   1227000        388.97694      213.46447      6069.6654      5745.3387      4172.9195      1572.4192      1421.1042      1353.3394      2628.1699      0             -3830.1944      0              0             -132.21305      104179.23      47.053694      47.053694      47.053694      0.80519736     230.1737       972.67227     -562.45255    
    614000   1228000        391.66339     -80.200839      5685.4226      5807.9185      4201.7396      1606.1789      1442.6108      1363.641       2610.6908      0             -3810.7637      0              0             -131.51908      104728.94      47.136308      47.136308      47.136308      0.80097101    -264.98296     -15.309551      39.689991    
    614500   1229000        396.28405      181.75846      6069.9234      5793.8165      4251.3097      1542.5068      1394.6616      1380.5303      2595.5179      0             -3828.2031      0              0             -132.23569      104161.4       47.051008      47.051008      47.051008      0.80533523    -415.87085      994.72527     -33.579021    
    615000   1230000        394.93324      171.1142       6121.8109      5862.7622      4236.8183      1625.9439      1410.397       1407.4328      2626.2589      0             -3818.1448      0              0             -132.6893       103805.31      46.99733       46.99733       46.99733       0.80809783     501.86256     -647.24984      658.72988    
    615500   1231000        392.06691     -113.39416      5640.4616      5812.1937      4206.0685      1606.1252      1441.0022      1422.7497      2571.3633      0             -3828.99        0              0             -132.63878      103844.84      47.003296      47.003296      47.003296      0.80779016    -201.35665     -224.74015      85.914333    
    616000   1232000        385.12215     -772.62982      4519.2352      5682.9623      4131.5655      1551.3968      1393.9889      1471.8228      2556.0843      0             -3870.4991      0              0             -133.36801      103277.05      46.917472      46.917472      46.917472      0.81223124    -902.90995     -267.82808     -1147.1514    
    616500   1233000        394.91614     -469.58838      5090.2793      5798.3837      4236.6348      1561.7488      1396.1278      1432.8167      2604.347       0             -3871.5426      0              0             -133.21448      103396.07      46.935489      46.935489      46.935489      0.81129625    -201.96414     -243.63091     -963.17008    
    617000   1234000        387.56848      7.908414       5613.6819      5601.6931      4157.8096      1443.8835      1375.5698      1338.2703      2580.908       0             -3850.8647      0              0             -132.50888      103946.65      47.018651      47.018651      47.018651      0.80699903    -353.22826      46.230963      330.72254    
    617500   1235000        391.51168      407.48414      6270.2416      5652.2701      4200.112       1452.158       1402.6437      1355.8634      2514.7409      0             -3821.09        0              0             -132.4566       103987.67      47.024836      47.024836      47.024836      0.80668064     686.73436     -211.47545      747.19352    
    618000   1236000        392.96269     -69.941797      5613.6645      5718.8504      4215.6784      1503.1721      1416.2436      1384.7268      2557.391       0             -3855.1893      0              0             -133.57041      103120.55      46.893762      46.893762      46.893762      0.8134639     -573.98538      121.57915      242.58084    
    618500   1237000        379.99451     -484.43106      4888.372       5616.8342      4076.5565      1540.2776      1390.5599      1424.5461      2582.3237      0             -3857.1521      0              0             -133.58459      103109.6       46.892103      46.892103      46.892103      0.81355024    -428.47872     -259.68708     -765.12739    
    619000   1238000        387.4448      -235.45261      5322.8164      5680.5822      4156.4828      1524.0994      1338.5894      1402.0024      2584.4817      0             -3800.974       0              0             -132.20139      104188.42      47.055077      47.055077      47.055077      0.80512635    -176.38849     -669.55495      139.5856     
    619500   1239000        398.24523     -332.29221      5417.5241      5917.1806      4272.349       1644.8315      1462.2702      1424.274       2597.1681      0             -3838.8808      0              0             -133.59185      103104         46.891252      46.891252      46.891252      0.8135945     -317.78681     -129.74148     -549.34834    
    620000   1240000        388.80438     -106.37912      5504.8255      5667.1271      4171.0682      1496.0589      1442.8244      1362.199       2544.1924      0             -3853.157       0              0             -131.66341      104614.14      47.119079      47.119079      47.119079      0.80184999     637.56204     -588.80192     -367.89748    
    620500   1241000        396.39603     -239.25183      5434.8236      5797.4036      4252.511       1544.8926      1431.2158      1417.2313      2533.782       0             -3837.3365      0              0             -132.55095      103913.66      47.013676      47.013676      47.013676      0.80725521     262.87023     -577.6251      -403.00062    
    621000   1242000        380.42717     -195.21057      5276.5932      5572.4154      4081.1981      1491.2174      1423.0917      1389.0934      2550.9093      0             -3871.8771      0              0             -132.55737      103908.62      47.012917      47.012917      47.012917      0.80729436    -647.42147      51.619161      10.170592    
    621500   1243000        390.24246     -353.25362      5160.7134      5697.1718      4186.4959      1510.6759      1433.6718      1371.9158      2510.7625      0             -3805.6743      0              0             -132.27626      104129.45      47.046197      47.046197      47.046197      0.80558234    -384.55724     -132.79292     -542.41069    
    622000   1244000        389.23748     -372.7416       5218.2149      5783.2218      4175.7145      1607.5073      1445.0884      1405.5569      2597.2242      0             -3840.3623      0              0             -132.52124      103936.96      47.017189      47.017189      47.017189      0.80707427    -733.51415     -248.18738     -136.52328    
    622500   1245000        399.87687     -106.23084      5773.3584      5935.6766      4289.8533      1645.8234      1452.0866      1436.8052      2556.9841      0             -3800.0525      0              0             -131.46639      104770.92      47.142606      47.142606      47.142606      0.80065008     110.59857      246.67951     -675.97059    
    623000   1246000        399.69643     -265.4686       5521.5555      5922.5184      4287.9175      1634.6009      1437.7924      1418.4644      2642.7137      0             -3864.3696      0              0             -132.99652      103565.52      46.961115      46.961115      46.961115      0.80996881    -811.40261      34.492437     -19.495615    
    623500   1247000        390.24389     -62.76643       5688.5632      5783.205       4186.5113      1596.6937      1445.1587      1402.3401      2613.1466      0             -3863.9517      0              0             -133.22202      103390.22      46.934603      46.934603      46.934603      0.81134215     183.8952       100.64599     -472.84048    
    624000   1248000        397.08935     -593.74653      4989.2194      5885.2669      4259.9489      1625.318       1416.8085      1398.0314      2690.0294      0             -3879.5513      0              0             -133.10716      103479.44      46.9481        46.9481        46.9481        0.81064261    -431.07066     -665.2841      -684.88483    
    624500   1249000        393.7087       575.63424      6786.2904      5914.5263      4223.6815      1690.8448      1425.6532      1435.2914      2655.163       0             -3825.2627      0              0             -132.64137      103842.82      47.00299       47.00299       47.00299       0.80780592     614.08243      855.38417      257.43611    
    625000   1250000        386.43352      194.97625      6094.3198      5797.387       4145.6338      1651.7531      1517.8754      1377.9795      2579.8649      0             -3823.9667      0              0             -131.90304      104424.08      47.090528      47.090528      47.090528      0.80330936    -265.20615      1031.3411     -181.20626    
    625500   1251000        392.82234      8.3717132      5697.0564      5684.4007      4214.1727      1470.228       1458.8717      1323.0537      2544.8115      0             -3856.5089      0              0             -132.8794       103656.81      46.974908      46.974908      46.974908      0.80925552    -673.5026       254.75359      443.86415    
    626000   1252000        396.22999     -925.65979      4456.4739      5850.9964      4250.7297      1600.2667      1484.0056      1387.2847      2581.8961      0             -3852.9197      0              0             -133.33901      103299.5       46.920872      46.920872      46.920872      0.81205466    -592.94173     -313.82354     -1870.2141    
    626500   1253000        390.53389      362.8052       6315.5764      5772.3994      4189.6224      1582.7771      1448.5044      1375.9753      2619.458       0             -3861.1606      0              0             -134.17251      102657.79      46.823511      46.823511      46.823511      0.81713081     952.75214      365.55378     -229.89033    
    627000   1254000        387.16314     -148.06255      5425.4091      5649.5954      4153.4612      1496.1342      1454.9044      1380.5421      2528.1034      0             -3867.4158      0              0             -132.66843      103821.64      46.999794      46.999794      46.999794      0.80797072    -267.56602      567.79421     -744.41585    
    627500   1255000        390.21368      1318.7438      7640.444       5680.2385      4186.1872      1494.0513      1411.4716      1408.0275      2582.9647      0             -3908.4125      0              0             -135.14195      101921.38      46.71128       46.71128       46.71128       0.8230348      696.33161      1834.8201      1425.0797    
    628000   1256000        392.85141      139.50931      5755.9395      5546.0566      4214.4846      1331.572       1371.4696      1319.8817      2525.898       0             -3885.6773      0              0             -133.52341      103156.85      46.899264      46.899264      46.899264      0.81317764    -288.18105     -47.834292      754.54327    
    628500   1257000        396.872       -421.79108      5171.5327      5805.1379      4257.6171      1547.5208      1436.1252      1406.6348      2569.6058      0             -3864.845       0              0             -133.72419      103001.96      46.875779      46.875779      46.875779      0.81440043    -21.772616     -438.55925     -805.04136    
    629000   1258000        382.99182     -1820.4666      2895.8479      5673.4179      4108.7114      1564.7064      1471.0279      1400.4282      2520.7047      0             -3827.4544      0              0             -131.65855      104618         47.119659      47.119659      47.119659      0.80182036    -1889.4307     -2204.8044     -1367.1646    
    629500   1259000        396.98617      98.28012       5914.1973      5766.9096      4258.842       1508.0676      1423.6632      1426.4888      2547.4907      0             -3889.5751      0              0             -134.0388       102760.2       46.839076      46.839076      46.839076      0.81631645     268.03791     -811.21617      838.01862    
    630000   1260000        389.63976     -107.39605      5543.3015      5706.1189      4180.0302      1526.0887      1402.5053      1409.3197      2555.724       0             -3841.4602      0              0             -132.50092      103952.9       47.019593      47.019593      47.019593      0.80695051     517.54517     -766.33103     -73.402287    
    630500   1261000        399.10598      258.88455      6227.584       5837.4942      4281.5832      1555.911       1417.8436      1381.2158      2583.4678      0             -3826.6162      0              0             -133.31313      103319.56      46.92391       46.92391       46.92391       0.81189699     220.01259      622.99984     -66.358784    
    631000   1262000        389.19955      687.95885      6675.5152      5635.7824      4175.3076      1460.4748      1404.6967      1343.9373      2565.4207      0             -3853.5799      0              0             -132.91442      103629.49      46.970782      46.970782      46.970782      0.80946882     953.03596      275.42803      835.41256    
    631500   1263000        388.46817      267.67541      6255.8989      5849.5889      4167.4614      1682.1274      1479.5273      1417.7483      2594.1713      0             -3809.3195      0              0             -132.33731      104081.41      47.038961      47.038961      47.038961      0.80595416    -95.944997      1053.5594     -154.58817    
    632000   1264000        389.21386      275.07832      6132.8189      5714.799       4175.4611      1539.3379      1427.644       1426.3695      2539.8301      0             -3854.5057      0              0             -132.18761      104199.28      47.056711      47.056711      47.056711      0.80504245    -119.26731      912.73301      31.769269    
    632500   1265000        394.38442      802.26964      7025.7418      5811.7632      4230.9306      1580.8326      1441.0527      1395.2271      2592.6222      0             -3848.0693      0              0             -132.75188      103756.38      46.989944      46.989944      46.989944      0.80847893     617.85675      667.73187      1121.2203    
    633000   1266000        386.65699      779.77916      6920.6331      5746.385       4148.0312      1598.3538      1450.7077      1468.6466      2535.9472      0             -3856.9476      0              0             -133.3961       103255.3       46.914179      46.914179      46.914179      0.8124023      1100.2726      302.16315      936.90169    
    633500   1267000        376.30281     -288.08886      5145.8509      5584.6968      4036.9522      1547.7446      1455.3801      1395.7942      2531.0814      0             -3834.5111      0              0             -131.86992      104450.31      47.094469      47.094469      47.094469      0.80310767    -671.44673      179.3719      -372.19175    
    634000   1268000        390.91508     -135.70551      5441.6897      5644.6267      4193.7117      1450.915       1395.9994      1409.5998      2562.277       0             -3916.9612      0              0             -134.3283       102538.73      46.805403      46.805403      46.805403      0.81807957    -184.19682      356.54891     -579.46861    
    634500   1269000        397.20714      29.517913      5801.2265      5756.9779      4261.2126      1495.7654      1425.0299      1393.5091      2564.6747      0             -3887.4484      0              0             -134.00393      102786.94      46.843138      46.843138      46.843138      0.81610411     361.66861     -467.75682      194.64195    
    635000   1270000        393.10161     -732.79327      4757.9662      5871.0076      4217.1686      1653.839       1421.5683      1442.1682      2630.8264      0             -3840.7238      0              0             -132.25178      104148.72      47.049099      47.049099      47.049099      0.80543326    -1165.2886     -568.11712     -464.97411    
    635500   1271000        390.79609      47.121612      5854.7745      5783.9227      4192.4352      1591.4876      1409.8078      1466.0818      2590.0288      0             -3874.4309      0              0             -133.59828      103099.04      46.890501      46.890501      46.890501      0.81363363     256.41331     -702.49198      587.4435     
    636000   1272000        385.53882      92.391274      5833.0446      5693.4836      4136.0355      1557.448       1412.7566      1456.2581      2561.4724      0             -3873.0391      0              0             -132.98361      103575.58      46.962635      46.962635      46.962635      0.80989019    -636.49926      521.78444      391.88865    
    636500   1273000        383.37091      63.409617      5680.2737      5584.3931      4112.7783      1471.6148      1423.6851      1383.8666      2530.6916      0             -3866.6284      0              0             -132.84824      103681.11      46.97858       46.97858       46.97858       0.8090658      632.27847     -212.53774     -229.51189    
    637000   1274000        393.63644     -219.24573      5307.362       5637.2496      4222.9063      1414.3433      1427.3102      1362.2324      2490.3458      0             -3865.5451      0              0             -133.50469      103171.31      46.901456      46.901456      46.901456      0.81306363    -770.85904     -186.76683      299.88867    
    637500   1275000        398.70478      220.59645      6163.375       5829.9557      4277.2791      1552.6766      1466.115       1415.9106      2514.9141      0             -3844.2631      0              0             -132.90432      103637.37      46.971972      46.971972      46.971972      0.8094073     -203.16125      323.90914      541.04147    
    638000   1276000        391.92181      276.39679      6233.0912      5817.2023      4204.5118      1612.6905      1437.9653      1377.4355      2633.8488      0             -3836.5591      0              0             -133.50177      103173.57      46.901798      46.901798      46.901798      0.81304585     234.11832     -120.57982      715.65188    
    638500   1277000        389.34295      230.66513      6054.4231      5706.2159      4176.8461      1529.3698      1373.9298      1389.7643      2594.2131      0             -3828.5372      0              0             -133.06858      103509.44      46.952637      46.952637      46.952637      0.81040766     109.5985       80.76085       501.63603    
    639000   1278000        383.27008     -64.867612      5614.9676      5712.9469      4111.6966      1601.2503      1412.7022      1386.6341      2649.0032      0             -3847.0892      0              0             -132.99177      103569.22      46.961674      46.961674      46.961674      0.8099399      249.56336      99.4849       -543.6511     
    639500   1279000        385.71853      248.09477      6139.3043      5760.3698      4137.9634      1622.4064      1412.9831      1406.0113      2592.0402      0             -3788.6282      0              0             -131.51791      104729.88      47.136449      47.136449      47.136449      0.80096385     230.35043      166.15943      347.77446    
    640000   1280000        399.95576     -55.319123      5866.026       5950.2875      4290.6996      1659.588       1428.9547      1444.675       2581.4433      0             -3795.4851      0              0             -131.87954      104442.69      47.093325      47.093325      47.093325      0.80316622    -0.3742265     -348.06481      182.48167    
    640500   1281000        384.48857      23.747513      5720.0035      5683.9472      4124.7685      1559.1787      1402.9914      1390.0045      2575.3522      0             -3809.1694      0              0             -132.30235      104108.92      47.043105      47.043105      47.043105      0.80574119     100.3645       398.38462     -427.50658    
    641000   1282000        390.22968      93.654128      5876.9084      5736.2347      4186.3588      1549.8759      1445.0949      1358.0134      2615.094       0             -3868.3264      0              0             -133.7351       102993.56      46.874504      46.874504      46.874504      0.81446689    -37.50498      -63.597264      382.06463    
    641500   1283000        394.0399       123.13224      5962.3731      5776.2073      4227.2346      1548.9727      1420.2507      1366.3278      2619.6647      0             -3857.2704      0              0             -132.86276      103669.79      46.976869      46.976869      46.976869      0.80915419     91.539761     -22.42281       300.27978    
    642000   1284000        384.97899     -187.02154      5394.055       5674.2729      4130.0297      1544.2431      1487.8039      1321.8107      2619.1215      0             -3884.4929      0              0             -134.06865      102737.32      46.835599      46.835599      46.835599      0.81649823    -201.53562     -948.49681      588.96781    
    642500   1285000        391.18214      450.85167      6517.1702      5835.1583      4196.5768      1638.5815      1451.1521      1427.4103      2596.8213      0             -3836.8022      0              0             -132.79236      103724.75      46.98517       46.98517       46.98517       0.80872544     449.80091      47.543176      855.21094    
    643000   1286000        381.03237      345.2991       6243.9039      5723.8254      4087.6907      1636.1347      1420.8099      1428.6372      2659.1499      0             -3872.4623      0              0             -133.36993      103275.56      46.917247      46.917247      46.917247      0.81224293     740.35676      322.94616     -27.40562     
    643500   1287000        390.64924      560.8044       6594.0617      5748.1025      4190.8598      1557.2426      1441.7748      1358.1357      2597.0208      0             -3839.6886      0              0             -133.166        103433.71      46.941184      46.941184      46.941184      0.81100099     740.40052      575.62668      366.386      
    644000   1288000        388.0775      -701.7267       4705.1008      5772.111       4163.2703      1608.8407      1466.9197      1349.7655      2616.3721      0             -3824.2166      0              0             -132.10851      104261.67      47.066101      47.066101      47.066101      0.80456072    -98.532511     -649.98816     -1356.6594    
    644500   1289000        387.28661     -81.730089      5584.7105      5708.1586      4154.7857      1553.3729      1437.8799      1359.6708      2609.29        0             -3853.4678      0              0             -132.99311      103568.18      46.961516      46.961516      46.961516      0.80994806    -28.450962     -685.34601      468.6067     
    645000   1290000        402.01893      667.55943      6894.9746      5882.5404      4312.8331      1569.7073      1459.7904      1412.8016      2529.0816      0             -3831.9664      0              0             -132.45078      103992.25      47.025525      47.025525      47.025525      0.80664518     715.89424      308.00713      978.77692    
    645500   1291000        384.66105     -202.32289      5384.5276      5690.4901      4126.6189      1563.8712      1439.6162      1363.3438      2623.4898      0             -3862.5786      0              0             -132.83369      103692.47      46.980295      46.980295      46.980295      0.80897719     68.102341     -203.95538     -471.11563    
    646000   1292000        390.14045     -214.9341       5383.4254      5709.6415      4185.4016      1524.24        1472.6844      1367.7137      2519.7542      0             -3835.9124      0              0             -132.35221      104069.7       47.037196      47.037196      47.037196      0.80604486    -158.44556      200.27831     -686.63505    
    646500   1293000        386.88819      214.35462      6007.5837      5684.9581      4150.5115      1534.4466      1433.0051      1401.4769      2577.6604      0             -3877.6957      0              0             -133.46437      103202.48      46.906177      46.906177      46.906177      0.81281813     108.73139      241.22218      293.11029    
    647000   1294000        402.16068     -159.65347      5557.2631      5794.3583      4314.3538      1480.0045      1424.8384      1456.4498      2528.7644      0             -3930.0481      0              0             -135.26549      101828.29      46.697054      46.697054      46.697054      0.8237872     -252.33624     -319.58835      92.964166    
    647500   1295000        387.33587      45.468865      5751.0896      5682.8357      4155.3142      1527.5215      1515.8335      1363.1426      2524.9519      0             -3876.4065      0              0             -133.81901      102928.98      46.864705      46.864705      46.864705      0.81497792    -198.10209      238.48768      96.020998    
    648000   1296000        399.61694      355.53066      6271.6137      5743.7247      4287.0647      1456.66        1449.1488      1370.1509      2541.2318      0             -3903.8714      0              0             -135.29002      101809.83      46.694232      46.694232      46.694232      0.82393658     945.12243      421.92764     -300.45808    
    648500   1297000        391.18918      252.54899      6020.9831      5643.3478      4196.6523      1446.6955      1463.0945      1360.5561      2532.0088      0             -3908.9639      0              0             -134.33971      102530.03      46.804078      46.804078      46.804078      0.81814904     558.71431     -27.124095      226.05675    
    649000   1298000        384.60759     -188.6554       5358.216       5640.4745      4126.0454      1514.4291      1440.2371      1433.8555      2529.8129      0             -3889.4764      0              0             -134.26213      102589.27      46.81309       46.81309       46.81309       0.81767659     11.027086     -315.51083     -261.48246    
    649500   1299000        389.75746      348.79035      6252.9203      5727.4647      4181.2929      1546.1718      1460.5149      1400.3034      2555.8248      0             -3870.4713      0              0             -133.3398       103298.9       46.92078       46.92078       46.92078       0.81205944     720.4407       460.75912     -134.82877    
    650000   1300000        387.25234     -164.46539      5465.714       5713.1971      4154.4181      1558.779       1433.4795      1437.2378      2557.3988      0             -3869.3371      0              0             -133.49358      103179.9       46.902756      46.902756      46.902756      0.81299601    -1069.398      -372.2094       948.21118    
    650500   1301000        386.09627     -614.98548      4699.1882      5623.3223      4142.0159      1481.3065      1395.0507      1374.2204      2563.9681      0             -3851.9328      0              0             -133.67839      103037.25      46.881132      46.881132      46.881132      0.81412151    -698.32403     -1014.9613     -131.67113    
    651000   1302000        389.75588     -470.47531      4983.5316      5701.7888      4181.2759      1520.5128      1434.8912      1407.3531      2503.2879      0             -3825.0193      0              0             -131.5795       104680.85      47.129093      47.129093      47.129093      0.80133893    -46.68676      -738.69379     -626.0454     
    651500   1303000        399.03336     -512.2713       5053.8166      5824.4107      4280.8041      1543.6066      1415.4762      1455.1709      2530.2601      0             -3857.3006      0              0             -133.53826      103145.37      46.897525      46.897525      46.897525      0.81326811    -548.04697     -441.51747     -547.24946    
    652000   1304000        392.28721      413.05962      6326.8758      5708.1752      4208.4318      1499.7434      1402.175       1427.4674      2568.4504      0             -3898.3494      0              0             -134.11076      102705.07      46.830697      46.830697      46.830697      0.81675468     431.03374      426.85081      381.29431    
    652500   1305000        373.86975      194.68147      5825.8661      5533.9027      4010.8505      1523.0522      1455.2464      1370.9306      2574.6236      0             -3877.7485      0              0             -133.94534      102831.9       46.849967      46.849967      46.849967      0.81574728    -57.253895     -88.698418      729.99673    
    653000   1306000        388.98136     -85.691782      5654.9974      5784.1267      4172.9669      1611.1598      1419.4351      1443.3059      2613.1963      0             -3864.7775      0              0             -133.30474      103326.07      46.924894      46.924894      46.924894      0.81184591    -79.994092     -694.23108      517.14982    
    653500   1307000        392.69532      357.41557      6328.4761      5789.1747      4212.8101      1576.3646      1476.1632      1428.314       2535.5858      0             -3863.6985      0              0             -133.12918      103462.32      46.945511      46.945511      46.945511      0.81077674     546.3612       161.54247      364.34303    
    654000   1308000        390.51499      530.14421      6565.1503      5768.1756      4189.4196      1578.756       1467.2434      1455.4553      2535.0008      0             -3878.9435      0              0             -133.62288      103080.05      46.887623      46.887623      46.887623      0.81378346    -172.12539      939.17287      823.38514    
    654500   1309000        395.6585      -89.099387      5798.6699      5932.4367      4244.5988      1687.8379      1488.922       1431.6371      2652.4764      0             -3885.1976      0              0             -133.80045      102943.26      46.866872      46.866872      46.866872      0.81486485    -301.28362     -206.70663      240.69209    
    655000   1310000        385.12948      154.20181      5913.4511      5682.2154      4131.6442      1550.5712      1437.1114      1427.5096      2567.4012      0             -3881.451       0              0             -133.95713      102822.85      46.848592      46.848592      46.848592      0.8158191     -5.1075404      618.27964     -150.56667    
    655500   1311000        394.98165      287.27528      6273.2576      5842.0062      4237.3376      1604.6686      1445.9182      1413.7158      2597.9626      0             -3852.928       0              0             -133.81325      102933.41      46.865377      46.865377      46.865377      0.81494285     30.57324       105.35564      725.89696    
    656000   1312000        392.04004     -447.90524      5101.2183      5774.0783      4205.7802      1568.2981      1447.1525      1401.1176      2577.0466      0             -3857.0185      0              0             -133.71891      103006.03      46.876397      46.876397      46.876397      0.81436826    -354.19548     -429.29363     -560.22661    
    656500   1313000        394.74356      418.39231      6393.3823      5768.062       4234.7834      1533.2786      1413.5138      1370.4935      2630.6883      0             -3881.4171      0              0             -134.4041       102480.91      46.796602      46.796602      46.796602      0.81854119     229.32094      1089.6838     -63.827808    
    657000   1314000        378.67734      34.867527      5607.4654      5554.809       4062.426       1492.383       1394.9606      1356.0384      2610.0291      0             -3868.6451      0              0             -133.01506      103551.08      46.958932      46.958932      46.958932      0.81008176     77.100651     -221.32805      248.82997    
    657500   1315000        383.46305      192.16477      6122.0322      5830.6092      4113.7668      1716.8424      1508.5872      1390.0025      2633.0422      0             -3814.7895      0              0             -132.45894      103985.84      47.024559      47.024559      47.024559      0.80669489     357.17691     -616.7392       836.05659    
    658000   1316000        399.78242     -19.795408      5732.7004      5762.9093      4288.8399      1474.0694      1385.5567      1369.3969      2527.8873      0             -3808.7714      0              0             -131.63198      104639.12      47.122829      47.122829      47.122829      0.80165857    -87.844661     -332.08001      360.53845    
    658500   1317000        386.53721     -296.38921      5354.7231      5805.8918      4146.7462      1659.1456      1480.7452      1425.2314      2563.0288      0             -3809.8598      0              0             -131.9638       104376         47.083299      47.083299      47.083299      0.80367941    -261.13836      21.440841     -649.47009    
    659000   1318000        388.62772      332.2324       6138.2774      5632.0553      4169.173       1462.8823      1405.4834      1342.9403      2534.5657      0             -3820.107       0              0             -131.83548      104477.6       47.098571      47.098571      47.098571      0.80289788     66.702685      184.69353      745.30099    
    659500   1319000        386.46592      284.13953      6198.4343      5768.0151      4145.9815      1622.0337      1415.4935      1362.6509      2662.0704      0             -3818.1812      0              0             -132.60851      103868.55      47.006872      47.006872      47.006872      0.8076058     -98.451489      1296.0518     -345.18172    
    660000   1320000        398.06502      489.40677      6611.0176      5869.0944      4270.4158      1598.6786      1410.0761      1415.461       2622.5074      0             -3849.366       0              0             -132.50809      103947.27      47.018744      47.018744      47.018744      0.80699422     536.71155      448.44711      483.06164    
    660500   1321000        397.47861     -269.7577       5363.5392      5774.6672      4264.1248      1510.5424      1371.4071      1374.8485      2597.1345      0             -3832.8477      0              0             -131.80389      104502.64      47.102333      47.102333      47.102333      0.80270552    -334.58899     -589.85612      115.17202    
    661000   1322000        398.23466     -9.8538296      5677.9841      5692.9328      4272.2356      1420.6971      1377.3199      1377.7082      2526.1235      0             -3860.4545      0              0             -132.41364      104021.41      47.029921      47.029921      47.029921      0.80641901     711.68451      7.8809012     -749.1269     
    661500   1323000        390.40846      544.92167      6505.576       5684.9065      4188.2767      1496.6298      1419.2106      1400.5873      2569.0123      0             -3892.1804      0              0             -133.38198      103266.23      46.915834      46.915834      46.915834      0.81231631     1620.7574     -26.569305      40.576891    
    662000   1324000        388.34478      358.34142      6267.9245      5729.1298      4166.1377      1562.9921      1461.9177      1380.5295      2604.3484      0             -3883.8035      0              0             -133.59956      103098.05      46.890351      46.890351      46.890351      0.81364143    -201.00923      297.44018      978.59332    
    662500   1325000        387.06592     -1.8754298      5553.3146      5556.1295      4152.4182      1403.7113      1403.2138      1355.9908      2538.0042      0             -3893.4974      0              0             -133.8313       102919.53      46.863271      46.863271      46.863271      0.81505274     90.475292      131.45306     -227.55464    
    663000   1326000        391.67237     -262.20943      5268.1097      5660.0161      4201.8358      1458.1803      1406.7837      1407.5601      2548.1857      0             -3904.3492      0              0             -134.39941      102484.48      46.797147      46.797147      46.797147      0.81851262    -282.68142     -242.40749     -261.53939    
    663500   1327000        386.55354     -831.97897      4448.5869      5705.419       4146.9214      1558.4976      1475.6731      1412.8779      2535.1985      0             -3865.2519      0              0             -132.97392      103583.12      46.963775      46.963775      46.963775      0.80983118    -457.69339     -1230.6612     -807.58234    
    664000   1328000        396.65546      7.3150994      5630.2352      5619.307       4255.2941      1364.0129      1426.3023      1395.2668      2463.1293      0             -3920.6855      0              0             -134.46309      102435.95      46.789758      46.789758      46.789758      0.81890043     518.75762     -55.526749     -441.28557    
    664500   1329000        389.77125      811.83707      6837.6988      5622.0365      4181.4408      1440.5957      1428.8332      1382.3182      2515.0362      0             -3885.592       0              0             -134.14895      102675.83      46.826253      46.826253      46.826253      0.81698727     1251.4498      619.93335      564.12805    
    665000   1330000        390.26225      450.72421      6443.3402      5765.846       4186.7082      1579.1378      1448.4707      1444.8448      2559.1544      0             -3873.3321      0              0             -133.64007      103066.8       46.885613      46.885613      46.885613      0.81388812     860.39625     -662.26839      1154.0448    
    665500   1331000        393.94492     -176.70942      5431.0365      5691.4058      4226.2157      1465.1901      1357.1351      1433.0034      2635.1517      0             -3960.1001      0              0             -136.3331       101030.89      46.574842      46.574842      46.574842      0.83028908    -449.94224     -680.72427      600.53825    
    666000   1332000        383.04195     -332.18448      5064.997       5564.8778      4109.2493      1455.6285      1398.8907      1400.0578      2543.7288      0             -3887.0488      0              0             -133.48863      103183.73      46.903336      46.903336      46.903336      0.81296583     436.4982      -929.64027     -503.41138    
    666500   1333000        389.53288     -382.79575      5260.7284      5836.5505      4178.8836      1657.6669      1515.0989      1466.6185      2552.4646      0             -3876.5151      0              0             -133.53962      103144.32      46.897365      46.897365      46.897365      0.81327641    -481.06699     -347.19451     -320.12575    
    667000   1334000        397.65092     -6.2559761      5744.8444      5754.2363      4265.9733      1488.2629      1423.6107      1402.5009      2537.5114      0             -3875.36        0              0             -133.80591      102939.06      46.866234      46.866234      46.866234      0.81489813     214.85147      139.13093     -372.75033    
    667500   1335000        385.43381      227.4252       5932.0821      5591.1435      4134.909       1456.2344      1429.0976      1402.9363      2545.0475      0             -3920.8469      0              0             -133.99659      102792.57      46.843993      46.843993      46.843993      0.81605939     427.51141     -209.41111      464.17531    
    668000   1336000        392.81922      269.70269      6230.4336      5826.499       4214.1392      1612.3598      1463.9767      1476.4371      2540.8962      0             -3868.9502      0              0             -134.1237       102695.15      46.829191      46.829191      46.829191      0.81683351    -264.82012      440.6757       633.2525     
    668500   1337000        383.44663     -605.15165      4733.2302      5650.1744      4113.5907      1536.5837      1444.6444      1391.0856      2560.7414      0             -3859.8877      0              0             -132.57227      103896.95      47.011156      47.011156      47.011156      0.80738504    -787.49975     -641.53544     -386.41976    
    669000   1338000        384.61019      292.11443      6174.932       5729.3419      4126.0733      1603.2686      1423.3032      1442.696       2556.4432      0             -3819.1739      0              0             -131.68879      104593.98      47.116052      47.116052      47.116052      0.80200452    -85.69288       521.24747      440.7887     
    669500   1339000        387.11509      333.42758      6177.6616      5673.3663      4152.9457      1520.4207      1466.8693      1372.6473      2516.8609      0             -3835.9568      0              0             -132.81528      103706.85      46.982466      46.982466      46.982466      0.80886505     561.8498       519.67834     -81.24539     
    670000   1340000        388.24131     -132.8723       5563.7476      5765.483       4165.0277      1600.4552      1482.5958      1400.5275      2548.231       0             -3830.8991      0              0             -132.30728      104105.03      47.04252       47.04252       47.04252       0.80577125    -429.54964      639.27133     -608.33857    
    670500   1341000        394.1587       179.34281      6161.5484      5888.4868      4228.509       1659.9778      1442.267       1431.6697      2604.8881      0             -3818.847       0              0             -131.93338      104400.07      47.086918      47.086918      47.086918      0.80349412    -223.16108     -35.434424      796.62394    
    671000   1342000        395.34808      164.65141      6042.4213      5793.4256      4241.2687      1552.1569      1473.5437      1342.5599      2612.615       0             -3876.5617      0              0             -132.83268      103693.27      46.980415      46.980415      46.980415      0.80897098    -338.63307      302.42024      530.16705    
    671500   1343000        382.9888      -187.40279      5303.5663      5584.3579      4108.6791      1475.6787      1395.288       1343.2099      2590.5196      0             -3853.3388      0              0             -134.06748      102738.22      46.835735      46.835735      46.835735      0.81649112    -430.81448      498.46688     -629.86078    
    672000   1344000        393.31595     -317.01103      5232.745       5709.8416      4219.4681      1490.3735      1424.8627      1361.949       2588.6093      0             -3885.0475      0              0             -133.47484      103194.39      46.904952      46.904952      46.904952      0.81288184    -122.69056     -833.16497      4.8224524    
    672500   1345000        394.79279      459.62095      6355.8125      5667.4113      4235.3115      1432.0998      1389.977       1401.3923      2521.469       0             -3880.7386      0              0             -134.11877      102698.93      46.829764      46.829764      46.829764      0.81680351     261.56312      275.94225      841.35748    
    673000   1346000        397.26075      595.77382      6708.6599      5814.5479      4261.7877      1552.7602      1427.3142      1454.601       2560.2842      0             -3889.4393      0              0             -133.85076      102904.57      46.860999      46.860999      46.860999      0.81517126     477.12946     -133.7693       1443.9613    
    673500   1347000        387.63121      416.84068      6361.7635      5740.0507      4158.4826      1581.5681      1437.3441      1417.413       2629.9063      0             -3903.0953      0              0             -134.68264      102268.97      46.76432       46.76432       46.76432       0.82023753     819.69561      612.61143     -181.78499    
    674000   1348000        369.60593     -410.60167      5000.8066      5622.4384      3965.1085      1657.3298      1458.0181      1414.194       2606.7462      0             -3821.6285      0              0             -132.68409      103809.38      46.997945      46.997945      46.997945      0.80806609     25.353439     -725.70447     -531.45397    
    674500   1349000        390.95644     -350.96381      5131.4539      5660.6829      4194.1554      1466.5275      1393.4638      1363.7218      2569.5258      0             -3860.184       0              0             -133.21407      103396.39      46.935537      46.935537      46.935537      0.81129374    -840.05787     -29.522198     -183.31137    
    675000   1350000        398.87307     -618.28761      4836.9149      5769.8173      4279.0845      1490.7327      1375.9461      1387.0164      2582.7733      0             -3855.0031      0              0             -133.13299      103459.36      46.945063      46.945063      46.945063      0.81079996    -813.98363     -671.71988     -369.15933    
    675500   1351000        392.65429      31.320941      5827.3419      5779.9532      4212.3698      1567.5834      1380.0302      1431.1627      2627.7687      0             -3871.3781      0              0             -132.76749      103744.18      46.988103      46.988103      46.988103      0.80857398    -98.180125     -44.231047      236.37399    
    676000   1352000        387.18429     -213.12519      5457.0713      5781.4762      4153.6881      1627.7882      1417.1158      1365.8096      2671.7243      0             -3826.8615      0              0             -131.97105      104370.27      47.082436      47.082436      47.082436      0.80372358    -80.510111      154.53015     -713.3956     
    676500   1353000        387.36503     -545.12228      4921.6143      5741.3061      4155.627       1585.6791      1428.6245      1383.3357      2654.2392      0             -3880.5202      0              0             -133.59023      103105.25      46.891443      46.891443      46.891443      0.81358459    -863.64899     -996.17355      224.45569    
    677000   1354000        392.15534     -217.33981      5517.0852      5843.2025      4207.0172      1636.1854      1416.0658      1470.66        2638.1746      0             -3888.7151      0              0             -133.87417      102886.57      46.858268      46.858268      46.858268      0.81531384    -77.691811     -671.6353       97.307692    
    677500   1355000        386.32693     -57.254187      5653.1384      5739.2411      4144.4903      1594.7508      1392.713       1429.0598      2635.9011      0             -3862.923       0              0             -133.57403      103117.75      46.893338      46.893338      46.893338      0.81348595     62.281244     -138.9095      -95.134305    
    678000   1356000        392.69119     -28.820035      5878.6092      5921.8043      4212.7657      1709.0385      1462.0012      1467.495       2658.7915      0             -3879.2492      0              0             -134.02691      102769.32      46.84046       46.84046       46.84046       0.81624405     131.36974      185.93375     -403.7636     
    678500   1357000        393.24414     -99.388587      5527.14        5676.6918      4218.6977      1457.994       1389.4778      1359.151       2604.5266      0             -3895.1613      0              0             -133.49848      103176.11      46.902183      46.902183      46.902183      0.81302583     94.606705      226.36633     -619.1388     
    679000   1358000        386.1201      -153.25316      5528.5709      5759.7042      4142.2715      1617.4327      1439.5529      1441.3571      2620.6269      0             -3884.1043      0              0             -133.19205      103413.48      46.938123      46.938123      46.938123      0.81115963    -348.16523     -448.61257      337.01832    
    679500   1359000        393.41485     -95.776778      5621.9022      5765.7085      4220.5291      1545.1794      1430.7266      1438.427       2595.1526      0             -3919.1268      0              0             -133.78691      102953.68      46.868453      46.868453      46.868453      0.81478239     536.58937     -396.63021     -427.28949    
    680000   1360000        384.75723     -360.14638      5132.0768      5672.1735      4127.6507      1544.5229      1390.4028      1394.3174      2641.1729      0             -3881.3703      0              0             -133.94881      102829.23      46.849562      46.849562      46.849562      0.81576844    -438.64748     -530.14226     -111.6494     
    680500   1361000        387.52985      604.91115      6753.355       5849.2797      4157.3951      1691.8845      1434.8569      1470.5183      2683.7748      0             -3897.2654      0              0             -134.40591      102479.53      46.796392      46.796392      46.796392      0.8185522      964.47551      314.50283      535.75512    
    681000   1362000        386.43081     -221.44886      5361.129       5692.2171      4145.6047      1546.6124      1410.5826      1419.9439      2614.1508      0             -3898.065       0              0             -134.35731      102516.6       46.802034      46.802034      46.802034      0.81825623    -918.98489     -71.728196      326.3665     
    681500   1363000        386.93186     -668.22681      4690.6621      5693.9405      4150.98        1542.9605      1429.8307      1386.6791      2626.4795      0             -3900.0287      0              0             -133.79312      102948.9       46.867728      46.867728      46.867728      0.81482024    -1054.9126     -677.71634     -272.05152    
    682000   1364000        393.47313     -213.38851      5525.6931      5847.1064      4221.1543      1625.952       1356.7615      1436.7043      2650.758       0             -3818.2718      0              0             -133.364        103280.15      46.917942      46.917942      46.917942      0.8122068      123.61646     -87.738615     -676.04337    
    682500   1365000        386.37637     -111.96516      5509.4545      5678.772       4145.0208      1533.7513      1370.9338      1396.5289      2616.9304      0             -3850.6419      0              0             -132.83497      103691.48      46.980145      46.980145      46.980145      0.80898493    -719.59796      439.97406     -56.271577    
    683000   1366000        388.44657     -129.12297      5606.0368      5801.7425      4167.2297      1634.5128      1386.344       1449.8901      2645.2849      0             -3847.0063      0              0             -132.53527      103925.95      47.01553       47.01553       47.01553       0.80715974     41.626836     -524.18338      95.187648    
    683500   1367000        386.31805      517.64907      6424.7928      5646.7192      4144.3951      1502.3242      1379.608       1351.0338      2646.4452      0             -3874.7628      0              0             -133.64298      103064.55      46.885272      46.885272      46.885272      0.81390585     561.6063       481.91362      509.42729    
    684000   1368000        383.25108     -115.27676      5697.4105      5874.4968      4111.4928      1763.004       1411.7613      1445.0475      2687.8392      0             -3781.6439      0              0             -130.76399      105333.69      47.226863      47.226863      47.226863      0.79637239     63.676135     -119.57689     -289.92951    
    684500   1369000        390.48035      16.978231      5848.6036      5822.6576      4189.048       1633.6096      1379.7928      1406.1279      2640.6872      0             -3792.9983      0              0             -131.44783      104785.71      47.144824      47.144824      47.144824      0.80053708     265.14753      52.621676     -266.83451    
    685000   1370000        393.61942     -190.6413       5502.5394      5791.1323      4222.7237      1568.4086      1409.5988      1367.3317      2624.0537      0             -3832.5755      0              0             -132.6975       103798.9       46.996363      46.996363      46.996363      0.80814772    -412.21427     -845.86392      686.15429    
    685500   1371000        392.05281      87.616696      5897.5829      5764.3991      4205.9172      1558.4819      1367.9253      1405.9507      2595.2058      0             -3810.5999      0              0             -132.14988      104229.03      47.061189      47.061189      47.061189      0.80481268    -330.26099     -242.67664      835.78772    
    686000   1372000        380.77907      282.94178      6161.0051      5731.2273      4084.9732      1646.2541      1391.8537      1425.2108      2615.5288      0             -3786.3392      0              0             -132.24659      104152.81      47.049715      47.049715      47.049715      0.80540163    -75.300901      598.41585      325.7104     
    686500   1373000        382.85115      168.7781       5875.5837      5619.9904      4107.2023      1512.788       1390.1381      1430.0136      2543.883       0             -3851.2466      0              0             -132.64716      103838.29      47.002306      47.002306      47.002306      0.80784118     436.95951      447.29158     -377.9168     
    687000   1374000        400.60831      622.34871      6879.8938      5943.6872      4297.7         1645.9871      1449.1281      1376.5347      2669.1881      0             -3848.8638      0              0             -133.5345       103148.28      46.897965      46.897965      46.897965      0.81324517     1168.4967      362.12657      336.4229     
    687500   1375000        381.50612      55.61766       5690.4767      5606.2365      4092.773       1513.4635      1435.4243      1345.0504      2572.9605      0             -3839.9716      0              0             -132.62489      103855.72      47.004937      47.004937      47.004937      0.80770555     133.72721      264.60724     -231.48147    
    688000   1376000        389.55675     -22.389668      5777.657       5811.6928      4179.1397      1632.5531      1413.4813      1459.2182      2591.0409      0             -3831.1873      0              0             -132.14262      104234.76      47.062052      47.062052      47.062052      0.80476843    -171.32575      379.67107     -275.51433    
    688500   1377000        385.32632      36.531207      5609.4231      5554.4823      4133.7559      1420.7265      1347.8404      1369.4412      2557.4335      0             -3853.9886      0              0             -133.56747      103122.82      46.894106      46.894106      46.894106      0.81344599     257.02346     -239.06878      91.63894     
    689000   1378000        391.59262      14.672414      5779.0844      5756.9551      4200.9803      1555.9748      1416.9436      1421.9105      2596.515       0             -3879.3944      0              0             -133.18822      103416.46      46.938573      46.938573      46.938573      0.81113631     39.575518     -124.30156      128.74329    
    689500   1379000        388.84868      500.19992      6600.1542      5836.1777      4171.5435      1664.6342      1424.017       1415.128       2588.8161      0             -3763.3269      0              0             -131.52097      104727.44      47.136084      47.136084      47.136084      0.80098247     908.18999      344.67639      247.73338    
    690000   1380000        395.89477      116.58446      6059.5189      5882.9241      4247.1335      1635.7906      1404.9442      1443.0805      2619.8386      0             -3832.0728      0              0             -132.61547      103863.1       47.006051      47.006051      47.006051      0.80764815     179.95596     -163.74576      333.54317    
    690500   1381000        386.89212      524.64605      6422.4201      5629.0309      4150.5537      1478.4772      1412.8554      1359.7934      2560.254       0             -3854.4255      0              0             -132.83468      103691.7       46.980179      46.980179      46.980179      0.80898321     438.58846      761.78868      373.56102    
    691000   1382000        391.42744     -641.28008      4766.0322      5749.6817      4199.2083      1550.4734      1358.6149      1415.8729      2585.7808      0             -3809.7952      0              0             -130.96003      105176.02      47.203287      47.203287      47.203287      0.79756628    -144.05143     -578.9775      -1200.8113    
    691500   1383000        382.937       -360.30144      5269.8655      5825.5324      4108.1234      1717.409       1412.9464      1409.4519      2665.4129      0             -3770.4022      0              0             -130.25153      105748.12      47.288719      47.288719      47.288719      0.79325139    -811.56485     -20.134825     -249.20464    
    692000   1384000        383.8759      -277.54378      5377.4784      5803.2375      4118.1959      1685.0417      1484.352       1429.4115      2536.9483      0             -3765.6702      0              0             -130.94801      105185.67      47.204731      47.204731      47.204731      0.79749308     822.25901     -977.52051     -677.36986    
    692500   1385000        381.93557      233.41214      6037.8094      5678.6119      4097.3801      1581.2318      1381.5479      1369.1893      2600.4278      0             -3769.9332      0              0             -130.53336      105519.8       47.254661      47.254661      47.254661      0.79496782    -18.338856      695.6554       22.919885    
    693000   1386000        394.41868     -486.23308      5109.3857      5849.8687      4231.2981      1618.5706      1444.1042      1423.4487      2546.5665      0             -3795.5488      0              0             -131.90484      104422.65      47.090313      47.090313      47.090313      0.80332035     304.89551     -1113.8058     -649.78897    
    693500   1387000        395.21482     -24.875381      5638.3988      5676.202       4239.8391      1436.363       1393.9784      1319.3459      2515.9613      0             -3792.9227      0              0             -132.18185      104203.82      47.057395      47.057395      47.057395      0.80500738     99.533755     -81.867388     -92.292508    
    694000   1388000        388.42966      183.56972      6110.2321      5829.0603      4167.0483      1662.012       1429.294       1377.0595      2653.8698      0             -3798.2113      0              0             -131.14768      105025.53      47.180763      47.180763      47.180763      0.79870909     532.48411      234.76582     -216.54078    
    694500   1389000        394.93462     -383.10676      5340.3711      5929.4938      4236.833       1692.6607      1421.0252      1475.4662      2581.9825      0             -3785.8132      0              0             -130.63076      105441.13      47.242914      47.242914      47.242914      0.79556097    -949.22606     -121.35805     -78.736163    
    695000   1390000        385.35609      475.50427      6378.9723      5652.1284      4134.0752      1518.0532      1391.4326      1415.4238      2527.9894      0             -3816.7926      0              0             -131.41491      104811.96      47.14876       47.14876       47.14876       0.80033659     587.2036       972.47257     -133.16336    
    695500   1391000        394.86881      385.75865      6452.8235      5864.8034      4236.127       1628.6763      1395.1663      1390.7052      2672.6113      0             -3829.8065      0              0             -131.78163      104520.29      47.104985      47.104985      47.104985      0.80256996     779.55228      315.63507      62.088602    
    696000   1392000        393.4352       517.75417      6665.2035      5876.3698      4220.7474      1655.6224      1405.1798      1451.4641      2631.1037      0             -3832.1253      0              0             -131.84677      104468.65      47.097225      47.097225      47.097225      0.80296669     1098.538       125.18137      329.54312    
    696500   1393000        384.48179     -567.87999      4894.0202      5762.3354      4124.6958      1637.6396      1396.4667      1412.7465      2629.99        0             -3801.5636      0              0             -131.37433      104844.33      47.153614      47.153614      47.153614      0.80008944    -441.09289     -860.78097     -401.76611    
    697000   1394000        383.37759     -146.36341      5622.0241      5846.1066      4112.85        1733.2567      1368.4534      1446.574       2672.6269      0             -3754.3978      0              0             -131.20665      104978.32      47.173693      47.173693      47.173693      0.79906823     682.96545     -558.41949     -563.6362     
    697500   1395000        377.9957      -395.47679      5061.5313      5662.8611      4055.1135      1607.7476      1378.4564      1399.9371      2630.8239      0             -3801.4698      0              0             -132.11121      104259.54      47.065781      47.065781      47.065781      0.80457713    -750.32477     -28.647993     -407.45762    
    698000   1396000        381.34027      677.58743      6774.9838      5749.1597      4090.9938      1658.1659      1417.357       1408.9567      2608.1646      0             -3776.3124      0              0             -132.6856       103808.2       46.997767      46.997767      46.997767      0.80807529     418.16124      677.00276      937.59829    
    698500   1397000        397.6929       35.045051      5948.0032      5894.6715      4266.4237      1628.2478      1425.3447      1407.0171      2625.961       0             -3830.075       0              0             -131.99952      104347.76      47.079052      47.079052      47.079052      0.80389696     164.32907      809.70096     -868.89489    
    699000   1398000        379.95776     -718.3034       4607.5173      5704.4385      4076.1623      1628.2762      1424.7613      1357.5384      2643.0814      0             -3797.1049      0              0             -131.54182      104710.84      47.133593      47.133593      47.133593      0.80110947    -1199.5493     -593.43481     -361.92604    
    699500   1399000        391.14861     -983.04178      4347.6213      5844.8315      4196.217       1648.6145      1417.2737      1407.9277      2615.1842      0             -3791.7711      0              0             -131.89264      104432.31      47.091765      47.091765      47.091765      0.80324604    -1131.6484     -1289.232      -528.24495    
    700000   1400000        390.45125     -681.81205      4724.8652      5767.1078      4188.7358      1578.372       1368.2712      1414.8392      2613.3301      0             -3818.0684      0              0             -131.40964      104816.16      47.149391      47.149391      47.149391      0.80030448    -596.68551     -480.64035     -968.11029    
    700500   1401000        398.42243      123.73257      6101.5581      5911.719       4274.2501      1637.4689      1420.8626      1439.081       2580.945       0             -3803.4197      0              0             -130.92716      105202.42      47.207237      47.207237      47.207237      0.7973661     -327.99749      210.66094      488.53426    
    701000   1402000        390.64051      655.11299      6677.5708      5683.5762      4190.7661      1492.8101      1362.4283      1407.9293      2540.4875      0             -3818.0349      0              0             -132.39255      104037.98      47.032418      47.032418      47.032418      0.80629055     1618.921      -154.57105      500.98906    
    701500   1403000        387.42542      161.03045      6063.9502      5819.4373      4156.2749      1663.1624      1449.3849      1408.0334      2618.2315      0             -3812.4874      0              0             -132.2932       104116.11      47.044189      47.044189      47.044189      0.8056855      370.31625     -783.31366      896.08876    
    702000   1404000        401.93181     -631.50695      4793.3112      5766.8333      4311.8985      1454.9348      1330.8546      1362.5357      2563.6408      0             -3802.0964      0              0             -130.30578      105704.09      47.282156      47.282156      47.282156      0.79358179    -528.4388      -498.56819     -867.51387    
    702500   1405000        389.49318     -682.55067      4789.8866      5829.6897      4178.4577      1651.232       1402.5934      1448.8128      2606.849       0             -3807.0233      0              0             -131.86063      104457.67      47.095575      47.095575      47.095575      0.80305109    -465.71704     -1165.5205     -416.41443    
    703000   1406000        391.21799      1446.9683      7942.8665      5737.9598      4196.9613      1540.9986      1443.2685      1350.7509      2558.7488      0             -3811.7697      0              0             -131.82573      104485.32      47.099731      47.099731      47.099731      0.80283855     1163.0273      2369.2384      808.63934    
    703500   1407000        378.63786     -312.21921      5066.6684      5543.9381      4062.0025      1481.9356      1379.7602      1360.8865      2530.9901      0             -3789.7012      0              0             -131.40959      104816.2       47.149396      47.149396      47.149396      0.8003042     -368.09427     -26.653993     -541.90935    
    704000   1408000        387.01223     -62.657737      5772.299       5866.5463      4151.8422      1714.7041      1504.8873      1470.4183      2582.831       0             -3843.4326      0              0             -133.54802      103137.83      46.896382      46.896382      46.896382      0.81332757     98.706862      282.98295     -569.66303    
    704500   1409000        391.02915      382.5451       6317.4314      5737.2008      4194.9355      1542.2653      1411.8912      1397.3902      2568.3056      0             -3835.3217      0              0             -132.43824      104002.09      47.027009      47.027009      47.027009      0.80656883     227.92998      585.89005      333.81527    
    705000   1410000        386.79908      339.65225      6265.3674      5749.8331      4149.5555      1600.2776      1395.5915      1415.574       2604.5431      0             -3815.431       0              0             -132.34523      104075.18      47.038023      47.038023      47.038023      0.80600236     298.9575       710.86379      9.1354606    
    705500   1411000        385.89387     -531.88641      4916.6617      5725.2513      4139.8445      1585.4068      1455.0426      1361.187       2612.7779      0             -3843.6007      0              0             -132.13628      104239.76      47.062804      47.062804      47.062804      0.80472983    -988.63748     -534.94903     -72.072702    
    706000   1412000        383.13648     -959.75016      4148.3524      5601.2422      4110.2634      1490.9788      1366.5075      1392.8017      2560.07        0             -3828.4005      0              0             -132.69571      103800.29      46.996573      46.996573      46.996573      0.80813687    -1180.8555     -1105.7021     -592.69288    
    706500   1413000        393.91399     -184.62147      5548.9453      5831.4997      4225.8838      1605.6159      1457.6976      1353.958       2606.857       0             -3812.8968      0              0             -131.2537       104940.69      47.168056      47.168056      47.168056      0.79935477     117.1379      -527.40174     -143.60057    
    707000   1414000        388.63818     -468.60411      4945.7198      5663.5052      4169.2853      1494.2199      1402.4571      1340.9625      2535.824       0             -3785.0237      0              0             -131.14231      105029.82      47.181406      47.181406      47.181406      0.79867643    -802.36007      113.4587      -716.91097    
    707500   1415000        390.70329     -385.30113      5127.748       5711.1446      4191.4397      1519.7049      1387.3997      1401.0555      2560.4059      0             -3829.1562      0              0             -132.66848      103821.6       46.999789      46.999789      46.999789      0.80797099     452.24608     -1417.8722     -190.27724    
    708000   1416000        387.69952      458.17358      6533.6102      5833.6502      4159.2154      1674.4348      1469.1417      1354.6135      2638.4682      0             -3787.7885      0              0             -131.48863      104753.19      47.139947      47.139947      47.139947      0.80078556     903.26289      975.84667     -504.58882    
    708500   1417000        388.77679     -623.72218      4808.8923      5771.5743      4170.7723      1600.802       1426.2663      1381.0594      2555.298       0             -3761.8217      0              0             -130.14865      105831.71      47.301175      47.301175      47.301175      0.79262488    -1215.2864     -441.30984     -214.57026    
    709000   1418000        391.17795      52.156106      5873.287       5793.9386      4196.5318      1597.4068      1448.0695      1383.1696      2575.2487      0             -3809.0811      0              0             -132.03783      104317.48      47.074498      47.074498      47.074498      0.80413028     435.6608       649.46004     -928.65252    
    709500   1419000        395.80209      415.75671      6386.3203      5761.1128      4246.1393      1514.9736      1410.5795      1391.6695      2557.7953      0             -3845.0708      0              0             -133.58154      103111.96      46.892459      46.892459      46.892459      0.81353169     701.79256      355.84546      189.63212    
    710000   1420000        381.83151      541.40856      6482.5427      5654.9928      4096.2638      1558.7289      1395.9777      1411.2591      2545.7913      0             -3794.2992      0              0             -131.42024      104807.71      47.148123      47.148123      47.148123      0.80036904     921.19785      658.41234      44.615479    
    710500   1421000        389.92322     -233.25372      5350.0514      5705.8055      4183.0711      1522.7344      1381.1232      1413.9029      2533.8069      0             -3806.0986      0              0             -131.70733      104579.25      47.113841      47.113841      47.113841      0.80211747    -260.05903     -93.145517     -346.55661    
    711000   1422000        390.45761      35.664642      5909.113       5855.0842      4188.804       1666.2802      1406.5718      1464.2259      2596.4111      0             -3800.9286      0              0             -132.60004      103875.19      47.007874      47.007874      47.007874      0.80755418     163.9549       199.80234     -256.7633     
    711500   1423000        382.29128      259.74039      6020.1408      5629.3029      4101.1962      1528.1067      1387.8655      1361.6888      2649.5203      0             -3870.9679      0              0             -133.49783      103176.62      46.902259      46.902259      46.902259      0.81302185    -56.017262      151.505        683.73344    
    712000   1424000        379.65448     -470.94402      4925.0346      5636.477       4072.9088      1563.5682      1393.6044      1369.1351      2622.449       0             -3821.6203      0              0             -132.97221      103584.45      46.963976      46.963976      46.963976      0.80982078    -72.61777      -1070.2288     -269.98548    
    712500   1425000        388.98737      756.99007      6993.7913      5847.5646      4173.0314      1674.5333      1442.6141      1445.2308      2623.4518      0             -3836.7634      0              0             -132.66338      103825.59      47.000391      47.000391      47.000391      0.80793994     117.75461      1133.3549      1019.8607    
    713000   1426000        394.28781     -200.73455      5490.1738      5792.2728      4229.8942      1562.3786      1385.0463      1436.9552      2620.3159      0             -3879.9388      0              0             -133.47631      103193.25      46.904779      46.904779      46.904779      0.81289082    -607.63934     -94.937649      100.37333    
    713500   1427000        385.59001     -401.99899      5024.8697      5620.5589      4136.5847      1483.9742      1413.846       1358.3137      2641.104       0             -3929.2896      0              0             -135.56158      101605.88      46.663031      46.663031      46.663031      0.82559043    -355.34598     -465.89223     -384.75877    
    714000   1428000        395.01512      387.77752      6478.7317      5891.0789      4237.6966      1653.3823      1436.7103      1385.4742      2648.4191      0             -3817.2212      0              0             -132.55411      103911.18      47.013302      47.013302      47.013302      0.80727448     1328.8951     -106.0131      -59.549461    
    714500   1429000        387.76559     -879.27406      4409.4128      5730.1553      4159.9242      1570.2311      1369.6303      1386.1844      2663.3234      0             -3848.907       0              0             -133.73266      102995.44      46.874789      46.874789      46.874789      0.81445204    -691.64154     -884.4767      -1061.7039    
    715000   1430000        387.2922      -126.05502      5520.906       5711.2931      4154.8456      1556.4474      1429.2907      1391.6183      2563.7078      0             -3828.1695      0              0             -133.00077      103562.21      46.960615      46.960615      46.960615      0.80999469    -232.67569     -264.766        119.27664    
    715500   1431000        386.98073      357.71553      6193.1235      5658.1116      4151.5042      1506.6073      1375.3593      1365.6055      2614.578       0             -3848.9355      0              0             -134.30918      102553.33      46.807623      46.807623      46.807623      0.81796315     163.68725      816.12893      93.330397    
    716000   1432000        397.02716      1049.5845      7440.5162      5862.8559      4259.2817      1603.5742      1401.5031      1390.6141      2630.5307      0             -3819.0737      0              0             -133.63963      103067.14      46.885664      46.885664      46.885664      0.81388546     517.3798       1769.2106      862.16292    
    716500   1433000        385.30196     -241.97205      5400.003       5767.0563      4133.4945      1633.5618      1385.6038      1428.1963      2626.7475      0             -3806.9859      0              0             -132.42423      104013.09      47.028667      47.028667      47.028667      0.8064835     -158.82085     -639.95599      72.86068     
    717000   1434000        398.12123      123.54862      6040.0921      5853.4017      4271.0189      1582.3829      1385.3882      1428.279       2605.2238      0             -3836.5081      0              0             -132.93746      103611.53      46.968068      46.968068      46.968068      0.80960914     819.93967     -394.49756     -54.796231    
    717500   1435000        390.09618      704.61546      6794.5152      5736.7858      4184.9266      1551.8592      1389.3268      1397.1355      2618.2567      0             -3852.8598      0              0             -133.81628      102931.08      46.865024      46.865024      46.865024      0.81496128     355.1135       236.38565      1522.3472    
    718000   1436000        391.52919      140.8202       5934.6445      5723.0957      4200.2999      1522.7959      1412.3733      1408.0225      2556.6364      0             -3854.2363      0              0             -133.71677      103007.68      46.876646      46.876646      46.876646      0.81435524    -1131.3571      755.92774      797.88992    
    718500   1437000        385.36966      80.530738      5859.5747      5738.3357      4134.2208      1604.1149      1379.6476      1442.3049      2625.8372      0             -3843.6749      0              0             -133.42914      103229.73      46.910305      46.910305      46.910305      0.81260357    -340.75827      91.183619      491.16686    
    719000   1438000        384.26263      186.58927      6010.4393      5727.2692      4122.3447      1604.9245      1443.2956      1376.5302      2603.7488      0             -3818.6501      0              0             -132.36425      104060.23      47.03577       47.03577       47.03577       0.80611821     500.237        377.27651     -317.7457     
    719500   1439000        387.93532     -761.02322      4599.1594      5748.2398      4161.745       1586.4948      1430.8639      1384.2221      2585.506       0             -3814.0972      0              0             -133.03896      103532.48      46.956121      46.956121      46.956121      0.81022729    -99.896448     -1205.3222     -977.85103    
    720000   1440000        395.19404      99.776483      6001.9097      5851.8917      4239.6161      1612.2756      1444.6329      1406.5127      2616.073       0             -3854.9429      0              0             -133.603        103095.39      46.889948      46.889948      46.889948      0.81366237     69.092562     -621.31238      851.54927    
    720500   1441000        391.50647     -154.85191      5559.6564      5790.3691      4200.0561      1590.313       1412.8837      1389.4469      2664.4921      0             -3876.5097      0              0             -134.82685      102159.58      46.747641      46.747641      46.747641      0.82111578     327.44355      22.877646     -814.87693    
    721000   1442000        389.69029     -191.83749      5307.9889      5594.407       4180.5722      1413.8348      1390.9248      1388.2478      2529.4288      0             -3894.7666      0              0             -134.54402      102374.33      46.780374      46.780374      46.780374      0.81939336    -156.90011     -151.59726     -267.01511    
    721500   1443000        395.50343      184.65154      5993.6099      5716.8733      4242.9352      1473.9381      1414.4011      1337.2952      2595.9061      0             -3873.6643      0              0             -134.03484      102763.24      46.839537      46.839537      46.839537      0.81629232    -103.70952      116.67115      540.99298    
    722000   1444000        393.46837     -142.14631      5574.8498      5786.7799      4221.1033      1565.6766      1460.614       1400.7807      2616.0397      0             -3911.7577      0              0             -134.73309      102230.67      46.758482      46.758482      46.758482      0.82054477    -235.84582     -619.39276      428.79966    
    722500   1445000        383.82453     -199.69594      5254.8871      5554.7563      4117.6448      1437.1115      1424.2023      1408.1825      2533.4623      0             -3928.7357      0              0             -133.77308      102964.32      46.870068      46.870068      46.870068      0.81469819    -185.62894     -90.566915     -322.89197    
    723000   1446000        396.09594      338.50909      6387.5446      5880.339       4249.2916      1631.0474      1443.8915      1451.7909      2601.3273      0             -3865.9622      0              0             -134.0657       102739.58      46.835943      46.835943      46.835943      0.81648027     67.369503      697.54933      250.60844    
    723500   1447000        386.77642      82.852814      5827.0518      5703.2247      4149.3124      1553.9122      1453.1718      1372.1625      2617.9256      0             -3889.3476      0              0             -134.40731      102478.46      46.79623       46.79623       46.79623       0.81856072     741.93521     -488.60346     -4.7733041    
    724000   1448000        392.76296     -265.86988      5324.0468      5722.6694      4213.5356      1509.1338      1407.749       1446.3601      2551.5416      0             -3896.5168      0              0             -133.97955      102805.64      46.845979      46.845979      46.845979      0.81595562    -15.279412      36.171099     -818.50132    
    724500   1449000        377.08572      74.476689      5727.6721      5615.4091      4045.3512      1570.0579      1445.1792      1447.1068      2547.0708      0             -3869.2989      0              0             -133.26476      103357.06      46.929585      46.929585      46.929585      0.81160245     160.81478     -409.42543      472.04071    
    725000   1450000        388.68186     -166.25346      5441.9694      5691.165       4169.7538      1521.4112      1420.9239      1399.5205      2579.1887      0             -3878.2219      0              0             -134.01757      102776.48      46.841549      46.841549      46.841549      0.81618714    -350.05063     -530.87403      382.16427    
    725500   1451000        382.39619      72.643319      5754.2936      5644.4037      4102.3216      1542.0821      1395.0866      1443.8846      2566.2144      0             -3863.1034      0              0             -132.79114      103725.7       46.985313      46.985313      46.985313      0.80871805     130.68553      669.61517     -582.37074    
    726000   1452000        390.66666     -5.2408047      5836.2331      5844.169       4191.0467      1653.1222      1483.7978      1426.8686      2612.715       0             -3870.2592      0              0             -132.65911      103828.93      47.000895      47.000895      47.000895      0.80791397     245.77197     -360.63896      99.144579    
    726500   1453000        383.51991     -975.0112       4288.6221      5768.3988      4114.3769      1654.0219      1470.4823      1438.2911      2574.1008      0             -3828.8522      0              0             -132.35635      104066.44      47.036706      47.036706      47.036706      0.80607006    -583.536       -1222.0255     -1119.4721    
    727000   1454000        391.89308     -311.56654      5420.7535      5898.6008      4204.2037      1694.3972      1470.283       1389.0723      2645.3384      0             -3810.2965      0              0             -130.97639      105162.87      47.20132       47.20132       47.20132       0.79766595    -661.17567      132.1195      -405.64345    
    727500   1455000        380.30184      55.004852      5717.8702      5634.0817      4079.8536      1554.2282      1469.9036      1337.0714      2564.7852      0             -3817.532       0              0             -131.87066      104449.73      47.094382      47.094382      47.094382      0.80311214    -116.54912     -318.48738      600.05106    
    728000   1456000        383.85088      266.45318      6027.4287      5624.4137      4117.9274      1506.4863      1404.7642      1374.5935      2571.399       0             -3844.2704      0              0             -132.81011      103710.88      46.983076      46.983076      46.983076      0.80883358     465.43219     -145.92637      479.85373    
    728500   1457000        398.06551      246.76197      6263.9762      5887.0524      4270.4211      1616.6313      1419.9565      1434.0852      2595.0351      0             -3832.4455      0              0             -131.50917      104736.83      47.137492      47.137492      47.137492      0.80091066     835.06992     -447.98761      353.20361    
    729000   1458000        384.48647     -626.91948      4661.3802      5606.248       4124.746       1481.502       1409.7785      1358.1659      2585.4888      0             -3871.9311      0              0             -133.28218      103343.55      46.927541      46.927541      46.927541      0.81170855    -879.51877     -445.93696     -555.30273    
    729500   1459000        386.53842     -175.06299      5459.9419      5725.778       4146.7592      1579.0188      1422.1666      1421.273       2546.5183      0             -3810.939       0              0             -132.28536      104122.28      47.045118      47.045118      47.045118      0.80563778    -909.64744     -337.46531      721.92379    
    730000   1460000        405.66718     -229.50628      5693.9573      6044.277       4351.9713      1692.3056      1462.5193      1413.9532      2617.4         0             -3801.5669      0              0             -131.60167      104663.22      47.126446      47.126446      47.126446      0.80147397     468.49956     -928.16023     -228.85818    
    730500   1461000        385.76295     -83.488798      5597.6525      5725.0539      4138.44        1586.6139      1434.0767      1389.227       2567.0032      0             -3803.693       0              0             -131.63925      104633.34      47.121962      47.121962      47.121962      0.80170282     70.476878     -340.05718      19.113909    
    731000   1462000        389.3931       148.9546       5909.0218      5680.663       4177.384       1503.279       1361.1985      1344.6833      2592.9532      0             -3795.556       0              0             -131.02903      105120.63      47.194999      47.194999      47.194999      0.79798652     496.33939      502.0267      -551.50229    
    731500   1463000        388.14276      71.655837      5885.53        5776.3185      4163.9704      1612.3481      1427.5716      1372.4201      2621.1189      0             -3808.7624      0              0             -131.79982      104505.86      47.102817      47.102817      47.102817      0.80268074     771.25114     -387.9503      -168.33332    
    732000   1464000        388.74243      185.37715      6068.1231      5784.026       4170.4036      1613.6224      1404.8428      1383.6491      2559.7177      0             -3734.5872      0              0             -131.07531      105083.51      47.189444      47.189444      47.189444      0.79826836     749.22274      267.09881     -460.19009    
    732500   1465000        388.60613      499.99098      6474.6763      5717.1725      4168.9414      1548.2311      1404.4098      1433.7135      2536.3346      0             -3826.2269      0              0             -132.58937      103883.54      47.009134      47.009134      47.009134      0.80748924     735.01651      729.69498      35.261448    
    733000   1466000        388.4984       183.52641      5987.6687      5708.0684      4167.7857      1540.2826      1365.5338      1389.9637      2604.512       0             -3819.7269      0              0             -131.85371      104463.15      47.0964        47.0964        47.0964        0.80300892     446.00485      645.22896     -540.65458    
    733500   1467000        391.51139      490.70297      6469.4182      5725.2301      4200.1089      1525.1212      1375.3017      1410.9684      2576.818       0             -3837.9669      0              0             -132.45469      103989.18      47.025063      47.025063      47.025063      0.80666897     1041.53        410.38641      20.192547    
    734000   1468000        394.91859     -1033.6745      4206.5584      5781.5306      4236.6611      1544.8695      1381.7534      1393.7263      2594.407       0             -3825.0173      0              0             -131.8385       104475.2       47.098211      47.098211      47.098211      0.80291629    -941.57887     -1458.4565     -700.98798    
    734500   1469000        383.07829     -789.40958      4593.2426      5797.3251      4109.6391      1687.686       1460.8108      1411.6923      2644.5942      0             -3829.4113      0              0             -131.6975       104587.06      47.115013      47.115013      47.115013      0.80205759    -924.53708     -366.88249     -1076.8092    
    735000   1470000        393.04165     -573.63361      4956.9124      5836.2405      4216.5254      1619.7151      1456.3049      1376.3505      2582.9542      0             -3795.8946      0              0             -131.04335      105109.14      47.193279      47.193279      47.193279      0.79807375    -513.10858     -472.33878     -735.45347    
    735500   1471000        397.58457      10.540027      5870.2862      5854.1905      4265.2615      1588.929       1451.442       1446.2372      2503.2816      0             -3812.0318      0              0             -131.54176      104710.88      47.133599      47.133599      47.133599      0.80110913     213.85906     -590.83554      408.59656    
    736000   1472000        390.61567      77.927002      5887.6589      5769.9038      4190.4996      1579.4042      1395.6881      1452.6001      2557.9807      0             -3826.8648      0              0             -132.93518      103613.31      46.968337      46.968337      46.968337      0.80959523     809.15394     -87.55385      -487.81909    
    736500   1473000        383.6529       45.225931      5652.9454      5584.9327      4115.8035      1469.1291      1375.9323      1390.8936      2583.5561      0             -3881.2529      0              0             -133.57597      103116.25      46.893111      46.893111      46.893111      0.81349777     262.52924      629.78655     -756.63799    
    737000   1474000        385.50044     -601.74046      4796.9692      5710.1999      4135.6238      1574.5761      1381.7597      1355.3762      2673.5117      0             -3836.0715      0              0             -132.36101      104062.78      47.036154      47.036154      47.036154      0.80609845    -196.58394     -1037.2847     -571.35271    
    737500   1475000        391.6058       238.43569      6029.9153      5676.5152      4201.1217      1475.3935      1396.7352      1391.3284      2570.9742      0             -3883.6443      0              0             -135.53016      101629.44      46.666638      46.666638      46.666638      0.82539905     322.1622       672.10163     -278.95676    
    738000   1476000        397.31255     -682.00038      4841.2147      5865.8387      4262.3434      1603.4953      1422.5166      1410.4021      2611.7613      0             -3841.1847      0              0             -133.70617      103015.84      46.877884      46.877884      46.877884      0.81429072    -884.1957      -677.37043     -484.43501    
    738500   1477000        380.55412     -297.68549      5229.6493      5678.9363      4082.56        1596.3763      1386.6227      1408.2872      2646.6402      0             -3845.1738      0              0             -133.09605      103488.08      46.949406      46.949406      46.949406      0.81057497    -485.95277     -310.42006     -96.683634    
    739000   1478000        391.04253     -896.34698      4430.7859      5774.2957      4195.079       1579.2167      1368.6593      1472.5987      2642.4656      0             -3904.5069      0              0             -134.0191       102775.31      46.841371      46.841371      46.841371      0.81619646    -1433.1317     -599.06504     -656.8442     
    739500   1479000        383.98343     -157.89815      5452.5404      5689.6916      4119.3494      1570.3422      1431.3008      1419.0777      2608.2909      0             -3888.3272      0              0             -133.74675      102984.59      46.873143      46.873143      46.873143      0.81453784     106.84372     -544.06198     -36.476186    
    740000   1480000        382.8547      -205.86391      5366.5231      5676.4607      4107.2405      1569.2202      1381.2053      1452.1576      2561.6953      0             -3825.838       0              0             -133.42503      103232.91      46.910788      46.910788      46.910788      0.8125785      93.352253     -173.2946      -537.6494     
    740500   1481000        396.33233      529.8967       6646.0925      5850.1701      4251.8276      1598.3425      1374.8527      1462.4296      2625.9339      0             -3864.8737      0              0             -133.73709      102992.03      46.874272      46.874272      46.874272      0.814479       1373.8997     -71.096184      286.88658    
    741000   1482000        398.87801      219.56017      6170.8751      5842.3848      4279.1375      1563.2473      1341.1535      1447.222       2696.8874      0             -3922.0156      0              0             -134.26486      102587.19      46.812774      46.812774      46.812774      0.81769319     379.44261      309.22372     -29.9858      
    741500   1483000        378.13904      204.00738      5807.9168      5505.2943      4056.6512      1448.6431      1400.1345      1402.9109      2564.6234      0             -3919.0257      0              0             -135.41788      101713.7       46.679531      46.679531      46.679531      0.82471527     581.01759     -132.73484      163.73939    
    742000   1484000        395.37136      45.30492       5868.5217      5800.4439      4241.5184      1558.9254      1380.1593      1394.7381      2650.2293      0             -3866.2013      0              0             -133.68141      103034.92      46.880779      46.880779      46.880779      0.81413991     191.98465      243.69216     -299.76205    
    742500   1485000        382.72886      336.75963      6168.8534      5659.097       4105.8905      1553.2065      1377.4834      1474.7392      2569.7131      0             -3868.7291      0              0             -132.70543      103792.69      46.995426      46.995426      46.995426      0.80819605     317.5          39.976154      652.80273    
    743000   1486000        403.17686     -49.381778      5735.5266      5809.5026      4325.2553      1484.2473      1376.5239      1380.0502      2613.3638      0             -3885.6906      0              0             -134.09332      102718.42      46.832727      46.832727      46.832727      0.8166485     -28.682429     -194.12486      74.66196     
    743500   1487000        380.25126      81.153903      5780.5906      5658.4868      4079.3109      1579.1759      1389.6963      1428.8653      2613.0251      0             -3852.4109      0              0             -133.50931      103167.74      46.900914      46.900914      46.900914      0.81309179     42.203728      310.10164     -108.84366    
    744000   1488000        384.4015       587.63939      6492.8518      5613.4269      4123.8344      1489.5925      1383.3315      1353.0177      2642.0915      0             -3888.8482      0              0             -134.22812      102615.26      46.817044      46.817044      46.817044      0.81746947     901.5111       953.03481     -91.627752    
    744500   1489000        395.82183      892.41523      7091.0567      5764.9368      4246.351       1518.5858      1415.8662      1377.6222      2657.445       0             -3932.3476      0              0             -135.18097      101891.96      46.706785      46.706785      46.706785      0.82327243     695.31809      1090.0646      891.86305    
    745000   1490000        395.40801     -242.04992      5420.63        5786.8806      4241.9116      1544.969       1411.2534      1370.8079      2620.3119      0             -3857.4042      0              0             -132.75718      103752.24      46.989319      46.989319      46.989319      0.80851119    -352.57877     -721.8004       348.22942    
    745500   1491000        388.91425     -217.68902      5434.4725      5761.9062      4172.247       1589.6592      1414.7792      1477.0073      2558.51        0             -3860.6373      0              0             -133.55018      103136.17      46.89613       46.89613       46.89613       0.81334067    -491.48764     -47.599038     -113.98038    
    746000   1492000        390.74861     -956.25825      4308.4524      5747.762       4191.9259      1555.8361      1438.9335      1389.5674      2577.0392      0             -3849.704       0              0             -133.46038      103205.57      46.906645      46.906645      46.906645      0.81279378    -405.30476     -1304.487      -1158.983     
    746500   1493000        394.60906      1032.0669      7444.9493      5879.9028      4233.3405      1646.5623      1430.2898      1410.2414      2642.7182      0             -3836.6872      0              0             -132.4683       103978.49      47.023451      47.023451      47.023451      0.8067519      732.04894      1266.8964      1097.2554    
    747000   1494000        383.63681      352.6122       6261.7098      5734.1625      4115.6309      1618.5316      1491.9109      1404.7889      2613.5277      0             -3891.6959      0              0             -134.26637      102586.03      46.812598      46.812598      46.812598      0.81770239     491.25779      523.76425      42.814554    
    747500   1495000        396.60256     -535.05846      5072.0166      5882.2162      4254.7266      1627.4896      1447.5022      1416.3028      2613.1953      0             -3849.5107      0              0             -132.66018      103828.09      47.000769      47.000769      47.000769      0.80792047    -1545.2418     -459.64247      399.70887    
    748000   1496000        395.74812      66.739917      5924.6228      5822.9979      4245.5603      1577.4376      1454.1078      1390.8586      2521.7232      0             -3789.252       0              0             -131.92191      104409.15      47.088283      47.088283      47.088283      0.80342426    -424.69595     -499.1553       1124.071     
    748500   1497000        393.7715       438.35702      6402.3315      5739.8964      4224.3552      1515.5411      1366.224       1419.3233      2558.3447      0             -3828.3509      0              0             -132.92784      103619.03      46.969201      46.969201      46.969201      0.80955058     604.95334      589.3763       120.74141    
    749000   1498000        389.79481     -305.98928      5224.8864      5689.6917      4181.6935      1507.9982      1401.8271      1369.9356      2572.2274      0             -3835.9918      0              0             -132.24111      104157.13      47.050365      47.050365      47.050365      0.80536827     18.213546     -1208.7272      272.54584    
    749500   1499000        387.13182     -409.96331      5144.4234      5766.5917      4153.1252      1613.4666      1425.6238      1471.9947      2563.332       0             -3847.4839      0              0             -132.36356      104060.77      47.035852      47.035852      47.035852      0.80611399    -148.31944     -496.65335     -584.91716    
    750000   1500000        392.72337      653.11213      6728.2492      5734.777       4213.1109      1521.666       1360.7571      1402.6105      2576.981       0             -3818.6826      0              0             -132.05759      104301.87      47.07215       47.07215       47.07215       0.8042506      204.71105      557.97424      1196.6511    
    750500   1501000        390.81209     -466.86269      5096.1682      5811.8953      4192.6069      1619.2884      1436.4222      1346.9899      2640.1127      0             -3804.2365      0              0             -131.0307       105119.29      47.194799      47.194799      47.194799      0.79799665    -177.23823     -1258.8804      35.530603    
    751000   1502000        392.38661     -274.26341      5456.49        5870.5011      4209.4982      1661.003       1460.7373      1396.91        2639.8217      0             -3836.466       0              0             -133.07216      103506.66      46.952216      46.952216      46.952216      0.81042947     779.07429     -800.69995     -801.16458    
    751500   1503000        386.11612      508.44263      6496.6447      5730.8878      4142.2288      1588.6589      1430.0205      1427.7816      2584.907       0             -3854.0501      0              0             -133.37745      103269.74      46.916365      46.916365      46.916365      0.81228872    -83.424065      449.42105      1159.3309    
    752000   1504000        396.89853     -607.33136      4915.9705      5826.9278      4257.9017      1569.026       1429.8894      1383.499       2613.7031      0             -3858.0655      0              0             -133.9242       102848.14      46.852432      46.852432      46.852432      0.8156185     -577.85626     -530.5986      -713.53921    
    752500   1505000        390.00485     -260.00989      5443.0535      5835.1781      4183.9468      1651.2313      1458.0462      1397.7217      2635.2295      0             -3839.7661      0              0             -133.19783      103409         46.937445      46.937445      46.937445      0.8111948     -777.94982      180.02186     -182.10173    
    753000   1506000        384.05859      228.67728      6021.6007      5678.6249      4120.1557      1558.4692      1433.1361      1367.7597      2637.0376      0             -3879.4642      0              0             -133.93404      102840.58      46.851285      46.851285      46.851285      0.81567843     176.38781     -341.86159      851.50562    
    753500   1507000        392.72085      52.547411      5921.9683      5842.4926      4213.0839      1629.4087      1450.2164      1383.8325      2646.6241      0             -3851.2642      0              0             -132.81542      103706.74      46.98245       46.98245       46.98245       0.80886591     108.99308      450.0824      -401.43325    
    754000   1508000        384.1823      -53.914384      5560.384       5642.6513      4121.4829      1521.1683      1402.7708      1362.4478      2570.6342      0             -3814.6845      0              0             -131.64635      104627.69      47.121114      47.121114      47.121114      0.8017461     -264.07556     -71.567391      173.89979    
    754500   1509000        392.12739     -173.42401      5489.8833      5751.5285      4206.7173      1544.8112      1357.9852      1423.5507      2629.0922      0             -3865.8169      0              0             -133.14593      103449.31      46.943543      46.943543      46.943543      0.81087872    -881.53733      88.905029      272.36028    
    755000   1510000        392.93042     -54.043633      5773.859       5855.3425      4215.3322      1640.0103      1421.027       1455.2247      2598.5176      0             -3834.7589      0              0             -133.23136      103382.97      46.933507      46.933507      46.933507      0.81139904    -68.317672      302.99731     -396.81053    
    755500   1511000        388.73972      467.80811      6422.2617      5707.493       4170.3746      1537.1184      1393.1973      1390.8787      2554.2587      0             -3801.2163      0              0             -131.47209      104766.38      47.141924      47.141924      47.141924      0.80068479     1135.8429      109.74705      157.83437    
    756000   1512000        397.9092      -26.275488      5750.6486      5790.2047      4268.7442      1521.4606      1413.2956      1403.7573      2536.8355      0             -3832.4279      0              0             -133.43459      103225.52      46.909667      46.909667      46.909667      0.81263672    -158.5638       598.34605     -518.60871    
    756500   1513000        397.909        383.08096      6406.4985      5822.0542      4268.7421      1553.3122      1423.3156      1392.0277      2556.8866      0             -3818.9178      0              0             -131.66758      104610.83      47.118582      47.118582      47.118582      0.80187535     640.56683      1063.0836     -554.40751    
    757000   1514000        383.13481     -693.52542      4589.7023      5646.5708      4110.2454      1536.3253      1411.516       1414.6265      2564.2464      0             -3854.0635      0              0             -131.81742      104491.91      47.100721      47.100721      47.100721      0.80278795    -457.95185     -1169.6779     -452.94653    
    757500   1515000        387.22601     -748.96839      4642.111       5786.4321      4154.1356      1632.2965      1427.0248      1384.8468      2647.2509      0             -3826.826       0              0             -131.47614      104763.14      47.141439      47.141439      47.141439      0.8007095     -1499.3762     -71.861245     -675.66769    
    758000   1516000        396.00492      691.77612      6942.5123      5898.8642      4248.3152      1650.549       1450.7224      1396.0265      2654.1256      0             -3850.3255      0              0             -133.15052      103445.74      46.943003      46.943003      46.943003      0.81090671     271.95459      821.6357       981.73806    
    758500   1517000        389.04067      355.00251      6305.1623      5764.8972      4173.6032      1591.294       1406.3584      1427.397       2605.3391      0             -3847.8004      0              0             -131.99451      104351.72      47.079647      47.079647      47.079647      0.80386646     243.10191     -20.926207      842.83183    
    759000   1518000        395.16248     -221.4563       5490.7337      5826.1933      4239.2776      1586.9158      1445.4719      1434.7639      2550.8887      0             -3844.2088      0              0             -132.61086      103866.71      47.006595      47.006595      47.006595      0.8076201      80.90841      -186.11992     -559.15739    
    759500   1519000        388.49658      235.96765      6071.2378      5715.5292      4167.7662      1547.763       1415.4103      1478.5882      2559.443       0             -3905.6786      0              0             -133.25683      103363.22      46.930517      46.930517      46.930517      0.81155412     916.56541     -37.961419     -170.70104    
    760000   1520000        395.65509      55.506394      5819.8706      5735.8692      4244.5622      1491.307       1382.9873      1427.6097      2522.4799      0             -3841.7699      0              0             -132.73568      103769.04      46.991856      46.991856      46.991856      0.80838025    -267.79223      449.59701     -15.2856      
    760500   1521000        389.95447     -260.80209      5187.5633      5580.3659      4183.4063      1396.9596      1374.4268      1391.0457      2505.774       0             -3874.287       0              0             -133.37303      103273.16      46.916883      46.916883      46.916883      0.81226184    -5.5868733     -132.82173     -643.99766    
    761000   1522000        393.51678      206.43334      6015.6919      5703.8789      4221.6226      1482.2563      1418.8576      1371.1117      2549.0624      0             -3856.7755      0              0             -132.98939      103571.07      46.961954      46.961954      46.961954      0.80992539     773.46882     -538.53576      384.36694    
    761500   1523000        395.48812      356.89554      6472.5734      5931.8093      4242.771       1689.0383      1441.3918      1421.0005      2629.792       0             -3803.146       0              0             -132.57591      103894.09      47.010725      47.010725      47.010725      0.80740726     220.39221     -12.300328      862.59474    
    762000   1524000        393.82454     -413.17778      5138.1758      5770.2165      4224.9243      1545.2923      1442.6226      1338.3429      2566.5145      0             -3802.1878      0              0             -131.31769      104889.55      47.160392      47.160392      47.160392      0.79974451     175.85232     -808.38935     -606.99632    
    762500   1525000        393.34385     -1046.135       4159.7683      5757.4154      4219.7673      1537.6481      1396.3929      1377.8117      2561.8644      0             -3798.4209      0              0             -131.53406      104717.01      47.134519      47.134519      47.134519      0.80106223    -871.20158     -1709.8629     -557.34042    
    763000   1526000        387.57        -20.486698      5723.4355      5754.266       4157.826       1596.44        1420.1174      1390.3268      2654.3601      0             -3868.3642      0              0             -133.48197      103188.87      46.904116      46.904116      46.904116      0.81292527    -892.94369      989.16909     -157.68549    
    763500   1527000        383.27483     -858.78559      4275.5054      5571.1207      4111.7476      1459.373       1389.2733      1426.6704      2523.5812      0             -3880.1518      0              0             -133.14966      103446.41      46.943105      46.943105      46.943105      0.81090145    -962.74825     -467.74899     -1145.8595    
    764000   1528000        395.27095      330.16424      6201.72        5704.9179      4240.4412      1464.4768      1396.2043      1404.8746      2535.9031      0             -3872.5052      0              0             -133.49901      103175.7       46.90212       46.90212       46.90212       0.81302905     344.43587     -301.94755      948.00439    
    764500   1529000        393.7714       12.335087      5834.7594      5816.1954      4224.3542      1591.8412      1393.3167      1466.0171      2602.2062      0             -3869.6988      0              0             -133.47556      103193.83      46.904866      46.904866      46.904866      0.81288627     241.23767      98.457524     -302.68994    
    765000   1530000        386.08929      265.39869      6013.4137      5612.9511      4141.941       1471.0101      1353.039       1439.8701      2566.1553      0             -3888.0543      0              0             -133.12762      103463.53      46.945694      46.945694      46.945694      0.81076726     394.14334      286.51311      115.53963    
    765500   1531000        389.00999     -233.5272       5376.2109      5730.7982      4173.274       1557.5242      1397.4846      1436.4781      2557.3336      0             -3833.7721      0              0             -132.29565      104114.19      47.043898      47.043898      47.043898      0.80570042    -1284.7705      24.042153      560.14675    
    766000   1532000        384.32518      28.832997      5681.4395      5637.5295      4123.0157      1514.5138      1378.8429      1412.5597      2525.1768      0             -3802.0656      0              0             -131.90397      104423.35      47.090417      47.090417      47.090417      0.80331501     829.54401     -620.14518     -122.89983    
    766500   1533000        391.36163      533.40474      6601.0721      5795.1504      4198.5023      1596.6481      1411.6853      1428.8477      2602.4592      0             -3846.3441      0              0             -132.95215      103600.08      46.966338      46.966338      46.966338      0.80969862     671.99528      884.98987      43.229062    
    767000   1534000        386.77758     -51.82691       5652.1631      5731.639       4149.3249      1582.3141      1417.0852      1374.341       2590.9615      0             -3800.0734      0              0             -130.99391      105148.81      47.199216      47.199216      47.199216      0.79777265    -483.74216      142.25731      186.00411    
    767500   1535000        400.10477     -724.43621      4854.1054      5968.7022      4292.2981      1676.4041      1419.4258      1448.4845      2581.907       0             -3773.4133      0              0             -130.56109      105497.39      47.251316      47.251316      47.251316      0.79513667     66.391836     -1492.8201     -746.88033    
    768000   1536000        390.35236     -578.5749       4936.297       5827.7539      4187.6749      1640.079       1477.087       1406.1944      2517.9176      0             -3761.1199      0              0             -130.37388      105648.87      47.273921      47.273921      47.273921      0.79399656    -349.52458     -686.86891     -699.33122    
    768500   1537000        384.45758     -892.95247      4350.7707      5717.559       4124.4361      1593.1229      1454.8738      1399.8545      2543.9739      0             -3805.5793      0              0             -131.23765      104953.53      47.169978      47.169978      47.169978      0.79925704    -1999.9613     -599.37467     -79.521473    
    769000   1538000        386.15242      63.288852      5804.5275      5708.5345      4142.6182      1565.9163      1419.8253      1456.0382      2510.5153      0             -3820.4625      0              0             -132.4399       104000.79      47.026812      47.026812      47.026812      0.80657893    -23.53288       189.1334       24.266036    
    769500   1539000        391.66098     -39.376618      5614.8877      5674.1878      4201.7137      1472.4741      1368.4263      1399.549       2557.637       0             -3853.1382      0              0             -133.38727      103262.13      46.915213      46.915213      46.915213      0.81234855    -134.49471     -174.72008      191.08494    
    770000   1540000        392.64046      30.217551      5835.611       5789.7358      4212.2214      1577.5143      1420.188       1400.2698      2576.2531      0             -3819.1966      0              0             -132.31599      104098.19      47.041488      47.041488      47.041488      0.80582426    -385.46143      595.04124     -118.92716    
    770500   1541000        390.43107     -80.308562      5608.7949      5730.1752      4188.5193      1541.6559      1416.2337      1366.421       2597.5756      0             -3838.5744      0              0             -132.90614      103635.95      46.971758      46.971758      46.971758      0.80941838    -310.70715      718.47505     -648.69359    
    771000   1542000        392.03535     -555.73206      4871.8225      5719.6863      4205.7299      1513.9564      1360.4563      1463.5878      2526.6562      0             -3836.744       0              0             -131.66512      104612.78      47.118875      47.118875      47.118875      0.80186039    -861.60388     -165.59798     -639.99431    
    771500   1543000        394.51535     -39.905391      5743.9961      5804.0794      4232.3352      1571.7442      1411.2174      1462.7482      2551.9199      0             -3854.1412      0              0             -133.41639      103239.59      46.9118        46.9118        46.9118        0.81252591    -164.20314      92.968801     -48.481834    
    772000   1544000        383.25768     -39.299468      5585.4552      5644.8872      4111.5636      1533.3236      1384.085       1392.5443      2594.1142      0             -3837.4199      0              0             -132.8305       103694.96      46.980672      46.980672      46.980672      0.80895774     458.76044     -534.3935      -42.265343    
    772500   1545000        394.69689     -196.62111      5522.3595      5820.7295      4234.2827      1586.4468      1464.9211      1409.3376      2562.8536      0             -3850.6655      0              0             -132.3751       104051.7       47.034485      47.034485      47.034485      0.80618429    -343.79753     -138.07803     -107.98777    
    773000   1546000        385.80427     -28.270863      5658.5627      5701.2601      4138.8832      1562.3769      1417.7402      1463.8243      2540.3254      0             -3859.513       0              0             -133.00521      103558.75      46.960092      46.960092      46.960092      0.81002175    -127.39309      273.98066     -231.40016    
    773500   1547000        387.80623     -1016.5822      4156.2864      5707.2582      4160.3602      1546.898       1422.7081      1354.0885      2585.8913      0             -3815.7898      0              0             -131.66489      104612.96      47.118902      47.118902      47.118902      0.80185901    -1120.313      -1333.138      -596.29571    
    774000   1548000        391.63041      249.14699      6150.8395      5774.0131      4201.3857      1572.6274      1421.2487      1447.2072      2591.2301      0             -3887.0586      0              0             -132.81458      103707.39      46.982549      46.982549      46.982549      0.80886077     835.83604      16.624144     -105.0192     
    774500   1549000        392.77435      531.46725      6646.4731      5845.8703      4213.6579      1632.2124      1476.684       1420.2459      2582.8685      0             -3847.586       0              0             -133.3493       103291.54      46.919666      46.919666      46.919666      0.8121173      524.20063      559.61331      510.5878     
    775000   1550000        389.66756     -513.62883      4958.0556      5736.3089      4180.3284      1555.9805      1454.9577      1395.99        2583.2857      0             -3878.2529      0              0             -132.57442      103895.26      47.010901      47.010901      47.010901      0.80739819    -1108.6526      253.34187     -685.57574    
    775500   1551000        387.10268      652.27824      6641.5368      5655.9567      4152.8125      1503.1442      1393.568       1346.453       2628.8562      0             -3865.7329      0              0             -132.9451       103605.58      46.967168      46.967168      46.967168      0.80965568     813.28662      515.93983      627.60825    
    776000   1552000        397.29686     -388.28695      5202.1372      5788.87        4262.175       1526.695       1381.8813      1406.0603      2578.8731      0             -3840.1197      0              0             -132.93637      103612.38      46.968197      46.968197      46.968197      0.80960248    -453.01054     -414.95938     -296.89094    
    776500   1553000        385.26046     -240.16875      5374.1089      5739.8497      4133.0494      1606.8003      1465.482       1407.923       2550.8791      0             -3817.4837      0              0             -131.90902      104419.35      47.089816      47.089816      47.089816      0.80334578    -81.299956     -245.04043     -394.16587    
    777000   1554000        390.45524     -366.94885      5194.3498      5747.7438      4188.7786      1558.9652      1452.3075      1389.0255      2596.2968      0             -3878.6646      0              0             -133.19944      103407.74      46.937255      46.937255      46.937255      0.81120466    -730.70831     -379.30445      9.1662105    
    777500   1555000        389.28368     -632.51687      4818.8769      5781.1598      4176.2102      1604.9496      1433.0367      1387.079       2634.8031      0             -3849.9691      0              0             -132.03854      104316.92      47.074414      47.074414      47.074414      0.80413459    -545.6404       279.76105     -1631.6713    
    778000   1556000        386.02616     -61.451881      5676.4469      5769.6517      4141.2636      1628.3881      1441.3599      1408.1882      2600.5917      0             -3821.7518      0              0             -132.44281      103998.5       47.026468      47.026468      47.026468      0.80659663     215.52727     -348.16331     -51.719609    
    778500   1557000        390.05508     -389.81411      5204.042       5794.2584      4184.4857      1609.7728      1454.6005      1432.8023      2590.6172      0             -3868.2472      0              0             -132.6715       103819.24      46.999432      46.999432      46.999432      0.8079894     -347.51258     -338.55993     -483.36983    
    779000   1558000        388.74608      652.77918      6703.4525      5716.7196      4170.4428      1546.2769      1448.0152      1381.4574      2586.2416      0             -3869.4373      0              0             -132.89176      103647.16      46.973451      46.973451      46.973451      0.80933083     978.19936      1260.3992     -280.26101    
    779500   1559000        386.86892     -257.08124      5403.5148      5793.1241      4150.3048      1642.8193      1461.9861      1443.8526      2587.7553      0             -3850.7747      0              0             -132.54776      103916.16      47.014053      47.014053      47.014053      0.80723583     195.83321     -228.14104     -738.93587    
    780000   1560000        388.85399      240.38128      6059.3007      5699.1505      4171.6004      1527.5501      1398.7171      1415.4456      2566.2198      0             -3852.8324      0              0             -134.07517      102732.32      46.834839      46.834839      46.834839      0.81653798     116.60564      59.087425      545.45078    
    780500   1561000        379.46963     -68.778788      5527.8277      5631.8215      4070.9257      1560.8958      1423.7575      1395.0942      2600.7763      0             -3858.7322      0              0             -132.85517      103675.71      46.977764      46.977764      46.977764      0.80910798    -228.26843     -234.05205      255.98412    
    781000   1562000        389.56415     -930.57527      4411.1174      5820.347       4179.219       1641.128       1415.6396      1412.6168      2653.5031      0             -3840.6314      0              0             -132.64813      103837.53      47.002193      47.002193      47.002193      0.80784705    -1103.521      -946.21375     -741.99104    
    781500   1563000        395.0284       11.457304      5843.8409      5826.5676      4237.8391      1588.7285      1413.5033      1386.5328      2679.8804      0             -3891.188       0              0             -133.24098      103375.51      46.932377      46.932377      46.932377      0.8114576     -549.64527      241.1156       342.90158    
    782000   1564000        390.33157      559.78019      6669.8403      5827.5784      4187.4519      1640.1266      1448.4899      1457.1236      2618.6131      0             -3884.1001      0              0             -133.50629      103170.07      46.901268      46.901268      46.901268      0.81307341     498.64446      403.93109      776.76503    
    782500   1565000        394.14847      403.07174      6414.6813      5799.6893      4228.3993      1571.2899      1411.241       1409.9838      2579.2939      0             -3829.2288      0              0             -131.65709      104619.16      47.119833      47.119833      47.119833      0.80181149     1178.7031     -4.8740177      35.386084    
    783000   1566000        388.36194      359.56155      6105.9649      5569.4441      4166.3217      1403.1223      1350.1495      1385.4545      2544.128       0             -3876.6096      0              0             -134.6226       102314.57      46.77127       46.77127       46.77127       0.81987191     58.362145      791.32617      228.99633    
    783500   1567000        387.24047     -94.169098      5592.9228      5735.1158      4154.2907      1580.825       1429.2276      1431.7994      2586.7039      0             -3866.9059      0              0             -133.03372      103536.56      46.956737      46.956737      46.956737      0.81019539     44.609774     -507.08286      179.96579    
    784000   1568000        378.40164     -208.04665      5225.7574      5537.2855      4059.4683      1477.8172      1382.2861      1391.4583      2556.6986      0             -3852.6258      0              0             -134.15129      102674.04      46.82598       46.82598       46.82598       0.81700153    -413.08726      906.05838     -1117.1111    
    784500   1569000        393.33142      437.89328      6312.8326      5653.7136      4219.634       1434.0796      1345.2692      1431.8079      2538.4568      0             -3881.4543      0              0             -133.4553       103209.49      46.90724       46.90724       46.90724       0.81276289     743.91426      648.84279     -79.077211    
    785000   1570000        398.25856     -362.25926      5312.6669      5860.7963      4272.4921      1588.3042      1423.7154      1448.709       2574.6939      0             -3858.8141      0              0             -132.76016      103749.91      46.988968      46.988968      46.988968      0.80852934    -71.609321     -490.1656      -525.00286    
    785500   1571000        391.27146      242.33389      6080.4327      5716.8961      4197.5349      1519.3612      1375.8048      1357.6654      2650.5402      0             -3864.6491      0              0             -133.90518      102862.74      46.85465       46.85465       46.85465       0.81550273     65.808772      179.94043      481.25246    
    786000   1572000        394.68423      154.43476      6079.7177      5848.8708      4234.1469      1614.7239      1425.7979      1459.4368      2633.2754      0             -3903.7862      0              0             -134.38545      102495.13      46.798766      46.798766      46.798766      0.81842764    -368.79357      147.88845      684.20939    
    786500   1573000        387.71945     -324.0565       5172.36        5659.7625      4159.4292      1500.3334      1392.784       1392.3774      2594.3571      0             -3879.1852      0              0             -133.55628      103131.46      46.895416      46.895416      46.895416      0.81337783    -111.89791     -912.40511      52.133513    
    787000   1574000        392.32122      532.50494      6553.8553      5758.6961      4208.7967      1549.8994      1396.077       1403.1794      2624.2597      0             -3873.6167      0              0             -134.52435      102389.3       46.782654      46.782654      46.782654      0.81927354     529.51267      931.42513      136.57703    
    787500   1575000        384.19985     -98.989308      5484.3493      5632.6739      4121.6711      1511.0027      1380.7358      1396.426       2601.1602      0             -3867.3193      0              0             -134.0623       102742.19      46.836339      46.836339      46.836339      0.81645957     111.81825     -288.32511     -120.46107    
    788000   1576000        385.79094      341.94606      6143.5102      5625.3141      4138.7402      1486.5739      1354.3592      1396.7499      2576.9724      0             -3841.5076      0              0             -132.55461      103910.79      47.013244      47.013244      47.013244      0.80727751     662.22517      80.162299      283.4507     
    788500   1577000        390.26896      100.55239      5800.4329      5648.8805      4186.7801      1462.1004      1399.7062      1376.0998      2553.8577      0             -3867.5634      0              0             -133.27877      103346.19      46.92794       46.92794       46.92794       0.81168779     389.60892      76.677158     -164.6289     
    789000   1578000        392.19255      305.56539      6106.9076      5644.6042      4207.4164      1437.1878      1340.6993      1381.7278      2568.5386      0             -3853.7779      0              0             -132.7726       103740.18      46.9875        46.9875        46.9875        0.80860513     594.71826      457.91803     -135.94012    
    789500   1579000        385.81082      49.464256      5767.6881      5693.1582      4138.9535      1554.2046      1411.8336      1457.9984      2535.305       0             -3850.9324      0              0             -133.31904      103314.98      46.923215      46.923215      46.923215      0.81193302    -147.96826      218.60018      77.760852    
    790000   1580000        395.10719      141.15319      5878.073       5665.4634      4238.6844      1426.779       1441.7761      1331.7359      2510.0056      0             -3856.7386      0              0             -133.3642       103280         46.917919      46.917919      46.917919      0.81220803    -351.05962      1001.0308     -226.51159    
    790500   1581000        395.76911      279.57091      6147.2476      5726.5027      4245.7855      1480.7173      1445.6436      1401.8326      2516.3768      0             -3883.1358      0              0             -133.47642      103193.17      46.904767      46.904767      46.904767      0.81289145     782.27919      188.83904     -132.4055     
    791000   1582000        393.2642       18.888102      5809.8531      5781.0051      4218.913       1562.0922      1412.8187      1446.894       2517.5742      0             -3815.1947      0              0             -131.52388      104725.12      47.135736      47.135736      47.135736      0.8010002     -216.33125     -468.2326       741.22816    
    791500   1583000        395.09957      85.510868      5874.5021      5745.0135      4238.6027      1506.4108      1395.5239      1405.9187      2568.578       0             -3863.6097      0              0             -132.65422      103832.76      47.001473      47.001473      47.001473      0.80788415    -161.37442      163.97603      253.931      
    792000   1584000        390.05475      505.20386      6445.0552      5683.1198      4184.4822      1498.6377      1405.144       1413.1395      2563.951       0             -3883.5968      0              0             -133.19254      103413.1       46.938066      46.938066      46.938066      0.81116262     932.69885      440.00997      142.90277    
    792500   1585000        393.963       -152.60373      5580.2727      5811.3319      4226.4096      1584.9223      1438.4444      1477.9         2531.167       0             -3862.5892      0              0             -132.67014      103820.3       46.999593      46.999593      46.999593      0.80798114    -664.05374      272.48316     -66.240604    
    793000   1586000        383.17073     -961.23927      4194.8874      5639.4019      4110.6308      1528.7711      1444.8311      1448.3255      2512.8997      0             -3877.2853      0              0             -133.67215      103042.06      46.881861      46.881861      46.881861      0.81408354    -392.26398     -1696.1307     -795.32312    
    793500   1587000        395.50769      26.340861      5853.5449      5814.1984      4242.981       1571.2174      1410.2191      1417.6777      2639.2763      0             -3895.9557      0              0             -134.47932      102423.59      46.787876      46.787876      46.787876      0.81899927     412.3677      -646.26347      312.91836    
    794000   1588000        384.21066     -423.93364      4999.4902      5640.0424      4121.7871      1518.2553      1387.0654      1378.3279      2606.7522      0             -3853.8903      0              0             -132.94582      103605.02      46.967084      46.967084      46.967084      0.80966005    -431.40795     -968.60217      128.20921    
    794500   1589000        385.16867     -294.85896      5251.2663      5695.2834      4132.0646      1563.2188      1411.2593      1409.8631      2597.7243      0             -3855.6278      0              0             -133.39696      103254.63      46.914077      46.914077      46.914077      0.81240759    -872.34856      710.37823     -722.60657    
    795000   1590000        392.47423      164.7601       5865.0436      5613.8778      4210.4382      1403.4396      1397.7675      1334.8104      2501.6729      0             -3830.8112      0              0             -131.77194      104527.97      47.106139      47.106139      47.106139      0.80251097     47.214993      252.30319      194.76211    
    795500   1591000        387.54672      275.41642      6086.6116      5668.8463      4157.5761      1511.2702      1412.1156      1375.0971      2556.2752      0             -3832.2177      0              0             -132.43076      104007.96      47.027894      47.027894      47.027894      0.80652329     757.24069     -142.30408      211.31266    
    796000   1592000        390.79337      688.66101      6793.3933      5744.0264      4192.406       1551.6204      1384.6364      1390.904       2582.0737      0             -3805.9938      0              0             -131.82855      104483.09      47.099396      47.099396      47.099396      0.80285569    -150.77781      1630.5613      586.1995     
    796500   1593000        389.26125      148.67611      5855.5843      5630.2454      4175.9695      1454.2759      1375.9337      1400.8093      2516.8853      0             -3839.3524      0              0             -132.53681      103924.74      47.015348      47.015348      47.015348      0.80716911    -60.293735      166.98954      339.33252    
    797000   1594000        399.0314      -148.18367      5681.8608      5906.2275      4280.7831      1625.4443      1427.5165      1408.4841      2624.4589      0             -3835.0152      0              0             -132.6702       103820.25      46.999586      46.999586      46.999586      0.80798149     306.69281     -442.516       -308.72783    
    797500   1595000        387.09437     -247.21251      5317.6426      5692.2519      4152.7234      1539.5285      1437.7991      1434.2441      2515.5181      0             -3848.0329      0              0             -132.56329      103903.98      47.012217      47.012217      47.012217      0.8073304     -187.15977     -96.603991     -457.87377    
    798000   1596000        381.29354     -327.0327       5263.8054      5758.7268      4090.4924      1668.2343      1457.175       1460.4679      2586.7773      0             -3836.1858      0              0             -132.73526      103769.37      46.991905      46.991905      46.991905      0.80837772    -576.43043     -484.3006       79.632919    
    798500   1597000        397.63647     -13.699826      5752.3171      5772.9073      4265.8183      1507.089       1436.439       1397.8681      2498.2123      0             -3825.4304      0              0             -133.65557      103054.85      46.8838        46.8838        46.8838        0.81398251     740.81922      138.66546     -920.58415    
    799000   1598000        389.73151      475.78804      6549.3482      5827.2426      4181.0144      1646.2282      1444.2383      1458.348       2564.9421      0             -3821.3002      0              0             -132.35617      104066.58      47.036727      47.036727      47.036727      0.80606902     535.61431      373.70155      518.04827    
    799500   1599000        382.42236     -285.85811      5251.773       5688.9058      4102.6024      1586.3034      1399.025       1377.5276      2629.5591      0             -3819.8082      0              0             -131.3616       104854.49      47.155138      47.155138      47.155138      0.80001191    -341.97157     -649.59305      133.99027    
    800000   1600000        392.00571     -671.64284      4777.0051      5803.2943      4205.4119      1597.8824      1418.1317      1375.086       2641.0074      0             -3836.3427      0              0             -131.46192      104774.48      47.143139      47.143139      47.143139      0.80062289    -948.75829     -348.67929     -717.49095    
    800500   1601000        382.23541      8.2223643      5650.0028      5637.3635      4100.5968      1536.7667      1382.304       1376.7973      2572.2402      0             -3794.5748      0              0             -130.67845      105402.65      47.237166      47.237166      47.237166      0.79585141    -851.41009      149.86175      726.21543    
    801000   1602000        384.92099      288.90624      6077.2775      5641.6128      4129.4075      1512.2054      1401.747       1405.3195      2571.8264      0             -3866.6875      0              0             -133.20973      103399.76      46.936047      46.936047      46.936047      0.81126731     1092.9257      29.959476     -256.16647    
    801500   1603000        384.12901     -451.94187      5081.1435      5763.6798      4120.9112      1642.7686      1425.3399      1436.8318      2631.3451      0             -3850.7482      0              0             -133.01118      103554.1       46.959389      46.959389      46.959389      0.81005813    -684.198       -142.02016     -529.60746    
    802000   1604000        397.26302     -239.29167      5335.9801      5694.608       4261.812       1432.796       1359.0135      1362.7479      2612.3858      0             -3901.3512      0              0             -134.03399      102763.89      46.839636      46.839636      46.839636      0.81628716    -952.21914     -273.42748      507.77161    
    802500   1605000        388.17843      150.47386      5964.2054      5736.7171      4164.3531      1572.364       1370.5306      1401.7442      2620.1062      0             -3820.0169      0              0             -132.87197      103662.6       46.975783      46.975783      46.975783      0.8092103      1031.5002     -38.461267     -541.61738    
    803000   1606000        397.71128     -57.701937      5685.4071      5772.2376      4266.6209      1505.6167      1408.1615      1371.5177      2580.4673      0             -3854.5299      0              0             -133.49026      103182.47      46.903146      46.903146      46.903146      0.81297574     200.92768     -759.65698      385.62349    
    803500   1607000        392.01085      1146.5094      7536.8039      5797.0053      4205.4671      1591.5381      1377.5137      1465.4401      2586.8133      0             -3838.2289      0              0             -132.37623      104050.81      47.034351      47.034351      47.034351      0.80619118     1029.5224      1251.0126      1158.9934    
    804000   1608000        383.7513       823.74672      6978.8171      5734.2859      4116.8592      1617.4267      1392.6669      1419.1728      2606.144       0             -3800.5569      0              0             -132.95947      103594.38      46.965477      46.965477      46.965477      0.80974317     952.56652      1165.3629      353.31076    
    804500   1609000        391.58059     -524.2264       5002.7926      5806.4627      4200.8513      1605.6114      1402.4498      1378.8688      2612.4208      0             -3788.128       0              0             -131.03052      105119.43      47.19482       47.19482       47.19482       0.79799558    -1023.4793     -132.67366     -416.52622    
    805000   1610000        391.59386      351.15399      6317.7258      5780.7865      4200.9936      1579.7928      1452.2735      1411.8866      2521.6365      0             -3806.0038      0              0             -131.37228      104845.97      47.153859      47.153859      47.153859      0.80007698    -42.320156      714.51763      381.26449    
    805500   1611000        391.39133      310.22571      6300.0349      5825.1535      4198.8208      1626.3326      1444.7634      1407.2274      2557.9177      0             -3783.5759      0              0             -131.22722      104961.86      47.171228      47.171228      47.171228      0.79919353     278.99284      930.68985     -279.00557    
    806000   1612000        392.84844      470.6118       6455.4999      5741.4364      4214.4527      1526.9837      1420.5061      1399.861       2525.2403      0             -3818.6236      0              0             -132.39067      104039.46      47.032641      47.032641      47.032641      0.80627909    -124.9661       224.90081      1311.9007    
    806500   1613000        392.25548     -9.7146033      5595.8118      5610.6325      4208.0915      1402.5411      1349.4517      1318.1326      2567.5576      0             -3832.6009      0              0             -131.67044      104608.55      47.11824       47.11824       47.11824       0.80189282     389.91653      249.88274     -668.94309    
    807000   1614000        388.96893      187.22239      6069.3946      5787.5476      4172.8336      1614.714       1407.8399      1436.2658      2622.8895      0             -3852.2811      0              0             -133.43682      103223.79      46.909406      46.909406      46.909406      0.81265029     127.58521     -97.477151      531.55911    
    807500   1615000        394.97007      139.41264      5992.2925      5784.4112      4237.2134      1547.1978      1418.3841      1418.253       2622.9646      0             -3912.4039      0              0             -134.71567      102243.89      46.760497      46.760497      46.760497      0.82043871     499.56274      361.12231     -442.44713    
    808000   1616000        386.72348      335.2899       6254.0688      5747.6617      4148.7445      1598.9172      1433.0833      1393.494       2643.6832      0             -3871.3432      0              0             -133.00012      103562.72      46.960692      46.960692      46.960692      0.80999073     205.44252      373.13174      427.29544    
    808500   1617000        387.66649      582.756        6534.444       5660.1843      4158.861       1501.3233      1382.0804      1415.042       2577.447       0             -3873.2462      0              0             -133.8991       102867.41      46.855359      46.855359      46.855359      0.81546567     775.41233      114.15709      858.69859    
    809000   1618000        391.31642     -577.93609      4927.3973      5799.9668      4198.0173      1601.9495      1414.0586      1427.8327      2636.825       0             -3876.7668      0              0             -133.04886      103524.78      46.954957      46.954957      46.954957      0.81028755    -262.17869     -15.594764     -1456.0348    
    809500   1619000        387.13275     -356.90976      5196.1488      5730.8897      4153.1351      1577.7546      1366.5198      1440.2682      2641.9196      0             -3870.953       0              0             -134.07456      102732.79      46.83491       46.83491       46.83491       0.81653427    -1000.0887     -87.71445       17.073895    
    810000   1620000        381.96488      924.22222      7105.6539      5709.5969      4097.6945      1611.9024      1439.1256      1403.4374      2597.1198      0             -3827.7805      0              0             -132.9856       103574.03      46.962401      46.962401      46.962401      0.80990229     1238.0612      493.07495      1041.5305    
    810500   1621000        397.7605      -52.161836      5738.1603      5817.5154      4267.1489      1550.3665      1421.7498      1385.5468      2568.7823      0             -3825.7123      0              0             -132.04104      104314.95      47.074117      47.074117      47.074117      0.80414981     329.33799      12.648924     -498.47242    
    811000   1622000        400.27786     -225.49021      5556.5482      5898.373       4294.155       1604.218       1437.5178      1391.1614      2636.9011      0             -3861.3624      0              0             -132.51209      103944.13      47.018271      47.018271      47.018271      0.80701856    -1100.1464      844.45029     -420.77451    
    811500   1623000        389.56877     -367.19958      5110.6186      5662.1086      4179.2686      1482.8399      1377.2305      1382.1593      2592.373       0             -3868.9228      0              0             -133.75067      102981.57      46.872685      46.872685      46.872685      0.81456171     271.0997      -301.72742     -1070.971     
    812000   1624000        399.58883     -233.73986      5486.6194      5840.6207      4286.7632      1553.8575      1396.924       1442.7078      2546.6272      0             -3832.4014      0              0             -132.63534      103847.54      47.003703      47.003703      47.003703      0.80776919    -1344.3942     -34.295232      677.46983    
    812500   1625000        390.98885      274.05229      6150.1188      5735.6841      4194.5031      1541.181       1386.1724      1411.2182      2589.1756      0             -3845.3852      0              0             -132.83383      103692.36      46.980279      46.980279      46.980279      0.80897803     312.20959      409.81463      100.13263    
    813000   1626000        385.17129      254.02627      6133.3974      5748.6431      4132.0927      1616.5504      1438.1322      1420.7923      2605.8396      0             -3848.2137      0              0             -132.62535      103855.37      47.004884      47.004884      47.004884      0.80770831     840.86019     -170.81039      92.028997    
    813500   1627000        394.03649     -178.31444      5505.0949      5773.7699      4227.198       1546.5719      1402.7994      1421.7426      2599.2499      0             -3877.22        0              0             -133.31853      103315.38      46.923276      46.923276      46.923276      0.8119299     -434.05771     -342.71566      241.83005    
    814000   1628000        386.88667     -270.41516      5331.5898      5741.085       4150.4952      1590.5899      1439.575       1426.0147      2574.4101      0             -3849.41        0              0             -132.65193      103834.55      47.001743      47.001743      47.001743      0.80787021     314.98233     -1401.113       274.88516    
    814500   1629000        387.57444     -59.195948      5787.1327      5877.5782      4157.8736      1719.7046      1453.1186      1471.4354      2617.1547      0             -3822.0041      0              0             -131.47301      104765.64      47.141814      47.141814      47.141814      0.80069042     11.516741      19.077131     -208.18171    
    815000   1630000        393.38022      1157.9975      7396.3363      5672.4971      4220.1576      1452.3395      1399.2054      1406.6369      2544.6777      0             -3898.1804      0              0             -134.94048      102073.55      46.734515      46.734515      46.734515      0.82180785     957.4159       1241.1448      1275.4319    
    815500   1631000        396.7126       131.34898      5905.533       5708.9702      4255.9071      1453.0631      1373.027       1371.0187      2586.923       0             -3877.9056      0              0             -134.23223      102612.12      46.816566      46.816566      46.816566      0.81749448    -148.21569     -28.013201      570.27584    
    816000   1632000        388.60638     -15.499415      5670.2581      5693.4842      4168.9441      1524.5401      1422.9229      1448.1489      2541.1474      0             -3887.6791      0              0             -134.05074      102751.05      46.837685      46.837685      46.837685      0.81638916    -230.13827      482.07287     -298.43284    
    816500   1633000        391.61161     -124.85295      5550.2666      5739.994       4201.184       1538.81        1370.1966      1442.4322      2559.4189      0             -3833.2377      0              0             -132.19045      104197.05      47.056375      47.056375      47.056375      0.80505971     96.120856     -529.75951      59.079789    
    817000   1634000        391.17689      151.53649      5953.3349      5723.7959      4196.5204      1527.2755      1374.7832      1383.124       2565.5289      0             -3796.1605      0              0             -132.61485      103863.58      47.006123      47.006123      47.006123      0.80764442     396.32836     -625.30018      683.58129    
    817500   1635000        391.97536     -138.73688      5641.0323      5851.4923      4205.0863      1646.406       1411.1825      1410.198       2669.6016      0             -3844.5761      0              0             -132.42009      104016.35      47.029157      47.029157      47.029157      0.80645829    -230.61428      306.72445     -492.3208     
    818000   1636000        388.75563      304.29701      6159.4192      5700.2138      4170.5453      1529.6685      1367.2671      1439.674       2563.4278      0             -3840.7004      0              0             -133.11348      103474.52      46.947357      46.947357      46.947357      0.81068112    -44.750906      611.50991      346.13202    
    818500   1637000        398.53859     -836.36738      4604.7227      5880.6314      4275.4963      1605.1351      1397.2049      1373.283       2625.7877      0             -3791.1405      0              0             -131.67668      104603.6       47.117496      47.117496      47.117496      0.80193078    -1101.6178     -477.69869     -929.78567    
    819000   1638000        388.8071       60.463377      5830.0674      5738.7495      4171.0975      1567.652       1366.4769      1413.0625      2637.3774      0             -3849.2648      0              0             -133.00493      103558.97      46.960125      46.960125      46.960125      0.81002005     124.48642      796.06341     -739.15971    
    819500   1639000        391.73688      175.53162      6092.5793      5827.1319      4202.528       1624.604       1393.218       1423.9705      2639.5289      0             -3832.1135      0              0             -132.83368      103692.48      46.980297      46.980297      46.980297      0.80897711     86.868786     -367.9271       807.65317    
    820000   1640000        376.50444     -523.22439      4908.7134      5706.0445      4039.1153      1666.9292      1430.5116      1438.0086      2590.5706      0             -3792.1617      0              0             -131.81981      104490.02      47.100437      47.100437      47.100437      0.80280247    -345.44722     -850.94106     -373.28487    
    820500   1641000        387.98291      379.73533      6327.0934      5754.9679      4162.2556      1592.7122      1378.0515      1412.6004      2635.4715      0             -3833.4112      0              0             -133.3279       103308.12      46.922176      46.922176      46.922176      0.81198696     600.31799      149.98648      388.90153    
    821000   1642000        393.92985      374.18769      6323.1939      5753.0974      4226.054       1527.0434      1373.8318      1359.2363      2567.9382      0             -3773.9629      0              0             -131.84769      104467.92      47.097116      47.097116      47.097116      0.80297227     416.61243      274.48401      431.46664    
    821500   1643000        384.24181      454.6726       6399.6974      5719.1638      4122.1213      1597.0425      1404.0058      1435.7167      2634.8764      0             -3877.5564      0              0             -134.20868      102630.13      46.819304      46.819304      46.819304      0.81735106     828.8569       419.16378      115.99713    
    822000   1644000        390.6434       82.866939      5887.9304      5761.8545      4190.7971      1571.0573      1416.2824      1411.813       2562.2338      0             -3819.2719      0              0             -132.03238      104321.79      47.075146      47.075146      47.075146      0.80409704     716.45503     -411.10325     -56.750961    
    822500   1645000        392.57736      735.25504      6819.1278      5710.8832      4211.5445      1499.3386      1422.2396      1428.6971      2546.5789      0             -3898.177       0              0             -133.27041      103352.68      46.928922      46.928922      46.928922      0.81163686     565.63751      886.82048      753.30713    
    823000   1646000        386.23811      626.51672      6643.0641      5688.9216      4143.5375      1545.384       1373.0832      1421.0408      2576.8982      0             -3825.6381      0              0             -131.90182      104425.05      47.090673      47.090673      47.090673      0.8033019      191.0656       941.8397       746.64487    
    823500   1647000        398.497        381.76832      6437.6429      5861.38        4275.0501      1586.3299      1406.6157      1450.7049      2589.6204      0             -3860.6111      0              0             -133.07931      103501.1       46.951375      46.951375      46.951375      0.810473       851.78726      204.37926      89.138446    
    824000   1648000        394.84871      487.21992      6654.6846      5915.7932      4235.9114      1679.8818      1408.8996      1419.3009      2647.2489      0             -3795.5676      0              0             -132.45727      103987.15      47.024757      47.024757      47.024757      0.80668469     180.05235      226.96107      1054.6463    
    824500   1649000        384.58193      136.37829      5991.2192      5782.7399      4125.7701      1656.9698      1407.7679      1396.0537      2653.3544      0             -3800.2061      0              0             -131.40556      104819.42      47.149879      47.149879      47.149879      0.80027963     545.06296      158.01044     -293.93851    
    825000   1650000        390.99139     -473.42364      5089.9905      5812.849       4194.5303      1618.3186      1411.5703      1401.7966      2612.2403      0             -3807.2886      0              0             -131.56126      104695.37      47.131271      47.131271      47.131271      0.80122785    -541.65518     -854.81247     -23.803263    
    825500   1651000        403.90128     -199.90314      5558.6394      5864.1184      4333.0268      1531.0916      1343.5721      1419.3843      2587.7593      0             -3819.624       0              0             -131.45272      104781.81      47.144239      47.144239      47.144239      0.80056686    -219.08178      173.94997     -554.5776     
    826000   1652000        392.36492      190.84556      6035.6426      5744.8126      4209.2655      1535.5471      1389.7918      1371.1502      2612.7572      0             -3838.1521      0              0             -131.81784      104491.58      47.100671      47.100671      47.100671      0.80279048    -353.2106       812.05981      113.68746    
    826500   1653000        389.15094      707.98102      6736.3582      5663.953       4174.7862      1489.1668      1378.4968      1430.0478      2511.5587      0             -3830.9365      0              0             -132.61544      103863.13      47.006054      47.006054      47.006054      0.80764797     334.63519      692.1119       1097.196     
    827000   1654000        389.65809     -378.33379      5117.3256      5690.9493      4180.2268      1510.7225      1383.6204      1408.0884      2564.2722      0             -3845.2586      0              0             -132.48889      103962.34      47.021016      47.021016      47.021016      0.80687725    -407.39586      19.613373     -747.21889    
    827500   1655000        395.14848      19.660333      5870.272       5840.3991      4239.1273      1601.2718      1402.5188      1385.732       2634.2133      0             -3821.1924      0              0             -132.20387      104186.46      47.054782      47.054782      47.054782      0.80514149    -10.230107     -372.55755      441.76866    
    828000   1656000        391.71779      320.24161      6109.0216      5630.16        4202.3232      1427.8369      1401.1163      1368.7287      2549.6862      0             -3891.6943      0              0             -134.33806      102531.28      46.804269      46.804269      46.804269      0.81813903     1035.0254      75.654986     -149.95553    
    828500   1657000        394.00414     -189.64719      5536.3083      5823.9748      4226.8509      1597.1239      1410.7623      1357.6182      2656.8929      0             -3828.1495      0              0             -132.43066      104008.05      47.027906      47.027906      47.027906      0.80652264    -424.23517     -201.67989      56.973484    
    829000   1658000        393.28156     -157.97518      5589.5354      5830.5804      4219.0992      1611.4813      1387.9791      1408.1377      2621.9783      0             -3806.6138      0              0             -131.65036      104624.51      47.120636      47.120636      47.120636      0.80177049     571.13429     -125.97395     -919.08589    
    829500   1659000        396.37104      781.19561      6816.8874      5644.8172      4252.2429      1392.5743      1374.5982      1352.3117      2555.3964      0             -3889.732       0              0             -133.88673      102876.92      46.856802      46.856802      46.856802      0.81539033     498.17699      1700.482       144.92787    
    830000   1660000        381.34356     -62.969275      5491.9597      5587.1514      4091.0291      1496.1223      1438.4249      1405.6425      2533.0974      0             -3881.0425      0              0             -132.88035      103656.06      46.974796      46.974796      46.974796      0.80926133    -322.26889     -123.25169      256.61276    
    830500   1661000        384.79515     -292.15558      5331.5105      5776.5712      4128.0575      1648.5137      1429.6797      1458.4992      2578.4112      0             -3818.0763      0              0             -131.86401      104454.99      47.095173      47.095173      47.095173      0.80307169     906.93448     -1083.9787     -699.42256    
    831000   1662000        386.47939      150.12442      5941.0074      5717.601       4146.1259      1571.4751      1401.8546      1425.5072      2623.6092      0             -3879.4959      0              0             -134.9855       102039.51      46.729319      46.729319      46.729319      0.82208202     57.715361     -43.799344      436.45724    
    831500   1663000        399.85656     -229.84501      5512.567       5859.6378      4289.6354      1570.0024      1405.1001      1440.4819      2586.703       0             -3862.2826      0              0             -133.02962      103539.75      46.957219      46.957219      46.957219      0.81017042    -56.37967      -855.5543       222.39895    
    832000   1664000        393.65003     -394.45218      5190.3723      5793.4349      4223.0521      1570.3827      1401.7487      1426.822       2552.3797      0             -3810.5677      0              0             -131.39031      104831.58      47.151702      47.151702      47.151702      0.80018677    -806.49886     -68.354042     -308.50365    
    832500   1665000        398.06724      241.40147      6133.7624      5769.7062      4270.4396      1499.2666      1422.4904      1352.2913      2591.558       0             -3867.0731      0              0             -133.19957      103407.65      46.93724       46.93724       46.93724       0.81120543     467.25567     -583.20333      840.15207    
    833000   1666000        386.07791     -538.00824      4804.3846      5619.7938      4141.8189      1477.9749      1390.3032      1396.3091      2541.72        0             -3850.3574      0              0             -132.53931      103922.78      47.015052      47.015052      47.015052      0.80718436    -989.05932     -454.00018     -170.96524    
    833500   1667000        380.53782     -534.28494      4900.5077      5711.712       4082.3852      1629.3268      1445.9865      1487.7237      2510.7029      0             -3815.0862      0              0             -132.30433      104107.36      47.04287       47.04287       47.04287       0.80575328    -1106.1535      332.46958     -829.17094    
    834000   1668000        382.29879      157.18028      5886.6401      5647.9549      4101.2767      1546.6782      1421.3992      1427.9132      2529.0741      0             -3831.7084      0              0             -132.28292      104124.21      47.045407      47.045407      47.045407      0.8056229      29.483104      426.99724      15.060482    
    834500   1669000        396.24756      214.66857      6119.004       5792.9839      4250.9182      1542.0657      1375.7682      1378.3295      2607.7367      0             -3819.7687      0              0             -132.26823      104135.77      47.047149      47.047149      47.047149      0.80553343     524.41866     -83.813396      203.40045    
    835000   1670000        389.11256     -81.462476      5707.8326      5831.4255      4174.3744      1657.051       1384.2357      1472.6606      2626.011       0             -3825.8562      0              0             -132.40235      104030.28      47.031257      47.031257      47.031257      0.80635026    -292.39074      33.248132      14.755177    
    835500   1671000        393.19534     -631.52151      4735.4185      5692.1203      4218.1742      1473.9461      1401.9275      1367.0324      2545.7463      0             -3840.7601      0              0             -132.59981      103875.36      47.0079        47.0079        47.0079        0.80755282    -274.32956     -629.9312      -990.30375    
    836000   1672000        393.99336     -284.48924      5346.7776      5775.1804      4226.7353      1548.445       1419.8713      1385.4903      2604.5686      0             -3861.4852      0              0             -133.39665      103254.87      46.914114      46.914114      46.914114      0.81240565    -1089.167      -276.72825      512.4275     
    836500   1673000        391.74457     -24.401263      5762.3857      5799.257       4202.6104      1596.6466      1439.1674      1424.5103      2588.6204      0             -3855.6515      0              0             -132.93992      103609.62      46.967779      46.967779      46.967779      0.8096241     -389.62636      530.12111     -213.69854    
    837000   1674000        383.44578      48.082484      5817.7384      5745.4805      4113.5816      1631.8989      1411.0748      1407.9259      2678.116       0             -3865.2177      0              0             -133.66968      103043.96      46.88215       46.88215       46.88215       0.81406848     385.67333     -291.61203      50.186158    
    837500   1675000        386.09474     -424.91862      5052.5496      5691.3483      4141.9995      1549.3489      1406.0852      1390.2413      2624.797       0             -3871.7746      0              0             -133.62049      103081.9       46.887903      46.887903      46.887903      0.81376887     85.487505     -935.20628     -425.03709    
    838000   1676000        388.53934     -561.07762      4817.9356      5655.8096      4168.2249      1487.5847      1357.3105      1404.9139      2622.63        0             -3897.2697      0              0             -134.51651      102395.27      46.783563      46.783563      46.783563      0.81922579     82.444032     -231.32366     -1534.3532    
    838500   1677000        388.63144     -99.38916       5628.9463      5780.5002      4169.213       1611.2872      1433.5746      1425.6852      2580.3923      0             -3828.3649      0              0             -131.73565      104556.77      47.110464      47.110464      47.110464      0.80228994     65.336623     -246.83719     -116.66692    
    839000   1678000        388.89946     -682.15785      4656.2452      5707.6623      4172.0883      1535.5741      1385.6941      1346.819       2580.8866      0             -3777.8257      0              0             -130.32904      105685.23      47.279342      47.279342      47.279342      0.79372347    -1682.6048     -256.12631     -107.74247    
    839500   1679000        394.76016      593.01758      6809.7638      5908.4209      4234.9615      1673.4595      1437.1768      1454.6902      2583.6619      0             -3802.0695      0              0             -132.16271      104218.92      47.059667      47.059667      47.059667      0.80489078     807.60122      482.13868      489.31284    
    840000   1680000        389.51272     -119.53389      5650.9801      5832.2805      4178.6673      1653.6132      1444.1164      1408.6752      2597.59        0             -3796.7685      0              0             -132.44132      103999.67      47.026644      47.026644      47.026644      0.80658759    -768.483        211.05286      198.82847    
    840500   1681000        385.33243      80.269973      5812.2468      5690.1271      4133.8214      1556.3057      1428.9562      1440.1677      2521.3775      0             -3834.1957      0              0             -132.03802      104317.33      47.074475      47.074475      47.074475      0.80413144    -412.07009     -939.97329      1592.8533    
    841000   1682000        386.48067     -339.65065      5296.7792      5814.7296      4146.1396      1668.59        1434.693       1435.8804      2638.6729      0             -3840.6562      0              0             -131.72724      104563.44      47.111467      47.111467      47.111467      0.80223873    -285.89543      108.74184     -841.79837    
    841500   1683000        391.80999      237.66681      6118.3591      5757.3086      4203.3123      1553.9963      1424.5035      1365.2882      2607.9526      0             -3843.7479      0              0             -132.23058      104165.42      47.051614      47.051614      47.051614      0.80530411    -34.253938      149.50856      597.7458     
    842000   1684000        382.76416     -466.65161      4990.3462      5696.9666      4106.2691      1590.6975      1447.4825      1377.3079      2611.5326      0             -3845.6256      0              0             -132.65936      103828.74      47.000865      47.000865      47.000865      0.80791549    -798.58073      68.27366      -669.64777    
    842500   1685000        385.1254      -610.29172      4868.9164      5794.5473      4131.6004      1662.9469      1445.1153      1425.4993      2625.4815      0             -3833.1492      0              0             -132.4436       103997.88      47.026375      47.026375      47.026375      0.80660145    -50.450593     -1061.9428     -718.48175    
    843000   1686000        392.76487     -207.35401      5484.2719      5798.6173      4213.5561      1585.0611      1375.7967      1374.1561      2683.8436      0             -3848.7353      0              0             -132.50634      103948.64      47.018952      47.018952      47.018952      0.80698354    -2.2023554      387.01679     -1006.8765    
    843500   1687000        391.33946      582.09666      6728.8957      5850.2997      4198.2645      1652.0353      1473.1408      1397.8382      2599.9072      0             -3818.851       0              0             -133.08749      103494.73      46.950412      46.950412      46.950412      0.81052285     685.00174      17.29295       1043.9953    
    844000   1688000        394.23361     -145.63893      5546.9758      5768.567       4229.3127      1539.2543      1388.7193      1389.3576      2599.4524      0             -3838.2749      0              0             -132.02505      104327.58      47.076017      47.076017      47.076017      0.80405244     201.43896     -435.0837      -203.27206    
    844500   1689000        380.65569      333.85503      6094.293       5594.0311      4083.6497      1510.3814      1447.6528      1380.4701      2556.3628      0             -3874.1043      0              0             -134.05772      102745.7       46.836872      46.836872      46.836872      0.81643171    -704.96459      576.12236      1130.4073    
    845000   1690000        389.86785      261.31777      6111.688       5719.4554      4182.4771      1536.9783      1389.2217      1422.8473      2571.2306      0             -3846.3213      0              0             -133.831        102919.76      46.863305      46.863305      46.863305      0.81505093     1236.0748     -327.07369     -125.04776    
    845500   1691000        387.09228     -590.41207      4772.488       5661.8959      4152.7009      1509.195       1389.681       1391.8133      2600.6394      0             -3872.9387      0              0             -133.34772      103292.76      46.919851      46.919851      46.919851      0.8121077     -237.10588     -469.92863     -1064.2017    
    846000   1692000        382.36365     -217.91547      5350.0923      5677.3707      4101.9726      1575.3981      1381.9101      1463.2801      2586.3653      0             -3856.1573      0              0             -133.75254      102980.13      46.872467      46.872467      46.872467      0.81457312    -983.58581     -264.28624      594.12564    
    846500   1693000        384.26733     -377.79589      5032.7478      5598.7447      4122.395       1476.3496      1361.6621      1378.3261      2627.2958      0             -3890.9344      0              0             -134.08326      102726.13      46.833898      46.833898      46.833898      0.81658725    -565.78042     -772.52005      204.9128     
    847000   1694000        389.18612      128.4514       5904.7036      5711.8908      4175.1635      1536.7273      1395.712       1407.6928      2631.6619      0             -3898.3394      0              0             -133.82412      102925.04      46.864108      46.864108      46.864108      0.81500906     368.07478     -124.85544      142.13487    
    847500   1695000        396.69976     -315.62662      5275.8101      5755.6339      4255.7694      1499.8644      1370.1926      1392.9777      2572.556       0             -3835.8619      0              0             -132.13664      104239.48      47.062761      47.062761      47.062761      0.80473202    -513.32264     -369.01387     -64.543355    
    848000   1696000        388.5326      -154.412        5528.0559      5762.058       4168.1526      1593.9054      1436.5017      1400.3229      2582.1359      0             -3825.0551      0              0             -132.55394      103911.31      47.013322      47.013322      47.013322      0.80727347    -363.38041     -334.98121      235.12564    
    848500   1697000        388.36081     -154.55842      5496.8846      5729.5395      4166.3097      1563.2298      1412.2111      1392.5043      2633.5236      0             -3875.0091      0              0             -133.4479       103215.21      46.908107      46.908107      46.908107      0.81271782    -342.9806       605.21799     -725.91263    
    849000   1698000        383.37384     -545.16085      4877.5524      5709.5546      4112.8098      1596.7448      1386.1301      1401.6756      2622.6509      0             -3813.7118      0              0             -131.62293      104646.31      47.123909      47.123909      47.123909      0.80160342    -867.58915     -790.52124      22.627859    
    849500   1699000        391.89361      160.0659       6045.706       5803.1222      4204.2094      1598.9128      1413.5616      1350.9647      2634.7759      0             -3800.3893      0              0             -132.5465       103917.15      47.014202      47.014202      47.014202      0.80722812    -314.17827      210.51493      583.86104    
    850000   1700000        394.09647      10.639335      5839.6614      5823.3924      4227.8415      1595.5509      1422.4027      1382.0487      2587.724       0             -3796.6245      0              0             -131.36659      104850.51      47.154541      47.154541      47.154541      0.80004229     531.64562     -253.81949     -245.90813    
    850500   1701000        402.23455     -418.95414      5351.3741      5991.9107      4315.1463      1676.7644      1404.3638      1387.6774      2668.5297      0             -3783.8065      0              0             -131.38746      104833.86      47.152044      47.152044      47.152044      0.8001694     -478.87539     -897.60337      119.61634    
    851000   1702000        401.33467      356.55678      6319.8048      5779.2426      4305.4924      1473.7501      1361.0766      1308.8414      2614.2591      0             -3810.427       0              0             -132.49954      103953.98      47.019756      47.019756      47.019756      0.80694211     224.06654      367.05832      478.54547    
    851500   1703000        392.8692       369.51479      6454.98        5893.0669      4214.6754      1678.3915      1427.8113      1386.19        2671.8131      0             -3807.423       0              0             -132.09731      104270.51      47.067431      47.067431      47.067431      0.80449252     258.33833      152.5941       697.61193    
    852000   1704000        394.87939     -134.16571      5562.0602      5765.2077      4236.2406      1528.9671      1373.9896      1382.5471      2604.4738      0             -3832.0434      0              0             -132.6666       103823.07      47.000011      47.000011      47.000011      0.80795956     370.44092     -515.93379     -257.00425    
    852500   1705000        391.70903     -638.11839      4844.7565      5819.2006      4202.2292      1616.9714      1419.8372      1369.5326      2601.3247      0             -3773.7231      0              0             -131.54542      104707.97      47.133163      47.133163      47.133163      0.80113139    -443.31728     -1150.0862     -320.95171    
    853000   1706000        396.61586     -409.54298      5187.9462      5806.5527      4254.8693      1551.6833      1361.0822      1417.6754      2601.1144      0             -3828.1886      0              0             -132.98921      103571.21      46.961975      46.961975      46.961975      0.8099243     -1007.0109      131.25107     -352.86914    
    853500   1707000        377.37038     -598.7791       4726.6762      5640.8227      4048.4051      1592.4176      1356.693       1395.2482      2617.1353      0             -3776.6589      0              0             -131.57767      104682.3       47.129311      47.129311      47.129311      0.80132784    -1024.3811     -49.911735     -722.04443    
    854000   1708000        399.49377     -220.76764      5500.4787      5831.9241      4285.7434      1546.1807      1425.6857      1384.8154      2610.3069      0             -3874.6273      0              0             -133.7996       102943.91      46.866971      46.866971      46.866971      0.81485968    -423.11183      350.42553     -589.61661    
    854500   1709000        383.3746       208.72932      5977.9215      5659.7707      4112.8179      1546.9527      1371.8545      1413.7807      2575.7118      0             -3814.3943      0              0             -131.78977      104513.83      47.104015      47.104015      47.104015      0.80261954     501.77593      178.34485     -53.932834    
    855000   1710000        401.35982     -505.60148      5068.642       5829.6241      4305.7622      1523.8619      1418.5943      1375.9709      2586.0239      0             -3856.7272      0              0             -133.46435      103202.5       46.90618       46.90618       46.90618       0.81281795    -464.31051     -570.76278     -481.73116    
    855500   1711000        394.27908     -551.04373      5040.8524      5871.0803      4229.8005      1641.2797      1418.6669      1406.8158      2681.4058      0             -3865.6088      0              0             -133.32762      103308.33      46.922208      46.922208      46.922208      0.8119853     -850.64444     -430.84686     -371.63989    
    856000   1712000        384.63549     -276.35985      5255.9113      5671.9226      4126.3446      1545.578       1382.3456      1377.5984      2630.4352      0             -3844.8012      0              0             -133.44464      103217.74      46.908489      46.908489      46.908489      0.81269794    -361.61159      84.750554     -552.21852    
    856500   1713000        392.91762      181.36678      5974.4704      5700.621       4215.1948      1485.4262      1381.9908      1368.5327      2584.8358      0             -3849.9332      0              0             -133.0385       103532.84      46.956175      46.956175      46.956175      0.81022449    -276.04338      372.12966      448.01408    
    857000   1714000        399.01061      271.08795      6372.0183      5964.0907      4280.5601      1683.5306      1438.0943      1423.0485      2680.5336      0             -3858.1459      0              0             -133.493        103180.35      46.902825      46.902825      46.902825      0.81299244     187.02998      630.35129     -4.1174187    
    857500   1715000        390.45532     -326.14353      5230.5619      5726.9583      4188.7794      1538.1789      1374.8833      1371.448       2618.5672      0             -3826.7196      0              0             -131.98105      104362.36      47.081248      47.081248      47.081248      0.80378444    -48.412313     -178.62895     -751.38932    
    858000   1716000        396.40627      20.013656      5763.9263      5733.6962      4252.6208      1481.0754      1347.5221      1390.3193      2585.2472      0             -3842.0132      0              0             -132.98991      103570.67      46.961893      46.961893      46.961893      0.80992854     882.96561     -83.512606     -739.41203    
    858500   1717000        391.68023     -412.49352      5158.5671      5779.574       4201.9202      1577.6538      1390.9219      1411.5734      2640.2184      0             -3865.0599      0              0             -133.42958      103229.39      46.910255      46.910255      46.910255      0.8126062     -281.14459     -620.1093      -336.22667    
    859000   1718000        389.9837      -81.510283      5760.206       5884.862       4183.72        1701.1421      1412.1653      1455.1034      2625.9273      0             -3792.054       0              0             -131.35016      104863.62      47.156506      47.156506      47.156506      0.79994225    -114.23522     -389.08405      258.78841    
    859500   1719000        378.14236     -613.64028      4732.0917      5670.2924      4056.6868      1613.6056      1397.9458      1417.3604      2590.4493      0             -3792.1498      0              0             -131.38611      104834.93      47.152205      47.152205      47.152205      0.80016117    -466.82369     -133.30907     -1240.7881    
    860000   1720000        388.04827      210.58252      6253.2832      5934.9072      4162.9568      1771.9505      1436.1961      1425.5311      2715.193       0             -3804.9697      0              0             -132.86585      103667.38      46.976505      46.976505      46.976505      0.80917302     521.42869     -343.80941      454.12827    
    860500   1721000        389.67404      114.83691      5979.2428      5804.9166      4180.3979      1624.5187      1379.2072      1457.2706      2632.5059      0             -3844.465       0              0             -132.32752      104089.11      47.040121      47.040121      47.040121      0.80589451     233.23017     -151.53424      262.8148     
    861000   1722000        386.67019     -839.67112      4499.8759      5772.31        4148.1728      1624.1371      1408.6602      1407.1619      2656.9145      0             -3848.5995      0              0             -132.5578       103908.29      47.012866      47.012866      47.012866      0.80729696    -617.48709     -991.61915     -909.90712    
    861500   1723000        395.34328     -668.86215      4842.7596      5850.7728      4241.2172      1609.5556      1401.1107      1417.7669      2620.6981      0             -3830.0201      0              0             -133.29129      103336.49      46.926471      46.926471      46.926471      0.81176404    -351.31374     -857.62028     -797.65243    
    862000   1724000        393.85932      1151.5639      7488.7291      5768.5484      4225.2973      1543.2511      1406.4508      1408.1617      2619.7921      0             -3891.1535      0              0             -134.47617      102425.98      46.78824       46.78824       46.78824       0.81898012     980.88665      1466.5462      1007.2589    
    862500   1725000        388.66744      213.16138      6130.0561      5804.6152      4169.5991      1635.016       1380.9941      1430.3073      2609.1753      0             -3785.4607      0              0             -131.57328      104685.8       47.129835      47.129835      47.129835      0.8013011      151.61598      717.121       -229.25283    
    863000   1726000        399.35668     -109.71904      5683.6381      5850.1262      4284.2727      1565.8536      1424.4722      1381.1017      2603.8216      0             -3843.5419      0              0             -132.38231      104046.03      47.033631      47.033631      47.033631      0.80622819     378.64675     -138.2774      -569.52646    
    863500   1727000        388.00545      96.755172      5836.5382      5689.8619      4162.4974      1527.3645      1418.2211      1367.4563      2586.0713      0             -3844.3842      0              0             -132.50904      103946.52      47.018631      47.018631      47.018631      0.80700002    -151.09606      212.4593       228.90228    
    864000   1728000        393.44817     -243.58768      5400.214       5769.7915      4220.8866      1548.905       1398.3264      1422.0762      2561.3977      0             -3832.8954      0              0             -132.39792      104033.76      47.031782      47.031782      47.031782      0.80632327    -1027.2788      173.48381      123.03199    
    864500   1729000        387.22504      376.16105      6358.9456      5790.7317      4154.1252      1636.6065      1385.5095      1419.8142      2656.5866      0             -3825.3039      0              0             -132.98215      103576.72      46.962807      46.962807      46.962807      0.80988128     331.09248      435.91706      361.47361    
    865000   1730000        393.82558      78.381218      5838.0376      5718.9431      4224.9354      1494.0076      1388.3756      1376.6238      2568.176       0             -3839.1678      0              0             -132.20608      104184.73      47.05452       47.05452       47.05452       0.80515491     107.43535     -34.451406      162.15971    
    865500   1731000        387.23069     -492.41621      4992.4459      5730.7257      4154.1858      1576.5399      1438.1895      1379.7906      2618.0578      0             -3859.498       0              0             -133.98084      102804.65      46.845829      46.845829      46.845829      0.81596348    -1061.6005     -65.649127     -349.99896    
    866000   1732000        389.39262     -258.68902      5304.7282      5690.5593      4177.3788      1513.1805      1406.6639      1391.5732      2606.9407      0             -3891.9972      0              0             -134.68279      102268.85      46.764302      46.764302      46.764302      0.82023848    -559.03072     -215.68429     -1.3520593    
    866500   1733000        387.69147     -434.41823      5084.2043      5737.7099      4159.1291      1578.5808      1402.4393      1458.2332      2569.4334      0             -3851.5251      0              0             -133.53346      103149.08      46.898086      46.898086      46.898086      0.81323889     248.96808     -415.62431     -1136.5985    
    867000   1734000        391.80045     -73.161966      5704.9047      5816.5795      4203.2099      1613.3696      1378.6279      1392.4664      2640.0855      0             -3797.8103      0              0             -131.60179      104663.12      47.126431      47.126431      47.126431      0.80147473    -636.19817     -107.04528      523.75756    
    867500   1735000        390.13761     -130.65414      5525.7839      5724.4655      4185.3711      1539.0944      1403.6469      1378.3893      2576.7274      0             -3819.6692      0              0             -132.09821      104269.8       47.067325      47.067325      47.067325      0.80449795    -293.81815      605.92773     -704.07199    
    868000   1736000        400.81187      679.08972      6846.8324      5817.2222      4299.8838      1517.3384      1365.2123      1403.5794      2570.2982      0             -3821.7516      0              0             -132.49079      103960.84      47.020791      47.020791      47.020791      0.80688884     519.87904      712.96158      804.42852    
    868500   1737000        392.5049      -733.8638       4661.2857      5772.8927      4210.7672      1562.1255      1399.3116      1390.275       2613.4174      0             -3840.8784      0              0             -132.61588      103862.78      47.006002      47.006002      47.006002      0.80765066    -1002.8047     -718.63493     -480.15177    
    869000   1738000        392.07852      379.23087      6320.5097      5747.8041      4206.1931      1541.611       1410.62        1368.71        2613.3939      0             -3851.1129      0              0             -133.01593      103550.41      46.958831      46.958831      46.958831      0.81008701     949.91966      378.52458     -190.75164    
    869500   1739000        380.19821      117.17266      5791.8011      5613.3524      4078.7419      1534.6105      1415.9647      1383.2649      2556.1485      0             -3820.7676      0              0             -131.89985      104426.61      47.090907      47.090907      47.090907      0.80328995    -40.514094      702.92728     -310.89522    
    870000   1740000        382.9672       408.71232      6331.7695      5709.8865      4108.4473      1601.4392      1388.8588      1403.1413      2629.6652      0             -3820.2261      0              0             -132.02022      104331.4       47.076591      47.076591      47.076591      0.804023       408.64201      321.42223      496.07271    
    870500   1741000        385.37623      654.19311      6788.0299      5792.203       4134.2912      1657.9117      1465.7617      1382.8692      2637.2045      0             -3827.9237      0              0             -131.96338      104376.33      47.083349      47.083349      47.083349      0.80367686     784.39053      533.74411      644.44469    
    871000   1742000        385.92374     -158.82148      5484.3096      5724.1945      4140.165       1584.0295      1370.3926      1437.3619      2631.725       0             -3855.45        0              0             -132.99571      103566.15      46.96121       46.96121       46.96121       0.8099639     -70.771877     -163.84498     -241.84758    
    871500   1743000        387.85106      159.46728      5989.5344      5744.6903      4160.8412      1583.8491      1428.3016      1342.5003      2608.377       0             -3795.3298      0              0             -130.83179      105279.11      47.218704      47.218704      47.218704      0.79678529     472.14403      391.80595     -385.54815    
    872000   1744000        398.86446      100.01268      6081.354       5928.5265      4278.9922      1649.5343      1411.4688      1430.485       2597.4247      0             -3789.8442      0              0             -131.45733      104778.13      47.143688      47.143688      47.143688      0.80059493    -168.66165      160.97885      307.72086    
    872500   1745000        397.65402     -593.3201       4835.4282      5730.368       4266.0066      1464.3614      1387.2171      1397.3545      2527.1295      0             -3847.3397      0              0             -133.1762       103425.79      46.939986      46.939986      46.939986      0.81106309    -719.55525      349.56877     -1409.9738    
    873000   1746000        382.61207     -697.26212      4583.522       5639.7628      4104.6375      1535.1253      1377.2769      1431.6913      2542.209       0             -3816.052       0              0             -132.6064       103870.21      47.007122      47.007122      47.007122      0.80759293    -1081.0409     -476.3626      -534.38283    
    873500   1747000        386.68918     -286.66001      5283.6594      5717.085       4148.3766      1568.7085      1417.1188      1428.6926      2586.9479      0             -3864.0509      0              0             -132.85683      103674.41      46.977568      46.977568      46.977568      0.80911809    -197.00875      113.31566     -776.28694    
    874000   1748000        402.29189      247.86625      6249.0105      5876.1546      4315.7614      1560.3931      1389.7118      1398.1799      2640.6114      0             -3868.11        0              0             -133.53886      103144.91      46.897455      46.897455      46.897455      0.81327174     69.105924     -282.92805      957.42087    
    874500   1749000        398.82253      135.09817      6000.1443      5796.6989      4278.5424      1518.1565      1371.4848      1385.8201      2646.366       0             -3885.5143      0              0             -133.39297      103257.72      46.914545      46.914545      46.914545      0.81238328    -393.35628      29.062783      769.588      
    875000   1750000        382.23372      19.860829      5598.1693      5568.1754      4100.5786      1467.5968      1417.9422      1364.2874      2555.7059      0             -3870.3387      0              0             -133.01379      103552.07      46.959082      46.959082      46.959082      0.81007401    -750.47705      346.89421      463.16533    
    875500   1751000        392.99679     -777.3547       4649.4627      5824.6184      4216.0442      1608.5742      1395.9955      1425.3392      2645.4017      0             -3858.1622      0              0             -132.87864      103657.4       46.974998      46.974998      46.974998      0.8092509     -1015.2484     -689.88372     -626.93202    
    876000   1752000        397.90561     -335.28846      5308.0415      5814.491       4268.7056      1545.7853      1424.899       1370.0743      2620.7735      0             -3869.9614      0              0             -132.98843      103571.82      46.962067      46.962067      46.962067      0.80991958    -574.83243      205.22203     -636.255      
    876500   1753000        392.3248       15.530029      5722.6322      5699.059       4208.8351      1490.2239      1355.8976      1402.1345      2565.0875      0             -3832.8957      0              0             -132.33812      104080.78      47.038866      47.038866      47.038866      0.80595904     250.51998     -420.35976      216.42987    
    877000   1754000        387.4858       77.074297      5804.9275      5688.846       4156.9226      1531.9234      1411.8932      1370.7976      2617.1769      0             -3867.9443      0              0             -133.37607      103270.81      46.916527      46.916527      46.916527      0.81228033     438.62099      632.76501     -840.16311    
    877500   1755000        396.44158     -302.69867      5287.6274      5744.8921      4252.9997      1491.8925      1408.2665      1412.0326      2543.7444      0             -3872.151       0              0             -132.97628      103581.28      46.963497      46.963497      46.963497      0.80984558    -65.040361     -676.14327     -166.91239    
    878000   1756000        374.00672      60.737574      5633.9268      5542.0964      4012.3199      1529.7765      1418.4658      1337.7408      2605.8651      0             -3832.2952      0              0             -132.86251      103669.98      46.976899      46.976899      46.976899      0.80915267    -168.60414      400.70112     -49.884257    
    878500   1757000        383.63013     -49.748481      5588.4867      5663.4034      4115.5592      1547.8442      1458.3302      1379.1353      2583.2684      0             -3872.8897      0              0             -133.39276      103257.88      46.914569      46.914569      46.914569      0.812382      -370.49674     -168.71547      389.96676    
    879000   1758000        395.67858      1481.9975      7992.4323      5765.5851      4244.8142      1520.7709      1412.0754      1410.3547      2568.5552      0             -3870.2145      0              0             -133.68677      103030.79      46.880153      46.880153      46.880153      0.81417254     1453.9742      1029.6745      1962.3438    
    879500   1759000        387.29281      261.38448      6056.5937      5664.9037      4154.8522      1510.0515      1407.5558      1453.0682      2554.0706      0             -3904.6431      0              0             -134.05059      102751.16      46.837703      46.837703      46.837703      0.81638825     511.07042     -237.4638       510.54682    
    880000   1760000        386.906        525.77874      6564.4375      5768.5686      4150.7026      1617.866       1424.4746      1437.2997      2603.6321      0             -3847.5404      0              0             -132.70671      103791.7       46.995276      46.995276      46.995276      0.80820381     826.9571       156.34402      594.03511    
    880500   1761000        399.07494     -57.353781      5740.4124      5827.0323      4281.2502      1545.7821      1416.2483      1367.1172      2599.1707      0             -3836.7541      0              0             -133.00746      103557.01      46.959828      46.959828      46.959828      0.81003542    -304.68904      626.7488      -494.1211     
    881000   1762000        387.87159     -250.0341       5270.9351      5648.2994      4161.0614      1487.238       1413.2536      1392.6558      2537.1021      0             -3855.7735      0              0             -133.09747      103486.97      46.94924       46.94924       46.94924       0.8105836      156.01846     -720.01934     -186.10142    
    881500   1763000        385.4958      -449.21597      5093.76        5769.9253      4135.574       1634.3513      1438.0011      1402.7651      2642.9881      0             -3849.4031      0              0             -133.45465      103210         46.907317      46.907317      46.907317      0.81275889    -58.946166     -677.55082     -611.15094    
    882000   1764000        394.23469      1151.7993      7439.1872      5733.3526      4229.3243      1504.0283      1350.1706      1392.9611      2668.6658      0             -3907.7692      0              0             -135.63483      101551.01      46.65463       46.65463       46.65463       0.82603655     1190.8049      1212.0063      1052.5865    
    882500   1765000        383.71737      706.81895      6573.1658      5511.1472      4116.4951      1394.6521      1406.7874      1351.889       2526.4487      0             -3890.4731      0              0             -133.69262      103026.28      46.879469      46.879469      46.879469      0.81420818     264.30377      1217.0788      639.07433    
    883000   1766000        389.82741     -95.264682      5529.068       5673.5019      4182.0432      1491.4587      1464.6744      1336.3872      2544.8603      0             -3854.4633      0              0             -132.49334      103958.84      47.02049       47.02049       47.02049       0.80690435    -540.78897     -325.07893      580.07385    
    883500   1767000        384.26661      86.399709      5905.993       5775.245       4122.3874      1652.8576      1443.8074      1417.681       2636.1798      0             -3844.8106      0              0             -132.74204      103764.07      46.991105      46.991105      46.991105      0.80841902     390.67693     -448.36206      316.88425    
    884000   1768000        397.92887      640.06622      6761.8008      5801.6037      4268.9552      1532.6485      1428.7217      1395.5905      2590.4284      0             -3882.0921      0              0             -133.90471      102863.1       46.854705      46.854705      46.854705      0.81549986     801.31649      695.46005      423.42212    
    884500   1769000        390.99794      44.268037      5771.6773      5705.1209      4194.6006      1510.5203      1442.2484      1367.0954      2564.9972      0             -3863.8207      0              0             -133.60786      103091.65      46.88938       46.88938       46.88938       0.81369197     58.251767     -408.91271      483.46505    
    885000   1770000        388.08394      167.82762      5807.563       5556.0753      4163.3394      1392.7359      1375.0133      1378.0373      2529.2465      0             -3889.5612      0              0             -134.05347      102748.95      46.837366      46.837366      46.837366      0.81640583     169.2549       57.731316      276.49666    
    885500   1771000        386.16186     -167.82324      5316.2758      5567.2099      4142.7195      1424.4904      1425.3531      1374.4857      2531.45        0             -3906.7984      0              0             -134.34571      102525.45      46.803381      46.803381      46.803381      0.81818556    -617.11714      208.32592     -94.678501    
    886000   1772000        393.11803     -76.749365      5627.4881      5743.7583      4217.3448      1526.4136      1464.7403      1375.8099      2542.8741      0             -3857.0108      0              0             -132.59817      103876.65      47.008095      47.008095      47.008095      0.80754281    -967.85278      817.42095     -79.816262    
    886500   1773000        397.5948      -58.7253        5599.0777      5687.831       4265.3713      1422.4597      1374.6485      1362.8411      2557.1571      0             -3872.187       0              0             -132.91436      103629.54      46.970789      46.970789      46.970789      0.80946848     195.15435     -351.75678     -19.573468    
    887000   1774000        383.1616       34.689678      5628.6462      5576.7571      4110.5329      1466.2243      1406.8716      1342.2615      2596.6319      0             -3879.5407      0              0             -134.29384      102565.05      46.809406      46.809406      46.809406      0.81786969    -262.345       -151.72848      518.14251    
    887500   1775000        392.72115      99.182701      5886.7457      5737.916       4213.0871      1524.8289      1462.6953      1379.4827      2586.0775      0             -3903.4266      0              0             -133.86828      102891.1       46.858955      46.858955      46.858955      0.81527797     805.54852     -330.57        -177.43041    
    888000   1776000        382.73987     -234.83702      5291.6335      5646.0837      4106.0086      1540.0751      1423.4113      1413.3492      2552.2424      0             -3848.9278      0              0             -133.08917      103493.42      46.950215      46.950215      46.950215      0.81053308    -74.937114      38.374088     -667.94803    
    888500   1777000        389.07331     -856.40939      4299.0713      5588.4677      4173.9533      1414.5144      1424.703       1332.8545      2531.1288      0             -3874.1719      0              0             -133.42166      103235.51      46.911182      46.911182      46.911182      0.81255801    -1297.9485     -298.51187     -972.7678     
    889000   1778000        390.58916      18.182686      5699.1494      5671.8703      4190.2152      1481.6551      1405.9325      1384.1561      2570.9198      0             -3879.3533      0              0             -133.89333      102871.84      46.856032      46.856032      46.856032      0.81543055     812.64866     -665.95188     -92.148715    
    889500   1779000        391.53638     -475.28791      4887.8726      5598.6957      4200.377       1398.3187      1393.6268      1349.8706      2542.836       0             -3888.0147      0              0             -134.31565      102548.4       46.806873      46.806873      46.806873      0.81800249    -770.28736     -685.01758      29.441228    
    890000   1780000        399.79201      436.94923      6474.1455      5816.7551      4288.9429      1527.8122      1433.0304      1380.0937      2551.4145      0             -3836.7264      0              0             -133.51775      103161.22      46.899926      46.899926      46.899926      0.8131432      1.2477672     -67.804165      1377.4041    
    890500   1781000        389.86933     -427.36526      5038.2758      5679.9347      4182.4929      1497.4418      1399.1393      1398.7047      2576.0613      0             -3876.4636      0              0             -133.79083      102950.66      46.867996      46.867996      46.867996      0.81480626    -1009.5779      54.17928      -326.69713    
    891000   1782000        399.0471      -691.48944      4752.9778      5803.5531      4280.9515      1522.6016      1432.2323      1373.7718      2546.5376      0             -3829.9401      0              0             -132.21774      104175.54      47.053137      47.053137      47.053137      0.80522591    -779.85549     -605.69354     -688.9193     
    891500   1783000        387.9709      -175.98459      5383.0663      5648.9889      4162.1267      1486.8622      1430.2373      1364.3377      2553.8379      0             -3861.5507      0              0             -132.93849      103610.73      46.967947      46.967947      46.967947      0.80961541    -48.072472      70.07586      -549.95717    
    892000   1784000        390.72235     -364.27574      5180.81        5727.1225      4191.6441      1535.4784      1457.6214      1388.0834      2580.7147      0             -3890.9411      0              0             -133.94312      102833.6       46.850225      46.850225      46.850225      0.81573377     12.189785     -601.91795     -503.09906    
    892500   1785000        396.73384     -386.35509      5299.8116      5883.8579      4256.135       1627.7229      1499.1596      1412.4357      2554.7241      0             -3838.5965      0              0             -132.88341      103653.68      46.974436      46.974436      46.974436      0.80927997    -233.76829      120.36484     -1045.6618    
    893000   1786000        382.82354     -572.18271      4817.4539      5686.8767      4106.9062      1579.9705      1420.4889      1402.5055      2583.4033      0             -3826.4272      0              0             -132.2011       104188.65      47.055111      47.055111      47.055111      0.80512462    -926.89235     -219.8761      -569.77969    
    893500   1787000        392.37533      909.9016       7011.7413      5646.3689      4209.3772      1436.9917      1388.3289      1374.5461      2545.2632      0             -3871.1465      0              0             -133.86735      102891.81      46.859063      46.859063      46.859063      0.8152723      669.16924      576.89121      1483.6444    
    894000   1788000        388.52642      134.15809      5945.0196      5743.658       4168.0863      1575.5717      1490.488       1405.9512      2549.5172      0             -3870.3847      0              0             -133.83557      102916.24      46.862772      46.862772      46.862772      0.81507876     390.25481      171.27781     -159.05836    
    894500   1789000        379.33201      757.86778      6619.3817      5482.3269      4069.4493      1412.8777      1399.3854      1353.4068      2563.0255      0             -3902.94        0              0             -133.88854      102875.53      46.856591      46.856591      46.856591      0.81540135    -79.957041      373.83595      1979.7244    
    895000   1790000        389.97025     -188.13374      5426.2351      5714.1802      4183.5757      1530.6045      1457.4466      1360.9463      2515.7816      0             -3803.57        0              0             -131.24672      104946.27      47.168892      47.168892      47.168892      0.79931228     390.87019     -395.27888     -559.99253    
    895500   1791000        397.11159     -261.44127      5389.6645      5791.1402      4260.1874      1530.9527      1475.2232      1404.8358      2445.8523      0             -3794.9587      0              0             -130.81159      105295.36      47.221135      47.221135      47.221135      0.79666227    -430.8132      -179.37363     -174.13698    
    896000   1792000        392.47382     -196.3786       5407.4009      5703.4426      4210.4338      1493.0089      1423.0819      1419.4596      2547.1037      0             -3896.6363      0              0             -133.25166      103367.22      46.931124      46.931124      46.931124      0.81152265    -148.88439      187.04788     -627.29929    
    896500   1793000        386.65665     -20.368567      5693.4212      5724.2361      4148.0276      1576.2085      1465.775       1403.8459      2585.3777      0             -3878.7901      0              0             -132.77959      103734.72      46.986675      46.986675      46.986675      0.80864768    -468.43878     -646.52886      1053.8619    
    897000   1794000        397.56222      256.10425      6298.4478      5911.8392      4265.0218      1646.8174      1452.6639      1443.1334      2592.5486      0             -3841.5286      0              0             -133.0689       103509.19      46.952599      46.952599      46.952599      0.81040962     317.74749      707.36145     -256.7962     
    897500   1795000        390.36704     -266.6728       5351.5966      5761.1379      4187.8324      1573.3055      1466.796       1365.4404      2556.1131      0             -3815.0439      0              0             -130.80139      105303.58      47.222362      47.222362      47.222362      0.79660013    -688.63695      452.67922     -564.06066    
    898000   1796000        385.86313     -98.41323       5421.8014      5569.5511      4139.5147      1430.0364      1415.6576      1344.4815      2535.2848      0             -3865.3875      0              0             -133.80067      102943.08      46.866846      46.866846      46.866846      0.81486624     317.50553     -780.41011      167.66489    
    898500   1797000        381.94232     -181.97258      5260.3892      5533.0559      4097.4525      1435.6034      1410.685       1381.6378      2531.5523      0             -3888.2716      0              0             -134.06184      102742.54      46.836392      46.836392      46.836392      0.81645679     301.60936     -553.27961     -294.24749    
    899000   1798000        396.61426     -369.89916      5163.1565      5714.3043      4254.8522      1459.4521      1382.2914      1374.4449      2623.9284      0             -3921.2126      0              0             -134.81763      102166.56      46.748706      46.748706      46.748706      0.82105965    -1109.5297     -348.55879      348.39102    
    899500   1799000        392.74835     -44.454474      5806.849       5874.4642      4213.3789      1661.0853      1483.0701      1437.5991      2578.7194      0             -3838.3033      0              0             -132.06935      104292.59      47.070753      47.070753      47.070753      0.80432221    -58.663794      553.61487     -628.31449    
    900000   1800000        387.74213     -498.8024       4983.1857      5733.214       4159.6725      1573.5414      1418.0087      1383.649       2618.5013      0             -3846.6175      0              0             -133.59257      103103.45      46.891169      46.891169      46.891169      0.81359883    -1347.3409     -348.81217      199.7459     
    900500   1801000        398.66431      466.25206      6472.0267      5772.0822      4276.8449      1495.2373      1381.8448      1387.8647      2604.5217      0             -3878.9939      0              0             -133.80998      102935.92      46.865759      46.865759      46.865759      0.81492294     223.5096       302.38305      872.86353    
    901000   1802000        397.01484     -29.571161      5826.888       5871.253       4259.1495      1612.1035      1465.81        1416.3816      2604.3884      0             -3874.4766      0              0             -133.89335      102871.83      46.85603       46.85603       46.85603       0.81543064     349.48215     -327.52116     -110.67447    
    901500   1803000        378.78826     -218.68085      5341.1479      5671.4101      4063.616       1607.7941      1427.0101      1461.3899      2597.6143      0             -3878.2202      0              0             -133.00966      103555.29      46.959568      46.959568      46.959568      0.81004887    -249.3696      -732.21733      325.54438    
    902000   1804000        396.10255      245.46419      6292.9434      5918.025       4249.3625      1668.6625      1447.261       1453.2624      2577.1619      0             -3809.0227      0              0             -131.51727      104730.38      47.136525      47.136525      47.136525      0.80095995     503.24126     -438.53958      671.69091    
    902500   1805000        390.86324      396.71813      6281.7713      5681.066       4193.1556      1487.9104      1379.3799      1389.1303      2552.9084      0             -3833.5082      0              0             -132.66366      103825.37      47.000358      47.000358      47.000358      0.80794168     438.40269      685.85906      65.892642    
    903000   1806000        391.45741     -237.48891      5456.2741      5814.5665      4199.5298      1615.0367      1454.4413      1415.9574      2606.0678      0             -3861.4298      0              0             -133.14874      103447.12      46.943212      46.943212      46.943212      0.81089586    -793.38388     -44.95599       125.87314    
    903500   1807000        392.98998     -285.11875      5290.0645      5720.0741      4215.9712      1504.1029      1417.2042      1396.8586      2573.5992      0             -3883.5592      0              0             -133.19226      103413.32      46.938099      46.938099      46.938099      0.81116089     14.988378     -633.99511     -236.34953    
    904000   1808000        376.5813      -548.55272      4703.571       5534.5621      4039.9398      1494.6223      1397.9706      1353.1451      2554.7243      0             -3811.2177      0              0             -132.603        103872.87      47.007524      47.007524      47.007524      0.8075722     -509.11917     -504.11153     -632.42745    
    904500   1809000        397.00959      285.25878      6341.2295      5910.1805      4259.0932      1651.0872      1465.1697      1418.3685      2594.0955      0             -3826.5465      0              0             -132.93634      103612.4       46.9682        46.9682        46.9682        0.80960234     390.98408     -425.6769       890.46916    
    905000   1810000        392.65815     -326.66073      5266.8818      5766.181       4212.4113      1553.7697      1444.2953      1364.6072      2545.8043      0             -3800.9371      0              0             -131.4218       104806.46      47.147936      47.147936      47.147936      0.80037856    -801.07566      524.50015     -703.40667    
    905500   1811000        392.59968      435.7669       6374.6735      5714.3333      4211.784       1502.5493      1398.0229      1370.3321      2586.3717      0             -3852.1775      0              0             -132.56163      103905.28      47.012413      47.012413      47.012413      0.80732029     313.93583      608.25456      385.11032    
    906000   1812000        396.7192      -229.78817      5457.6775      5803.1595      4255.978       1547.1815      1423.1621      1377.4636      2612.9475      0             -3866.3917      0              0             -133.60837      103091.25      46.88932       46.88932       46.88932       0.81369509    -661.25582      27.270426     -55.379128    
    906500   1813000        394.48435      142.61664      6109.9671      5896.1631      4232.0026      1664.1605      1445.6681      1420.3377      2664.5025      0             -3866.3479      0              0             -133.99409      102794.49      46.844284      46.844284      46.844284      0.81604418    -236.73728      347.38189      317.20533    
    907000   1814000        390.1489       162.47139      6056.8971      5812.361       4185.4922      1626.8688      1361.1265      1431.211       2689.7915      0             -3855.2602      0              0             -133.46438      103202.47      46.906176      46.906176      46.906176      0.81281818     512.47848     -335.9142       310.84988    
    907500   1815000        389.64842     -49.827967      5701.3037      5777.4473      4180.123       1597.3242      1423.6471      1428.9405      2560.7738      0             -3816.0371      0              0             -131.45329      104781.35      47.144171      47.144171      47.144171      0.80057034     117.81135     -239.5068      -27.788446    
    908000   1816000        386.09377      155.00638      5856.7661      5623.8185      4141.989       1481.8294      1456.958       1377.8386      2506.4708      0             -3859.4379      0              0             -133.6665       103046.42      46.882522      46.882522      46.882522      0.81404908    -123.34208     -148.50687      736.86809    
    908500   1817000        395.94177     -573.03837      4875.1929      5736.2702      4247.6378      1488.6325      1389.0789      1428.4158      2563.2191      0             -3892.0813      0              0             -133.68199      103034.48      46.880711      46.880711      46.880711      0.81414345    -421.62895     -892.94033     -404.54582    
    909000   1818000        385.82949      127.77994      6001.9547      5808.5735      4139.1538      1669.4197      1460.9878      1446.044       2614.31        0             -3851.9221      0              0             -132.73328      103770.91      46.992139      46.992139      46.992139      0.80836567    -100.4448       268.74837      215.03626    
    909500   1819000        388.08149      260.03666      6202.8067      5809.385       4163.3132      1646.0719      1450.1756      1418.1217      2626.8285      0             -3849.0539      0              0             -132.77236      103740.37      46.987528      46.987528      46.987528      0.80860365     584.34184     -147.73684      343.50499    
    910000   1820000        385.57896      371.05183      6243.2967      5681.3545      4136.4661      1544.8884      1422.3666      1403.4188      2554.8398      0             -3835.7368      0              0             -132.63994      103843.94      47.00316       47.00316       47.00316       0.80779717     1203.7236      196.79621     -287.36434    
    910500   1821000        385.88397      342.69527      6113.5367      5597.9734      4139.7383      1458.2351      1410.38        1406.5491      2525.0792      0             -3883.7732      0              0             -133.52344      103156.83      46.89926       46.89926       46.89926       0.81317783     133.06976      292.6378       602.37825    
    911000   1822000        395.18391      329.41235      6157.3984      5660.6821      4239.5075      1421.1746      1422.1899      1388.7034      2494.4768      0             -3884.1956      0              0             -133.21797      103393.37      46.935079      46.935079      46.935079      0.81131747     310.92548      575.70158      101.60999    
    911500   1823000        393.34813      495.34556      6469.1803      5721.7897      4219.8133      1501.9764      1435.7168      1403.0649      2534.7498      0             -3871.5551      0              0             -133.13492      103457.86      46.944836      46.944836      46.944836      0.81081171     56.67282       1525.9347     -96.570891    
    912000   1824000        377.14323     -964.96219      4147.9899      5600.8553      4045.9682      1554.8871      1451.1566      1416.3655      2550.6818      0             -3863.3169      0              0             -133.41857      103237.91      46.911544      46.911544      46.911544      0.81253917    -1486.8344     -928.72276     -479.32944    
    912500   1825000        396.02327     -23.086468      5762.5676      5797.5072      4248.512       1548.9951      1422.1994      1462.5956      2512.4059      0             -3848.2058      0              0             -132.73085      103772.81      46.992426      46.992426      46.992426      0.80835088    -884.18297      360.27111      454.65246    
    913000   1826000        383.70216     -912.10029      4261.1107      5641.159       4116.332       1524.827       1435.6472      1393.8776      2536.2777      0             -3840.9755      0              0             -132.7638       103747.06      46.988538      46.988538      46.988538      0.8085515     -1310.8955     -588.63083     -836.77455    
    913500   1827000        385.59895     -184.3756       5370.8609      5649.3336      4136.6806      1512.653       1420.1862      1335.6519      2641.3346      0             -3884.5197      0              0             -133.00019      103562.67      46.960683      46.960683      46.960683      0.80999115    -868.88944     -224.51941      540.28205    
    914000   1828000        385.67095      58.733678      5781.2239      5692.8413      4137.4531      1555.3883      1440.7453      1439.9417      2541.4764      0             -3866.7752      0              0             -133.49103      103181.87      46.903055      46.903055      46.903055      0.81298048     224.98255      572.8094      -621.59092    
    914500   1829000        394.71677      120.39138      5965.7151      5784.3829      4234.496       1549.8869      1443.5128      1465.2189      2500.6089      0             -3859.4537      0              0             -133.36811      103276.97      46.91746       46.91746       46.91746       0.81223184     135.80062      379.63365     -154.26012    
    915000   1830000        393.05809      381.62933      6238.2887      5663.6484      4216.7018      1446.9465      1405.0369      1384.9085      2511.4234      0             -3854.4223      0              0             -133.4065       103247.25      46.91296       46.91296       46.91296       0.81246564    -7.3190274      550.60238      601.60465    
    915500   1831000        384.55913      9.9834875      5605.5313      5590.3888      4125.5254      1464.8633      1443.0876      1332.3057      2519.8986      0             -3830.4287      0              0             -132.43887      104001.6       47.026935      47.026935      47.026935      0.80657262     292.73247     -710.84876      448.06676    
    916000   1832000        394.1326       597.56569      6650.2608      5749.9924      4228.229       1521.7634      1475.4178      1372.7042      2529.7381      0             -3856.0967      0              0             -133.33526      103302.41      46.921312      46.921312      46.921312      0.81203183     76.152867      1006.5047      710.03955    
    916500   1833000        386.99993      1007.0949      7210.6202      5683.1526      4151.7103      1531.4423      1443.3709      1393.0258      2508.0692      0             -3813.0236      0              0             -132.44323      103998.17      47.026418      47.026418      47.026418      0.80659922     1088.1213      730.01626      1203.1472    
    917000   1834000        394.69408      277.30829      6277.986       5854.8413      4234.2526      1620.5887      1469.0474      1383.0754      2600.9385      0             -3832.4726      0              0             -131.64529      104628.54      47.121241      47.121241      47.121241      0.80173962     7.8800401      774.50059      49.544247    
    917500   1835000        387.94485     -40.287415      5632.1691      5692.7616      4161.8473      1530.9144      1442.7733      1410.3335      2565.2466      0             -3887.4391      0              0             -133.56164      103127.32      46.894788      46.894788      46.894788      0.81341049    -20.352875     -183.11827      82.608901    
    918000   1836000        384.6778      -523.97598      4814.7851      5603.79        4126.7986      1476.9915      1447.7466      1372.6947      2515.1294      0             -3858.5792      0              0             -133.40221      103250.57      46.913462      46.913462      46.913462      0.81243953    -977.6349      -881.9168       287.62377    
    918500   1837000        392.05636     -905.54527      4368.1031      5737.7019      4205.9553      1531.7467      1468.573       1397.9172      2538.3713      0             -3873.1148      0              0             -132.81531      103706.82      46.982462      46.982462      46.982462      0.80886525    -584.32265     -1332.9769     -799.33627    
    919000   1838000        387.40291     -32.103554      5690.0488      5738.3664      4156.0334      1582.333       1385.9275      1457.2392      2591.6797      0             -3852.5133      0              0             -133.46856      103199.24      46.905687      46.905687      46.905687      0.81284362     411.50104      79.099069     -586.91078    
    919500   1839000        396.62839     -50.851498      5763.6684      5839.9219      4255.0038      1584.9181      1466.6724      1407.8592      2615.342       0             -3904.9555      0              0             -133.96006      102820.6       46.848251      46.848251      46.848251      0.81583692    -171.86913      212.8682      -193.55356    
    920000   1840000        386.46252     -352.71038      5134.7373      5666.7441      4145.945       1520.7991      1389.2178      1388.3609      2608.5491      0             -3865.3287      0              0             -133.17798      103424.41      46.939776      46.939776      46.939776      0.81107396    -265.58483     -1036.438       243.89169    
    920500   1841000        388.91208     -396.28032      5195.0793      5787.5798      4172.2237      1615.3561      1422.781       1460.124       2613.6726      0             -3881.2215      0              0             -134.35231      102520.41      46.802614      46.802614      46.802614      0.8182258     -737.06482      5.4302484     -457.20639    
    921000   1842000        392.0745       316.68264      6223.7593      5746.7551      4206.1499      1540.6052      1421.659       1381.7763      2578.8244      0             -3841.6545      0              0             -133.36241      103281.38      46.918128      46.918128      46.918128      0.81219716    -97.358091      497.18058      550.22543    
    921500   1843000        388.89482     -697.73049      4736.2142      5793.932       4172.0385      1621.8935      1411.3608      1411.7717      2630.9674      0             -3832.2064      0              0             -132.51018      103945.63      47.018497      47.018497      47.018497      0.80700695    -985.09753     -232.95029     -875.14366    
    922000   1844000        387.247        686.32775      6849.329       5799.6523      4154.3608      1645.2915      1452.9389      1392.0875      2615.7107      0             -3815.4456      0              0             -131.34313      104869.24      47.157347      47.157347      47.157347      0.79989945     1401.4633      251.3914       406.12854    
    922500   1845000        404.1023       101.45492      6085.0029      5930.3611      4335.1833      1595.1777      1405.0007      1419.7542      2604.9199      0             -3834.4971      0              0             -131.78847      104514.87      47.10417       47.10417       47.10417       0.8026116      321.55013     -573.52198      556.33661    
    923000   1846000        390.98616     -139.10337      5664.8046      5874.2308      4194.4742      1679.7565      1460.8789      1474.4261      2612.7396      0             -3868.2881      0              0             -133.4253       103232.7       46.910756      46.910756      46.910756      0.81258013    -768.75314      980.81494     -629.37191    
    923500   1847000        391.45577     -577.16364      4865.998       5737.849       4199.5122      1538.3369      1428.1345      1389.6662      2570.11        0             -3849.574       0              0             -132.98053      103577.98      46.962997      46.962997      46.962997      0.80987142    -578.80853     -1108.5575     -44.124856    
    924000   1848000        397.13343      106.24374      5876.5586      5715.9501      4260.4217      1455.5284      1416.0529      1308.529       2598.239       0             -3867.2925      0              0             -132.88199      103654.79      46.974603      46.974603      46.974603      0.8092713     -293.80162      381.70789      230.82496    
    924500   1849000        390.59467     -384.1234       5100.4768      5683.8462      4190.2744      1493.5718      1345.9208      1423.2335      2554.6199      0             -3830.2023      0              0             -132.26912      104135.07      47.047044      47.047044      47.047044      0.80553883    -795.09318     -1236.6717      879.39465    
    925000   1850000        398.29057     -285.98064      5374.7177      5805.4777      4272.8355      1532.6422      1426.6322      1378.7918      2597.148       0             -3869.9298      0              0             -133.36217      103281.57      46.918157      46.918157      46.918157      0.81219568     170.02161     -284.4881      -743.47542    
    925500   1851000        391.04825     -114.05013      5569.158       5742.9508      4195.1403      1547.8105      1411.6244      1408.2135      2557.1825      0             -3829.2098      0              0             -131.82423      104486.51      47.09991       47.09991       47.09991       0.8028294     -428.76388     -277.78383      364.39732    
    926000   1852000        384.93589      76.655363      5773.8872      5658.6583      4129.5674      1529.0909      1394.2809      1403.9001      2585.3066      0             -3854.3966      0              0             -133.63259      103072.57      46.886487      46.886487      46.886487      0.81384258     350.81152      64.869165     -185.7146     
    926500   1853000        399.70233      146.9786       6052.4241      5831.1979      4287.9808      1543.2171      1443.0113      1378.2906      2587.3189      0             -3865.4037      0              0             -133.45934      103206.37      46.906767      46.906767      46.906767      0.81278747     446.97257     -28.958248      22.921491    
    927000   1854000        386.21584      652.08689      6664.3939      5681.0524      4143.2985      1537.7539      1337.522       1443.4391      2608.9488      0             -3852.156       0              0             -133.20867      103400.58      46.936171      46.936171      46.936171      0.81126086     605.51898      592.10143      758.64028    
    927500   1855000        389.85841     -142.07215      5614.5264      5828.964       4182.3758      1646.5882      1411.227       1425.1781      2664.2894      0             -3854.1062      0              0             -133.08812      103494.24      46.950339      46.950339      46.950339      0.81052666    -422.87541      107.05732     -110.39837    
    928000   1856000        393.72011      17.087371      5904.1652      5878.362       4223.8039      1654.558       1390.8837      1438.4014      2677.9371      0             -3852.6642      0              0             -133.02449      103543.75      46.957823      46.957823      46.957823      0.81013916    -275.38553      189.61146      137.03619    
    928500   1857000        391.80519      63.83624       5901.6396      5805.3854      4203.2608      1602.1246      1363.8876      1367.3219      2701.1174      0             -3830.2024      0              0             -133.22284      103389.58      46.934507      46.934507      46.934507      0.81134714     72.929458     -454.91283      573.49209    
    929000   1858000        388.53001      324.94653      6308.5449      5816.87        4168.1249      1648.7451      1401.7178      1431.9048      2654.5387      0             -3839.4162      0              0             -132.75938      103750.51      46.989059      46.989059      46.989059      0.80852461     689.71161      338.45772     -53.329728    
    929500   1859000        394.53747     -138.98839      5626.299       5835.4562      4232.5725      1602.8837      1364.2592      1401.7862      2671.3671      0             -3834.5288      0              0             -133.48637      103185.47      46.903601      46.903601      46.903601      0.81295207     215.89879     -35.808797     -597.05516    
    930000   1860000        383.13971     -530.05024      4906.5972      5709.9468      4110.2981      1599.6487      1363.4668      1392.0207      2637.3492      0             -3793.188       0              0             -132.53904      103922.99      47.015084      47.015084      47.015084      0.80718272    -1207.7471     -87.167696     -295.2359     
    930500   1861000        392.91047      440.51353      6512.1492      5837.63        4215.1182      1622.5119      1365.9748      1415.8741      2619.3934      0             -3778.7304      0              0             -131.18867      104992.71      47.175849      47.175849      47.175849      0.79895871     2.5125282      501.09525      817.93282    
    931000   1862000        383.61418      247.60301      6031.4977      5656.2936      4115.3881      1540.9055      1351.2934      1399.8136      2599.2966      0             -3809.498       0              0             -132.56219      103904.84      47.012347      47.012347      47.012347      0.8073237      788.20311      1043.5491     -1088.9432    
    931500   1863000        389.42625     -256.74499      5419.2388      5814.1617      4177.7396      1636.4221      1428.6181      1450.4521      2551.6134      0             -3794.2614      0              0             -130.59334      105471.34      47.247426      47.247426      47.247426      0.79533307     308.40184     -40.621972     -1038.0148    
    932000   1864000        396.46338      21.418182      5963.8327      5931.1804      4253.2335      1677.9469      1429.4215      1391.7072      2651.6151      0             -3794.7969      0              0             -131.76516      104533.35      47.106947      47.106947      47.106947      0.80246964    -188.81872      181.22143      71.851834    
    932500   1865000        392.12445      919.11368      7205.6325      5824.4398      4206.6857      1617.7541      1408.1394      1406.0181      2660.3549      0             -3856.7583      0              0             -133.67381      103040.78      46.881667      46.881667      46.881667      0.81409364     1093.6945      965.51757      698.12904    
    933000   1866000        383.83245     -242.1924       5353.0637      5725.0881      4117.7297      1607.3583      1392.7267      1395.1781      2595.1522      0             -3775.6986      0              0             -130.77371      105325.86      47.225693      47.225693      47.225693      0.79643158     34.092706     -781.71916      21.049249    
    933500   1867000        388.19781     -682.05818      4703.8772      5752.7216      4164.5611      1588.1605      1401.0982      1369.4731      2606.4799      0             -3788.8907      0              0             -130.62965      105442.02      47.243048      47.243048      47.243048      0.79555421    -1023.5907     -782.21209     -240.37174    
    934000   1868000        393.69567      429.55384      6462.3655      5812.6603      4223.5417      1589.1187      1414.1582      1439.131       2586.576       0             -3850.7466      0              0             -132.81057      103710.53      46.983022      46.983022      46.983022      0.80883634     1397.1456     -444.67927      336.1952     
    934500   1869000        397.65279      310.94132      6308.1131      5839.2367      4265.9935      1573.2432      1411.933       1387.3321      2610.4048      0             -3836.4267      0              0             -133.21449      103396.07      46.935488      46.935488      46.935488      0.81129628     891.39136     -272.05113      313.48373    
    935000   1870000        378.36174     -194.00596      5438.8126      5731.6167      4059.0403      1672.5764      1405.6675      1431.6677      2684.8324      0             -3849.5912      0              0             -133.09732      103487.09      46.949257      46.949257      46.949257      0.81058269    -276.09044      483.43511     -789.36255    
    935500   1871000        384.4333       1010.9439      7284.3589      5758.6283      4124.1756      1634.4526      1457.9403      1380.2548      2638.0227      0             -3841.7651      0              0             -133.10077      103484.41      46.948852      46.948852      46.948852      0.81060369     1651.7375      618.26384      762.83029    
    936000   1872000        386.65015     -425.28152      5087.6867      5728.1072      4147.9578      1580.1494      1384.9789      1435.6245      2619.4048      0             -3859.8588      0              0             -133.39596      103255.41      46.914195      46.914195      46.914195      0.81240145    -1292.859      -388.07706      405.09152    
    936500   1873000        378.49963     -693.44936      4654.428       5718.4424      4060.5196      1657.9228      1436.0854      1434.8736      2589.6011      0             -3802.6373      0              0             -130.91778      105209.96      47.208364      47.208364      47.208364      0.79730896    -609.69877     -840.10001     -630.54931    
    937000   1874000        398.40714      75.944716      5969.7345      5854.8555      4274.0861      1580.7694      1367.4576      1386.4147      2659.8464      0             -3832.9493      0              0             -132.79703      103721.1       46.984619      46.984619      46.984619      0.80875389     94.732664      425.74429     -292.64281    
    937500   1875000        387.5059      -647.77871      4865.5902      5851.7802      4157.1382      1694.642       1478.6745      1397.9473      2638.4417      0             -3820.4215      0              0             -131.94637      104389.79      47.085372      47.085372      47.085372      0.80357326    -1331.0117     -167.19362     -445.13076    
    938000   1876000        394.96468      8.1361832      5846.2444      5833.8024      4237.1556      1596.6468      1430.5881      1370.1141      2588.7162      0             -3792.7716      0              0             -131.35918      104856.43      47.155427      47.155427      47.155427      0.79999715     489.15996     -851.20791      386.4565     
    938500   1877000        398.32245     -123.36455      5649.1685      5838.4306      4273.1775      1565.2531      1362.8288      1361.8114      2609.8456      0             -3769.2327      0              0             -130.9357       105195.56      47.20621       47.20621       47.20621       0.79741811    -43.539931     -161.23122     -165.32249    
    939000   1878000        389.4916       676.15714      6703.5853      5684.0946      4178.4407      1505.6539      1399.6963      1405.2903      2555.5988      0             -3854.9315      0              0             -133.22807      103385.53      46.933893      46.933893      46.933893      0.81137899    -624.53367      898.73701      1754.2681    
    939500   1879000        404.65233      203.03635      6172.0323      5864.7455      4341.084       1523.6615      1381.2759      1363.2989      2626.347       0             -3847.2603      0              0             -132.72758      103775.37      46.992811      46.992811      46.992811      0.80833096     890.89296     -5.1850029     -276.59891    
    940000   1880000        394.64125     -163.82378      5640.2576      5887.93        4233.6859      1654.2441      1473.3553      1375.1513      2654.3035      0             -3848.5659      0              0             -132.87116      103663.23      46.975879      46.975879      46.975879      0.80920536    -466.92662      135.9325      -160.47722    
    940500   1881000        388.53765      582.68776      6614.4143      5734.6475      4168.2067      1566.4407      1395.3503      1451.658       2585.9672      0             -3866.5348      0              0             -133.04535      103527.51      46.955369      46.955369      46.955369      0.81026618     144.39778      662.74345      940.92204    
    941000   1882000        391.11937      15.093558      5794.0026      5771.0711      4195.9033      1575.1678      1390.495       1385.8649      2628.3329      0             -3829.5251      0              0             -132.21805      104175.29      47.0531        47.0531        47.0531        0.80522784     876.08018     -451.02014     -379.77936    
    941500   1883000        393.49957      474.83726      6328.3749      5618.1296      4221.438       1396.6916      1329.8995      1381.3663      2565.8265      0             -3880.4007      0              0             -134.29747      102562.28      46.808984      46.808984      46.808984      0.81789178     98.649146      823.23969      502.62294    
    942000   1884000        392.70314      157.32867      6010.4511      5771.6598      4212.8939      1558.7659      1433.2498      1395.0316      2566.8946      0             -3836.4101      0              0             -132.34903      104072.19      47.037573      47.037573      47.037573      0.80602552    -97.110897      1026.9736     -457.8767     
    942500   1885000        386.57568     -439.88182      5001.3816      5673.3128      4147.1589      1526.1539      1444.5464      1365.3249      2530.4054      0             -3814.1228      0              0             -131.50509      104740.08      47.13798       47.13798       47.13798       0.80088579    -534.18472     -671.69614     -113.7646     
    943000   1886000        382.96143     -39.615385      5615.9588      5676.2973      4108.3855      1567.9118      1380.9192      1397.9707      2621.0682      0             -3832.0463      0              0             -131.88657      104437.13      47.092488      47.092488      47.092488      0.80320904    -806.68867      498.92367      188.91884    
    943500   1887000        397.78633     -160.15735      5608.5172      5850.4562      4267.4261      1583.0301      1416.1605      1428.657       2577.5213      0             -3839.3086      0              0             -132.97571      103581.73      46.963565      46.963565      46.963565      0.80984206     252.95873     -142.31269     -591.11809    
    944000   1888000        382.64469      72.975192      5869.7255      5758.9477      4104.9875      1653.9602      1461.5559      1426.8504      2592.4129      0             -3826.859       0              0             -132.32864      104088.23      47.039988      47.039988      47.039988      0.80590136    -35.407093      57.124423      197.20824    
    944500   1889000        384.62214     -117.64806      5525.8945      5705.424       4126.2015      1579.2225      1466.8272      1374.3558      2552.0242      0             -3813.9846      0              0             -131.63768      104634.59      47.122149      47.122149      47.122149      0.80169325    -139.60838     -531.40794      318.07214    
    945000   1890000        388.54237      143.68058      6100.295       5882.371       4168.2574      1714.1136      1463.7841      1445.0552      2598.3379      0             -3793.0637      0              0             -132.4416       103999.45      47.026611      47.026611      47.026611      0.80658927     610.84333      768.5135      -948.31509    
    945500   1891000        390.13495      412.78455      6438.3952      5815.2254      4185.3425      1629.8828      1443.6477      1409.0305      2598.6739      0             -3821.4694      0              0             -133.06025      103515.92      46.953616      46.953616      46.953616      0.81035696     183.67422      4.450879       1050.2286    
    946000   1892000        387.9448       74.504277      5846.7149      5734.3142      4161.8468      1572.4675      1398.441       1442.3006      2568.3969      0             -3836.671       0              0             -133.15075      103445.56      46.942976      46.942976      46.942976      0.81090811     121.20102     -545.72656      648.03837    
    946500   1893000        393.64027      258.71185      6201.8657      5816.3586      4222.9474      1593.4112      1409.37        1474.4396      2624.9347      0             -3915.3331      0              0             -134.80787      102173.96      46.749835      46.749835      46.749835      0.82100019     140.16113      813.61914     -177.64472    
    947000   1894000        390.46884      256.99291      6281.75        5891.1219      4188.9245      1702.1974      1446.2592      1458.7637      2619.8196      0             -3822.645       0              0             -132.15666      104223.68      47.060385      47.060385      47.060385      0.80485394     178.90783      626.74326     -34.672364    
    947500   1895000        396.53648     -728.12634      4746.177       5852.1228      4254.0177      1598.1051      1403.8948      1447.3479      2567.9067      0             -3821.0442      0              0             -132.25261      104148.07      47.049001      47.049001      47.049001      0.80543829    -978.78643     -217.13267     -988.45993    
    948000   1896000        382.93899      200.41571      6020.7828      5715.2312      4108.1448      1607.0864      1438.6099      1417.9524      2574.2131      0             -3823.689       0              0             -131.75846      104538.67      47.107745      47.107745      47.107745      0.80242886     274.64004      755.91593     -429.30884    
    948500   1897000        392.03004      291.5322       6186.857       5742.0575      4205.6729      1536.3846      1417.4003      1333.7402      2597.8291      0             -3812.585       0              0             -131.65992      104616.91      47.119495      47.119495      47.119495      0.80182872     465.95958      299.78469      108.85232    
    949000   1898000        390.71397     -253.4474       5407.3558      5791.4439      4191.5542      1599.8897      1399.9955      1409.1326      2597.0648      0             -3806.3033      0              0             -132.55265      103912.32      47.013475      47.013475      47.013475      0.8072656     -949.00301     -180.57895      369.23977    
    949500   1899000        405.72717      226.10027      6179.9282      5836.2917      4352.6149      1483.6768      1363.9228      1415.7503      2525.7569      0             -3821.7533      0              0             -132.17006      104213.12      47.058795      47.058795      47.058795      0.80493554     591.76119     -107.88527      194.4249     
    950000   1900000        383.17542     -238.75988      5277.308       5638.5954      4110.6811      1527.9143      1389.4891      1426.3269      2583.3028      0             -3871.2045      0              0             -132.75162      103756.58      46.989975      46.989975      46.989975      0.80847734    -266.21362     -281.56494     -168.50107    
    950500   1901000        391.13692     -381.55908      5119.1343      5695.9228      4196.0916      1499.8312      1334.6271      1426.2453      2579.77        0             -3840.8113      0              0             -132.88518      103652.29      46.974227      46.974227      46.974227      0.80929076    -586.75768     -251.07816     -306.84141    
    951000   1902000        386.16866     -31.52464       5630.9612      5678.7338      4142.7925      1535.9413      1385.4188      1399.3424      2575.2466      0             -3824.0665      0              0             -132.55716      103908.79      47.012942      47.012942      47.012942      0.80729304    -219.46238      449.25473     -324.36627    
    951500   1903000        396.71968     -25.637208      5893.4315      5932.7773      4255.9831      1676.7942      1395.7488      1470.7033      2618.7746      0             -3808.4325      0              0             -130.88924      105232.89      47.211794      47.211794      47.211794      0.7971352      83.875616      83.174722     -243.96196    
    952000   1904000        389.73642     -421.70634      5130.061       5775.2251      4181.0672      1594.158       1368.2297      1461.3362      2587.1486      0             -3822.5567      0              0             -131.30198      104902.11      47.162274      47.162274      47.162274      0.79964879    -544.16426     -416.19151     -304.76326    
    952500   1905000        384.47372      384.78592      6248.9895      5666.8591      4124.6092      1542.2499      1412.9658      1415.7905      2556.4447      0             -3842.9512      0              0             -132.77927      103734.97      46.986713      46.986713      46.986713      0.80864574     708.63848     -219.79796      665.51724    
    953000   1906000        387.59403      642.73688      6642.8001      5676.2869      4158.0837      1518.2032      1408.1945      1427.3052      2550.4098      0             -3867.7064      0              0             -133.58472      103109.5       46.892087      46.892087      46.892087      0.81355107     487.58425      1154.7733      285.85304    
    953500   1907000        388.38436      644.43006      6622.7482      5645.6162      4166.5623      1479.0539      1391.524       1343.0015      2585.364       0             -3840.8356      0              0             -132.4811       103968.44      47.021937      47.021937      47.021937      0.80682985     1214.3239      609.83473      109.13156    
    954000   1908000        388.02047      263.34341      6100.0343      5700.9414      4162.6585      1538.2829      1394.9272      1408.1839      2585.5012      0             -3850.3295      0              0             -132.55002      103914.39      47.013786      47.013786      47.013786      0.80724957    -160.7411       202.01761      748.75371    
    954500   1909000        391.86754     -556.37534      4942.6787      5790.4539      4203.9297      1586.5242      1413.5365      1383.8331      2637.519       0             -3848.3644      0              0             -131.8313       104480.91      47.099068      47.099068      47.099068      0.80287246     53.797269     -442.30051     -1280.6228    
    955000   1910000        391.89816      504.30014      6411.3798      5656.7344      4204.2581      1452.4762      1366.6047      1387.6135      2594.4939      0             -3896.2358      0              0             -134.23864      102607.22      46.815821      46.815821      46.815821      0.81753353    -346.35949      822.56415      1036.6958    
    955500   1911000        391.36939      350.78326      6249.8078      5723.018       4198.5856      1524.4324      1334.3888      1463.6609      2589.6083      0             -3863.2255      0              0             -133.76203      102972.82      46.871358      46.871358      46.871358      0.8146309      268.32112      483.35104      300.67762    
    956000   1912000        379.55734      26.603363      5682.2999      5642.1299      4071.8666      1570.2633      1418.9228      1377.2546      2636.4872      0             -3862.4013      0              0             -133.03509      103535.49      46.956576      46.956576      46.956576      0.81020374     440.59298     -193.05615     -167.72674    
    956500   1913000        382.38498      390.06188      6337.381       5740.5088      4102.2014      1638.3074      1407.7988      1436.0958      2586.1957      0             -3791.7829      0              0             -131.27546      104923.3       47.16545       47.16545       47.16545       0.79948729     161.98446      479.90753      528.29364    
    957000   1914000        392.69217      34.426399      5842.7237      5790.6878      4212.7762      1577.9117      1427.8804      1384.2791      2601.3531      0             -3835.6009      0              0             -132.89864      103641.8       46.972641      46.972641      46.972641      0.80937273     467.98003     -572.35741      207.65658    
    957500   1915000        388.63074      283.22015      6082.7806      5657.7431      4169.2054      1488.5376      1385.1396      1358.7266      2590.1602      0             -3845.4888      0              0             -133.85305      102902.81      46.860732      46.860732      46.860732      0.8151852      342.76409      34.391703      472.50466    
    958000   1916000        385.13805      294.05512      6154.8791      5711.6911      4131.7361      1579.955       1403.5462      1422.2275      2643.607       0             -3889.4257      0              0             -133.28221      103343.53      46.927538      46.927538      46.927538      0.81170869     380.32975      737.70301     -235.8674     
    958500   1917000        389.78617     -282.69041      5392.9515      5820.0488      4181.6008      1638.448       1420.3061      1428.799       2637.616       0             -3848.273       0              0             -132.95833      103595.27      46.96561       46.96561       46.96561       0.80973626    -913.08464     -230.6905       295.70392    
    959000   1918000        392.28833      361.59672      6343.4647      5800.2749      4208.4438      1591.8311      1426.8226      1434.031       2608.3206      0             -3877.3431      0              0             -133.72242      103003.33      46.875987      46.875987      46.875987      0.81438963     692.22673      462.87385     -70.310426    
    959500   1919000        393.23161     -408.75103      5016.1673      5628.194       4218.5633      1409.6307      1340.3501      1396.3829      2563.5636      0             -3890.6659      0              0             -134.15902      102668.12      46.825081      46.825081      46.825081      0.81704859     87.185408     -640.89076     -672.54774    
    960000   1920000        392.67475      489.26923      6701.5076      5954.1362      4212.5894      1741.5468      1469.8403      1440.7125      2645.5585      0             -3814.5645      0              0             -131.50515      104740.03      47.137973      47.137973      47.137973      0.80088617     148.53423      741.3047       577.96876    
    960500   1921000        385.63227      772.65037      6712.1644      5553.7491      4137.038       1416.7111      1396.7362      1335.022       2563.2674      0             -3878.3145      0              0             -133.98312      102802.91      46.845563      46.845563      46.845563      0.81597735     211.87991      940.26892      1165.8023    
    961000   1922000        393.10519     -917.88848      4343.2589      5725.524       4217.207       1508.317       1378.2364      1443.1389      2552.987       0             -3866.0454      0              0             -133.39205      103258.43      46.914653      46.914653      46.914653      0.81237767    -1358.2537     -1037.4461     -357.9657     
    961500   1923000        381.54964     -251.30067      5270.7226      5651.5449      4093.2399      1558.305       1332.6539      1480.3026      2615.6718      0             -3870.3233      0              0             -132.55701      103908.91      47.01296       47.01296       47.01296       0.80729213     208.51478     -51.309523     -911.10729    
    962000   1924000        389.49208      257.52495      6126.7071      5730.4134      4178.4458      1551.9675      1417.8211      1336.9296      2567.5288      0             -3770.312       0              0             -130.53696      105516.89      47.254227      47.254227      47.254227      0.79498972     635.25396      326.24546     -188.92457    
    962500   1925000        395.2784      -429.19339      5218.7157      5865.9221      4240.5212      1625.401       1416.9215      1465.5868      2560.7195      0             -3817.8269      0              0             -133.21146      103398.42      46.935844      46.935844      46.935844      0.81127784    -546.4534      -99.039017     -642.08777    
    963000   1926000        390.21644     -227.90002      5412.2429      5757.5931      4186.2167      1571.3764      1442.3479      1386.6035      2587.5113      0             -3845.0863      0              0             -132.56105      103905.74      47.012481      47.012481      47.012481      0.80731677     49.22782      -701.58106     -31.346804    
    963500   1927000        383.70153      276.97901      6060.1509      5641.1535      4116.3253      1524.8283      1377.956       1453.3325      2523.53        0             -3829.9902      0              0             -132.79048      103726.22      46.985391      46.985391      46.985391      0.80871399    -93.422381      536.55405      387.80537    
    964000   1928000        387.92541      130.77931      5912.3185      5712.1531      4161.6387      1550.5144      1427.6122      1380.4608      2540.369       0             -3797.9276      0              0             -131.24459      104947.97      47.169147      47.169147      47.169147      0.79929932     194.72737      514.16118     -316.55062    
    964500   1929000        394.45778     -749.44828      4698.7555      5851.7319      4231.7176      1620.0143      1422.9114      1386.9602      2590.5362      0             -3780.3935      0              0             -130.57277      105487.95      47.249907      47.249907      47.249907      0.79520781    -1136.6871     -817.40512     -294.25264    
    965000   1930000        395.03623     -633.66988      4895.3625      5854.6731      4237.9232      1616.7499      1414.5695      1432.2318      2595.0724      0             -3825.1237      0              0             -132.68907      103805.49      46.997357      46.997357      46.997357      0.80809642    -365.78528     -820.09009     -715.13427    
    965500   1931000        381.46151     -227.86965      5342.5554      5686.6508      4092.2944      1594.3564      1361.3355      1408.4437      2643.5133      0             -3818.9362      0              0             -133.02676      103541.98      46.957556      46.957556      46.957556      0.81015298    -310.07139     -169.4291      -204.10847    
    966000   1932000        390.15952     -922.53366      4367.7927      5756.0212      4185.6061      1570.415       1418.7519      1419.9866      2583.0603      0             -3851.3837      0              0             -133.4912       103181.74      46.903035      46.903035      46.903035      0.81298148    -341.25546     -1841.2847     -585.0608     
    966500   1933000        395.42933      159.56851      6008.0996      5767.4825      4242.1403      1525.3422      1413.8845      1433.7663      2533.0873      0             -3855.3958      0              0             -133.21468      103395.92      46.935466      46.935466      46.935466      0.81129742    -65.036626      218.38076      325.3614     
    967000   1934000        388.10323      350.73534      6323.825       5794.416       4163.5463      1630.8697      1410.2692      1400.7228      2649.3811      0             -3829.5035      0              0             -133.08207      103498.95      46.95105       46.95105       46.95105       0.81048982    -344.28287      594.83614      801.65275    
    967500   1935000        392.51621      97.632618      5887.092       5738.405       4210.8886      1527.5164      1422.0603      1366.9978      2572.2121      0             -3833.7538      0              0             -131.9026       104424.43      47.09058       47.09058       47.09058       0.80330669     191.74604     -56.054669      157.20648    
    968000   1936000        390.49245      463.71933      6507.8351      5800.7255      4189.1778      1611.5477      1455.2289      1397.6148      2547.8162      0             -3789.1122      0              0             -131.7346       104557.61      47.11059       47.11059       47.11059       0.80228351     593.56907      1089.749      -292.16005    
    968500   1937000        395.23737      74.676078      5992.563       5879.432       4240.0809      1639.351       1429.0633      1444.8046      2609.4806      0             -3843.9974      0              0             -132.59619      103878.21      47.008329      47.008329      47.008329      0.80753072    -168.06423      125.86751      266.22496    
    969000   1938000        392.54097     -884.23969      4581.2014      5931.623       4211.1542      1720.4689      1431.5389      1391.8739      2667.8786      0             -3770.8225      0              0             -131.53216      104718.52      47.134746      47.134746      47.134746      0.80105067    -1429.6366     -867.95433     -355.12811    
    969500   1939000        391.14944     -201.34271      5527.441       5834.4045      4196.2259      1638.1786      1406.2994      1436.3218      2596.5067      0             -3800.9493      0              0             -131.75907      104538.18      47.107673      47.107673      47.107673      0.80243258    -537.80416      93.019485     -159.24344    
    970000   1940000        395.76616     -101.33319      5549.6522      5702.9854      4245.7537      1457.2316      1414.5056      1364.9398      2497.4428      0             -3819.6566      0              0             -132.7538       103754.87      46.989718      46.989718      46.989718      0.80849063     128.26327      32.942843     -465.20569    
    970500   1941000        382.04242     -258.70363      5266.9959      5663.1845      4098.5263      1564.6582      1404.5157      1375.6218      2555.0334      0             -3770.5127      0              0             -131.16921      105008.29      47.178181      47.178181      47.178181      0.79884021    -360.48576      335.12364     -750.74876    
    971000   1942000        395.89592     -490.88997      5101.4233      5845.8482      4247.1458      1598.7024      1408.5253      1424.0237      2601.2929      0             -3835.1395      0              0             -132.46302      103982.64      47.024077      47.024077      47.024077      0.8067197     -525.67771     -606.24749     -340.7447     
    971500   1943000        391.87636     -150.65539      5478.862       5707.1135      4204.0243      1503.0892      1384.2571      1411.5337      2541.7462      0             -3834.4479      0              0             -132.58745      103885.05      47.009362      47.009362      47.009362      0.8074775      491.23856     -102.21146     -840.99326    
    972000   1944000        384.83352     -117.52097      5362.3216      5539.6222      4128.4691      1411.1531      1384.0536      1346.7983      2561.2714      0             -3880.9702      0              0             -133.14864      103447.2       46.943224      46.943224      46.943224      0.81089527    -699.2063      -440.68794      787.33133    
    972500   1945000        395.16796      128.63584      5946.9568      5752.702       4239.3364      1513.3656      1418.1633      1438.1032      2499.8895      0             -3842.7904      0              0             -133.02143      103546.13      46.958184      46.958184      46.958184      0.81012051     617.07354      147.44945     -378.61547    
    973000   1946000        396.55588      638.7387       6636.8539      5681.597       4254.2258      1427.3712      1378.4925      1365.4091      2563.4827      0             -3880.0132      0              0             -134.31806      102546.55      46.806592      46.806592      46.806592      0.8180172      60.095999      910.85103      945.26907    
    973500   1947000        394.91898      45.149741      5949.212       5880.9479      4236.6653      1644.2826      1464.0025      1433.1038      2579.2917      0             -3832.1153      0              0             -132.86004      103671.91      46.977189      46.977189      46.977189      0.80913765     411.07984     -35.611141     -240.01947    
    974000   1948000        396.52812      489.40072      6557.6847      5810.9931      4253.928       1557.0651      1401.1061      1417.036       2536.7746      0             -3797.8516      0              0             -131.66025      104616.65      47.119456      47.119456      47.119456      0.80183075     670.98496      649.13016      148.08703    
    974500   1949000        396.21677      162.09622      5931.2693      5686.1959      4250.588       1435.608       1415.9038      1352.2302      2510.5827      0             -3843.1087      0              0             -132.86426      103668.62      46.976692      46.976692      46.976692      0.80916335     696.41785      125.55678     -335.68598    
    975000   1950000        374.64804     -438.47534      4915.552       5580.7473      4019.2         1561.5474      1425.7899      1419.6211      2544.8369      0             -3828.7005      0              0             -132.412        104022.7       47.030115      47.030115      47.030115      0.806409      -499.48372     -1068.5758      252.63348    
    975500   1951000        385.27393     -194.22282      5416.2459      5710.26        4133.1939      1577.0661      1454.4462      1447.1725      2517.0063      0             -3841.5589      0              0             -132.69775      103798.7       46.996333      46.996333      46.996333      0.80814926     10.056921     -156.19066     -436.53471    
    976000   1952000        393.93157     -438.89333      5191.5251      5860.8524      4226.0725      1634.78        1444.8367      1441.1479      2563.4908      0             -3814.6954      0              0             -131.72001      104569.18      47.112329      47.112329      47.112329      0.80219469    -1197.7203      168.38138     -287.34106    
    976500   1953000        393.212       -333.09692      5213.6446      5719.3509      4218.353       1500.9979      1418.4582      1388.3354      2536.4928      0             -3842.2885      0              0             -132.31333      104100.28      47.041804      47.041804      47.041804      0.80580806    -122.5741       117.98188     -994.69854    
    977000   1954000        391.06003      416.5863       6353.9649      5728.4197      4195.2667      1533.153       1420.6511      1375.5189      2597.9855      0             -3861.0025      0              0             -133.77583      102962.21      46.869747      46.869747      46.869747      0.81471491     634.42782      87.133147      528.19793    
    977500   1955000        395.20997      432.19941      6611.5004      5955.1079      4239.787       1715.3209      1473.9286      1452.5054      2603.5026      0             -3814.6157      0              0             -132.26714      104136.63      47.047279      47.047279      47.047279      0.80552677     445.57835      819.29763      31.722259    
    978000   1956000        394.21593     -158.0107       5575.8681      5815.6495      4229.123       1586.5265      1419.1969      1416.225       2552.581       0             -3801.4764      0              0             -132.3739       104052.64      47.034627      47.034627      47.034627      0.80617697     561.28411     -1153.4178      118.10159    
    978500   1957000        384.82378      983.10972      7223.7776      5742.7686      4128.3646      1614.404       1455.587       1419.0127      2605.5499      0             -3865.7455      0              0             -133.34467      103295.12      46.920208      46.920208      46.920208      0.81208913     1501.1898      351.86528      1096.274     
    979000   1958000        393.66068     -210.24143      5349.2518      5663.4881      4223.1663      1440.3218      1439.9321      1323.8321      2576.2496      0             -3899.692       0              0             -134.39816      102485.44      46.797292      46.797292      46.797292      0.818505      -47.803928     -75.814513     -507.10586    
    979500   1959000        390.98975      724.41789      6972.3476      5879.8456      4194.5128      1685.3327      1489.6164      1422.5312      2597.0994      0             -3823.9143      0              0             -133.19818      103408.73      46.937404      46.937404      46.937404      0.81119695     445.16886      1164.6943      563.39051    
    980000   1960000        384.80763      80.648042      5846.9865      5724.4819      4128.1914      1596.2905      1388.0623      1411.0325      2627.9128      0             -3830.7171      0              0             -132.24309      104155.57      47.050131      47.050131      47.050131      0.80538029     125.75487      119.44758     -3.258322     
    980500   1961000        396.7704      -668.87152      4823.069       5844.8072      4256.5272      1588.28        1393.3132      1384.7334      2608.199       0             -3797.9657      0              0             -131.50264      104742.03      47.138273      47.138273      47.138273      0.80087087    -1070.6504      88.032668     -1023.9968    
    981000   1962000        390.67872      617.54011      6574.5561      5638.0961      4191.1761      1446.92        1385.4401      1411.7259      2498.6377      0             -3848.8837      0              0             -132.46689      103979.6       47.023619      47.023619      47.023619      0.80674328     621.29885      165.57868      1065.7428    
    981500   1963000        387.66865      32.486352      5720.2426      5670.9511      4158.8843      1512.0669      1410.9436      1402.6788      2523.816       0             -3825.3715      0              0             -132.39156      104038.76      47.032535      47.032535      47.032535      0.80628452    -206.57976      418.61387     -114.57506    
    982000   1964000        393.59505      361.15131      6336.0455      5786.4842      4222.4623      1564.0219      1405.8404      1407.0253      2560.0601      0             -3808.9039      0              0             -132.00926      104340.06      47.077894      47.077894      47.077894      0.80395627     569.80719     -269.7067       783.35343    
    982500   1965000        386.02144      526.50581      6385.6636      5582.6382      4141.2131      1441.4251      1365.8446      1390.9233      2493.739       0             -3809.0818      0              0             -131.7059       104580.39      47.114012      47.114012      47.114012      0.80210873     538.65613      111.05612      929.80517    
    983000   1966000        391.76508      220.89316      6094.0323      5756.5934      4202.8304      1553.763       1421.0195      1389.2487      2529.185       0             -3785.6902      0              0             -131.4978       104745.89      47.138851      47.138851      47.138851      0.80084141     913.40937     -648.56608      397.83618    
    983500   1967000        390.66096      765.09348      6894.7305      5739.7931      4190.9855      1548.8076      1428.1665      1421.2458      2534.2933      0             -3834.8981      0              0             -133.07223      103506.6       46.952208      46.952208      46.952208      0.81042989     1092.8759      879.0731       323.33143    
    984000   1968000        387.73547      426.31407      6391.8196      5747.0424      4159.6011      1587.4413      1413.5832      1397.516       2593.3951      0             -3817.053       0              0             -132.81629      103706.06      46.982347      46.982347      46.982347      0.8088712      669.67289      164.5363       444.733      
    984500   1969000        380.09781      159.95763      5871.3528      5630.5679      4077.6647      1552.9032      1415.3149      1446.0284      2553.7527      0             -3862.1928      0              0             -133.44647      103216.32      46.908275      46.908275      46.908275      0.81270909     14.900724     -194.33474      659.30692    
    985000   1970000        390.46087     -130.24024      5438.1952      5635.3893      4188.8389      1446.5504      1395.6769      1423.8373      2501.5097      0             -3874.4736      0              0             -132.67305      103818.02      46.999249      46.999249      46.999249      0.80799885     291.25365     -545.11895     -136.85541    
    985500   1971000        386.14991     -188.72993      5407.0258      5693.6979      4142.5913      1551.1065      1430.1022      1413.5007      2538.4247      0             -3830.9212      0              0             -132.2473       104152.25      47.049631      47.049631      47.049631      0.80540595    -67.260513      512.56429     -1011.4936    
    986000   1972000        395.94796     -775.70142      4591.4715      5787.9932      4247.7042      1540.289       1420.8846      1378.5143      2545.7118      0             -3804.8216      0              0             -130.2283       105766.98      47.29153       47.29153       47.29153       0.79310994    -868.81788     -375.46658     -1082.8198    
    986500   1973000        395.03047     -1048.688       4087.0971      5676.4564      4237.8614      1438.595       1354.7654      1407.8176      2503.1078      0             -3827.0957      0              0             -132.54262      103920.18      47.01466       47.01466       47.01466       0.80720453    -1068.7842     -1092.5764     -984.70348    
    987000   1974000        394.58985      210.43487      6265.2741      5947.128       4233.1344      1713.9935      1466.6235      1433.0837      2644.8755      0             -3830.5892      0              0             -132.86862      103665.22      46.976179      46.976179      46.976179      0.80918986    -733.90471      1004.5642      360.64515    
    987500   1975000        390.41937      952.29833      7152.1063      5705.8433      4188.3938      1517.4495      1425.0769      1399.5471      2539.4377      0             -3846.6121      0              0             -132.26871      104135.39      47.047093      47.047093      47.047093      0.80553633     1451.1191      1436.1459     -30.370008    
    988000   1976000        393.74608     -9.4601514      5722.4202      5736.6485      4224.0825      1512.566       1354.5552      1418.3473      2594.2388      0             -3854.5752      0              0             -133.55981      103128.74      46.895003      46.895003      46.895003      0.81339932    -286.9883       38.641589      219.96626    
    988500   1977000        388.01242      1.8725633      5619.2113      5616.4041      4162.5722      1453.8318      1393.6885      1412.7232      2566.3103      0             -3918.8902      0              0             -133.99518      102793.65      46.844158      46.844158      46.844158      0.81605081     196.56706     -278.56626      87.616891    
    989000   1978000        388.98905      256.73445      6132.3139      5745.0082      4173.0494      1571.9588      1448.2955      1402.6711      2570.9477      0             -3849.9555      0              0             -133.15627      103441.28      46.942328      46.942328      46.942328      0.81094169     190.08611      413.86408      166.25317    
    989500   1979000        389.09502     -21.673714      5662.0812      5694.7941      4174.1862      1520.6079      1455.1757      1359.9204      2565.2765      0             -3859.7646      0              0             -133.09007      103492.72      46.950109      46.950109      46.950109      0.81053855    -48.84047       185.84525     -202.02592    
    990000   1980000        393.68298      97.954335      6017.3605      5868.0794      4223.4055      1644.6739      1406.486       1424.0909      2616.316       0             -3802.219       0              0             -131.81057      104497.34      47.101538      47.101538      47.101538      0.80274618    -181.90964      655.8338      -180.06115    
    990500   1981000        394.37508      272.64279      6147.4603      5734.9777      4230.8304      1504.1474      1414.9708      1375.8204      2568.5505      0             -3855.1943      0              0             -132.77608      103737.47      46.98709       46.98709       46.98709       0.80862629     390.96614      261.01749      165.94475    
    991000   1982000        393.32238      196.8802       5984.2969      5688.7605      4219.5371      1469.2234      1451.1557      1411.731       2524.8149      0             -3918.4782      0              0             -133.8204       102927.91      46.864543      46.864543      46.864543      0.81498638    -88.634161     -167.69172      846.96648    
    991500   1983000        393.9983      -513.16803      5036.3027      5815.7056      4226.7883      1588.9174      1458.1408      1362.8058      2591.3802      0             -3823.4094      0              0             -132.26012      104142.16      47.048111      47.048111      47.048111      0.80548402    -601.00656     -423.74744     -514.7501     
    992000   1984000        387.52964      134.74594      5927.6332      5722.7502      4157.393       1565.3572      1432.8105      1383.2056      2575.6656      0             -3826.3245      0              0             -132.11162      104259.21      47.065732      47.065732      47.065732      0.80457967    -26.768486      84.837845      346.16847    
    992500   1985000        392.67756      37.787367      5745.2705      5688.1206      4212.6195      1475.5011      1433.9088      1372.9625      2526.3797      0             -3857.7499      0              0             -132.81961      103703.47      46.981956      46.981956      46.981956      0.80889138     233.10252      242.92232     -362.66274    
    993000   1986000        382.1056       422.48537      6294.2838      5664.5575      4099.2042      1565.3532      1438.8673      1434.9421      2601.3261      0             -3909.7821      0              0             -134.76937      102203.15      46.754286      46.754286      46.754286      0.82076574     630.77953      275.11196      361.56463    
    993500   1987000        399.16197      1284.4524      7770.5662      5843.6178      4282.1838      1561.434       1445.1843      1417.3734      2565.2985      0             -3866.4221      0              0             -133.8996       102867.03      46.855301      46.855301      46.855301      0.81546872     1201.2259      1437.6692      1214.462     
    994000   1988000        390.18521      380.73136      6328.5618      5757.8728      4185.8817      1571.9911      1426.3933      1384.5716      2651.2879      0             -3890.2618      0              0             -134.01412      102779.13      46.841951      46.841951      46.841951      0.81616616     634.97705      403.06857      104.14847    
    994500   1989000        392.29004     -191.64705      5569.9505      5859.5778      4208.4622      1651.1156      1480.5319      1407.8101      2611.6972      0             -3848.9236      0              0             -132.9211       103624.29      46.969996      46.969996      46.969996      0.80950948     54.35451       13.145732     -642.44139    
    995000   1990000        389.83442      831.40189      6955.926       5699.3938      4182.1184      1517.2753      1422.9159      1337.2817      2588.9337      0             -3831.8559      0              0             -132.91339      103630.3       46.970903      46.970903      46.970903      0.80946255     900.74083      523.5094       1069.9554    
    995500   1991000        386.30687      422.8145       6393.7519      5756.6167      4144.2751      1612.3416      1488.0248      1414.1186      2601.7284      0             -3891.5302      0              0             -133.30597      103325.11      46.924749      46.924749      46.924749      0.81185342     566.30606     -85.195605      787.33305    
    996000   1992000        382.1032       283.28518      6037.8257      5610.8287      4099.1785      1511.6503      1451.904       1390.8959      2509.7196      0             -3840.8693      0              0             -133.26941      103353.46      46.92904       46.92904       46.92904       0.81163075     121.247        643.63105      84.977509    
    996500   1993000        390.90141     -22.178508      5754.4127      5787.9448      4193.5651      1594.3797      1462.6302      1368.1871      2594.5167      0             -3830.9544      0              0             -132.86289      103669.68      46.976854      46.976854      46.976854      0.809155       25.031638      41.292423     -132.85959    
    997000   1994000        387.41507     -57.397692      5582.0714      5668.8491      4156.1638      1512.6852      1409.6358      1337.4242      2614.909       0             -3849.2838      0              0             -132.86716      103666.35      46.97635       46.97635       46.97635       0.80918101     16.038247     -280.52089      92.289569    
    997500   1995000        390.03426      302.36407      6203.9581      5748.4006      4184.2623      1564.1382      1451.5117      1382.4613      2578.9984      0             -3848.8332      0              0             -133.32706      103308.77      46.922275      46.922275      46.922275      0.81198184     686.82699      557.10532     -336.84009    
    998000   1996000        401.86707      109.54056      6027.6478      5862.5463      4311.2039      1551.3423      1401.2787      1413.2281      2625.6245      0             -3888.7889      0              0             -133.27696      103347.6       46.928154      46.928154      46.928154      0.81167673     165.93517      345.10357     -182.41707    
    998500   1997000        391.74239      440.38364      6477.7171      5811.1009      4202.587       1608.5139      1433.3772      1402.8748      2605.9451      0             -3833.6832      0              0             -132.70481      103793.18      46.9955        46.9955        46.9955        0.80819225     469.79151      1160.2557     -308.89634    
    999000   1998000        385.93938      612.52822      6702.2294      5772.6558      4140.3328      1632.323       1435.7632      1375.6329      2655.7064      0             -3834.7796      0              0             -132.36515      104059.52      47.035663      47.035663      47.035663      0.8061237      239.24484      1232.3706      365.96925    
    999500   1999000        394.79856     -363.49472      5291.6586      5845.05        4235.3735      1609.6765      1426.026       1400.6056      2613.8411      0             -3830.7961      0              0             -131.94627      104389.87      47.085385      47.085385      47.085385      0.80357262    -142.24917     -843.2097      -105.02527    
   1000000   2000000        393.16072      150.38698      6046.5342      5817.2739      4217.8028      1599.4711      1388.244       1433.316       2571.6582      0             -3793.7471      0              0             -131.76885      104530.43      47.106508      47.106508      47.106508      0.80249212    -59.795518      348.22674      162.72973    
Loop time of 527.151 on 1 procs for 1000000 steps with 3600 atoms

Performance: 327.800 ns/day, 0.073 hours/ns, 1896.990 timesteps/s, 6.829 Matom-step/s
98.6% CPU use with 1 MPI tasks x 1 OpenMP threads

MPI task timing breakdown:
Section |  min time  |  avg time  |  max time  |%varavg| %total
---------------------------------------------------------------
Pair    | 61.631     | 61.631     | 61.631     |   0.0 | 11.69
Bond    | 365.3      | 365.3      | 365.3      |   0.0 | 69.30
Neigh   | 0.11187    | 0.11187    | 0.11187    |   0.0 |  0.02
Comm    | 36.103     | 36.103     | 36.103     |   0.0 |  6.85
Output  | 0.10098    | 0.10098    | 0.10098    |   0.0 |  0.02
Modify  | 54.649     | 54.649     | 54.649     |   0.0 | 10.37
Other   |            | 9.256      |            |       |  1.76

Nlocal:           3600 ave        3600 max        3600 min
Histogram: 1 0 0 0 0 0 0 0 0 0
Nghost:          13349 ave       13349 max       13349 min
Histogram: 1 0 0 0 0 0 0 0 0 0
Neighs:              0 ave           0 max           0 min
Histogram: 1 0 0 0 0 0 0 0 0 0

Total # of neighbors = 0
Ave neighs/atom = 0
Ave special neighs/atom = 5.9666667
Neighbor list builds = 31503
Dangerous builds = 0
WARNING: No fixes with time integration, atoms won't move
For more information see https://docs.lammps.org/err0028 (src/verlet.cpp:60)


---------------------------------------------------------------------
      Device Time Info (average): 
---------------------------------------------------------------------
Data Transfer:   47.1806 s.
Neighbor copy:   2.4421 s.
Neighbor build:  20.4984 s.
Force calc:      138.4203 s.
Device Overhead: 47.0496 s.
CPU Neighbor:    3.4109 s.
CPU Cast/Pack:   18.6655 s.
CPU Driver_Time: 12.0323 s.
CPU Idle_Time:   4.3110 s.
Average split:   1.0000.
Max Mem / Proc:  40.08 MB.
Prefetch mode:   None.
Vector width:    32.
Lanes / atom:    4.
Pair block:      256.
Neigh block:     128.
Neigh mode:      Hybrid (binning on host) with subgroup support.
Neigh sorting:   Unavailable or disabled.
---------------------------------------------------------------------


--------------------------------------------------------------------------
- Using acceleration for lj/cut:
-  with 1 proc(s) per device.
-  with 1 thread(s) per proc.
-  Horizontal vector operations: ENABLED
-  Shared memory system: No
--------------------------------------------------------------------------
Device 0: NVIDIA A800 40GB Active, 108 CUs, 39/39 GB, 1.4 GHZ (Mixed Precision)
--------------------------------------------------------------------------

Initializing Device and compiling on process 0...Done.
Initializing Device 0 on core 0...Done.

Generated 1 of 1 mixed pair_coeff terms from arithmetic mixing rule
Setting up Verlet run ...
  Unit style    : real
  Current step  : 1000000
  Time step     : 2
Per MPI rank memory allocation (min/avg/max) = 14.62 | 14.62 | 14.62 Mbytes
   Step          Time           Temp          Press         Enthalpy        TotEng         KinEng         PotEng         E_bond        E_angle        E_dihed        E_impro         E_vdwl         E_coul         E_long         E_tail         Volume           Lx             Ly             Lz          Density          Pxx            Pyy            Pzz      
   1000000   2000000        393.16072      150.38698      6046.5342      5817.2739      4217.8028      1599.4711      1388.244       1433.316       2571.6582      0             -3793.7471      0              0             -131.76885      104530.43      47.106508      47.106508      47.106508      0.80249212    -59.795514      348.22673      162.72972    
Loop time of 1.052e-06 on 1 procs for 0 steps with 3600 atoms

190.1% CPU use with 1 MPI tasks x 1 OpenMP threads

MPI task timing breakdown:
Section |  min time  |  avg time  |  max time  |%varavg| %total
---------------------------------------------------------------
Pair    | 0          | 0          | 0          |   0.0 |  0.00
Bond    | 0          | 0          | 0          |   0.0 |  0.00
Neigh   | 0          | 0          | 0          |   0.0 |  0.00
Comm    | 0          | 0          | 0          |   0.0 |  0.00
Output  | 0          | 0          | 0          |   0.0 |  0.00
Modify  | 0          | 0          | 0          |   0.0 |  0.00
Other   |            | 1.052e-06  |            |       |100.00

Nlocal:           3600 ave        3600 max        3600 min
Histogram: 1 0 0 0 0 0 0 0 0 0
Nghost:          13353 ave       13353 max       13353 min
Histogram: 1 0 0 0 0 0 0 0 0 0
Neighs:              0 ave           0 max           0 min
Histogram: 1 0 0 0 0 0 0 0 0 0

Total # of neighbors = 0
Ave neighs/atom = 0
Ave special neighs/atom = 5.9666667
Neighbor list builds = 0
Dangerous builds = 0
System init for write_data ...


---------------------------------------------------------------------
      Device Time Info (average): 
---------------------------------------------------------------------
Data Transfer:   0.0001 s.
Neighbor copy:   0.0001 s.
Neighbor build:  0.0007 s.
Force calc:      0.0002 s.
Device Overhead: 0.0000 s.
CPU Neighbor:    0.0001 s.
CPU Cast/Pack:   0.0000 s.
CPU Driver_Time: 0.0000 s.
CPU Idle_Time:   0.0001 s.
Average split:   1.0000.
Max Mem / Proc:  39.79 MB.
Prefetch mode:   None.
Vector width:    32.
Lanes / atom:    4.
Pair block:      256.
Neigh block:     128.
Neigh mode:      Hybrid (binning on host) with subgroup support.
Neigh sorting:   Unavailable or disabled.
---------------------------------------------------------------------


--------------------------------------------------------------------------
- Using acceleration for lj/cut:
-  with 1 proc(s) per device.
-  with 1 thread(s) per proc.
-  Horizontal vector operations: ENABLED
-  Shared memory system: No
--------------------------------------------------------------------------
Device 0: NVIDIA A800 40GB Active, 108 CUs, 39/39 GB, 1.4 GHZ (Mixed Precision)
--------------------------------------------------------------------------

Initializing Device and compiling on process 0...Done.
Initializing Device 0 on core 0...Done.

Generated 1 of 1 mixed pair_coeff terms from arithmetic mixing rule
STAGE COMPLETE: Tg step T=390.0K P=1.0atm steps=1000000
Cuda driver error 4 in call at file '/home/alexzhao/lammps/lib/gpu/geryon/nvd_timer.h' in line 98.
Cuda driver error 4 in call at file '/home/alexzhao/lammps/lib/gpu/geryon/nvd_timer.h' in line 99.
Cuda driver error 4 in call at file '/home/alexzhao/lammps/lib/gpu/geryon/nvd_timer.h' in line 98.
Cuda driver error 4 in call at file '/home/alexzhao/lammps/lib/gpu/geryon/nvd_timer.h' in line 99.
Cuda driver error 4 in call at file '/home/alexzhao/lammps/lib/gpu/geryon/nvd_timer.h' in line 98.
Cuda driver error 4 in call at file '/home/alexzhao/lammps/lib/gpu/geryon/nvd_timer.h' in line 99.
