LAMMPS (22 Jul 2025 - Update 3)
OMP_NUM_THREADS environment is not set. Defaulting to 1 thread.
  using 1 OpenMP thread(s) per MPI task
Reading data file ...
  orthogonal box = (1.5151815 1.5151815 1.5151815) to (49.01956 49.01956 49.01956)
  1 by 1 by 1 MPI processor grid
  reading atoms ...
  3600 atoms
  reading velocities ...
  3600 velocities
  scanning bonds ...
  2 = max bonds/atom
  scanning angles ...
  1 = max angles/atom
  scanning dihedrals ...
  2 = max dihedrals/atom
  orthogonal box = (1.5151815 1.5151815 1.5151815) to (49.01956 49.01956 49.01956)
  1 by 1 by 1 MPI processor grid
  reading bonds ...
  3590 bonds
  reading angles ...
  3580 angles
  reading dihedrals ...
  3570 dihedrals
Finding 1-2 1-3 1-4 neighbors ...
  special bond factors lj:    0        0        0       
  special bond factors coul:  0        0        0       
     2 = max # of 1-2 neighbors
     2 = max # of 1-3 neighbors
     4 = max # of 1-4 neighbors
     6 = max # of special neighbors
  special bonds CPU = 0.001 seconds
  read_data CPU = 0.033 seconds

CITE-CITE-CITE-CITE-CITE-CITE-CITE-CITE-CITE-CITE-CITE-CITE-CITE

Your simulation uses code contributions which should be cited:
- GPU package (short-range, long-range and three-body potentials): doi:10.1016/j.cpc.2010.12.021, doi:10.1016/j.cpc.2011.10.012, doi:10.1016/j.cpc.2013.08.002, doi:10.1016/j.commatsci.2014.10.068, doi:10.1016/j.cpc.2016.10.020, doi:10.3233/APC200086
The log file lists these citations in BibTeX format.

CITE-CITE-CITE-CITE-CITE-CITE-CITE-CITE-CITE-CITE-CITE-CITE-CITE


--------------------------------------------------------------------------
- Using acceleration for lj/cut:
-  with 1 proc(s) per device.
-  with 1 thread(s) per proc.
-  Horizontal vector operations: ENABLED
-  Shared memory system: No
--------------------------------------------------------------------------
Device 0: NVIDIA A800 40GB Active, 108 CUs, 39/39 GB, 1.4 GHZ (Mixed Precision)
--------------------------------------------------------------------------

Initializing Device and compiling on process 0...Done.
Initializing Device 0 on core 0...Done.

Generated 1 of 1 mixed pair_coeff terms from arithmetic mixing rule
Setting up Verlet run ...
  Unit style    : real
  Current step  : 0
  Time step     : 2
Per MPI rank memory allocation (min/avg/max) = 14.7 | 14.7 | 14.7 Mbytes
   Step          Time           Temp          Press         Enthalpy        TotEng         KinEng         PotEng         E_bond        E_angle        E_dihed        E_impro         E_vdwl         E_coul         E_long         E_tail         Volume           Lx             Ly             Lz          Density          Pxx            Pyy            Pzz      
         0   0              433.71579     -182.74636      6619.3171      6905.0271      4652.875       2252.1522      1559.3582      1537.4319      2796.8106      0             -3641.4485      0              0             -128.48563      107201.52      47.504379      47.504379      47.504379      0.7824968     -64.866456      183.36622     -666.73884    
       500   1000           412.28975     -721.96152      5306.2631      6422.0075      4423.0177      1998.9898      1476.7017      1466.875       2773.5204      0             -3718.1073      0              0             -129.98125      105968.01      47.321473      47.321473      47.321473      0.79160536    -1230.8821      35.147988     -970.15048    
      1000   2000           415.10666      377.57071      6799.0873      6220.1196      4453.2374      1766.8822      1442.6006      1435.1683      2647.1756      0             -3758.0623      0              0             -131.00121      105142.95      47.19834       47.19834       47.19834       0.79781707    -506.29255      422.63993      1216.3647    
      1500   3000           406.47158      335.22747      6921.1827      6401.1937      4360.6009      2040.5929      1468.1006      1529.3296      2768.0726      0             -3724.9099      0              0             -129.50212      106360.07      47.379761      47.379761      47.379761      0.7886874     -292.31507      664.48252      633.51496    
      2000   4000           413.00371     -121.80485      6160.785       6348.516       4430.6771      1917.8389      1435.0998      1468.2239      2740.2742      0             -3725.759       0              0             -130.33469      105680.64      47.278659      47.278659      47.278659      0.79375789    -189.99394     -356.82268      181.40207    
      2500   5000           414.47018      563.89862      7173.0471      6302.0879      4446.4093      1855.6786      1427.5114      1470.7229      2650.5781      0             -3693.1338      0              0             -130.05726      105906.08      47.312253      47.312253      47.312253      0.79206825     367.64461      544.06435      779.9869     
      3000   6000           403.23954      437.89986      7015.196       6336.9665      4325.9277      2011.0388      1462.2729      1446.4145      2791.1451      0             -3688.7936      0              0             -129.69687      106200.36      47.356035      47.356035      47.356035      0.78987344     486.32896      751.85364      75.516972    
      3500   7000           411.41057     -430.12775      5736.8608      6402.01        4413.586       1988.424       1465.7552      1501.9383      2751.2342      0             -3730.5036      0              0             -129.90017      106034.15      47.331316      47.331316      47.331316      0.7911116     -711.31334      45.371524     -624.44144    
      4000   8000           400.979        491.80333      6909.2588      6158.0627      4301.6768      1856.3859      1446.5625      1479.1094      2701.7852      0             -3771.0712      0              0             -131.51324      104733.59      47.137006      47.137006      47.137006      0.80093543     738.41316      130.56455      606.4323     
      4500   9000           405.3075      -355.80649      5750.4736      6293.0504      4348.1126      1944.9378      1426.6995      1492.3064      2777.009       0             -3751.0771      0              0             -131.72978      104561.43      47.111164      47.111164      47.111164      0.80225418    -182.75662     -846.70493     -37.957935    
      5000   10000          412.11872      42.893985      6474.6089      6408.8614      4421.183       1987.6785      1496.4728      1454.76        2741.4163      0             -3704.9705      0              0             -131.05342      105101.07      47.192072      47.192072      47.192072      0.79813503    -254.34007      566.76584     -183.74381    
      5500   11000          409.31426      433.51186      6948.1062      6281.0435      4391.0969      1889.9465      1421.2189      1455.7316      2740.7768      0             -3727.7808      0              0             -130.54663      105509.07      47.25306       47.25306       47.25306       0.79504864     1157.2998     -65.252837      208.48862    
      6000   12000          412.63087      601.34165      7198.0444      6279.7755      4426.6773      1853.0982      1427.9461      1442.3132      2737.3495      0             -3754.5106      0              0             -131.54755      104706.28      47.132908      47.132908      47.132908      0.80114437    -57.09561       1453.6221      407.49847    
      6500   13000          418.66794     -346.80695      5953.4741      6489.6764      4491.4425      1998.2338      1451.9694      1500.4795      2745.0677      0             -3699.2827      0              0             -129.92435      106014.42      47.32838       47.32838       47.32838       0.79125883    -495.40832      4.9385315     -549.95108    
      7000   14000          407.59645     -98.875959      6113.5841      6264.7629      4372.6684      1892.0945      1417.1489      1464.9397      2772.0178      0             -3762.0118      0              0             -131.38053      104839.38      47.152872      47.152872      47.152872      0.80012721    -967.09171      813.5449      -143.08106    
      7500   15000          399.01268      333.96996      6793.6437      6270.1217      4280.5823      1989.5394      1405.3428      1528.324       2748.2868      0             -3692.4141      0              0             -128.14564      107485.93      47.546353      47.546353      47.546353      0.78042624     746.34772     -65.98003       321.54218    
      8000   16000          406.77674      545.77378      7289.4281      6446.9462      4363.8745      2083.0717      1432.5699      1559.0915      2798.9647      0             -3707.5544      0              0             -130.13181      105845.4       47.303216      47.303216      47.303216      0.7925223     -25.405862      825.8847       836.84251    
      8500   17000          412.71274     -130.94801      6272.5607      6476.0366      4427.5556      2048.481       1498.9059      1508.1022      2732.037       0             -3690.5641      0              0             -129.2758       106546.27      47.407393      47.407393      47.407393      0.78730909    -1024.619       315.40845      316.36648    
      9000   18000          406.72074      415.33584      6930.2603      6288.8347      4363.2738      1925.5609      1472.0036      1454.7958      2698.9811      0             -3700.2196      0              0             -130.07219      105893.92      47.310442      47.310442      47.310442      0.79215921     271.38744      54.033881      920.58621    
      9500   19000          409.67652     -741.21153      5216.9901      6373.4728      4394.9832      1978.4895      1480.1337      1479.1221      2746.746       0             -3727.5122      0              0             -128.74619      106984.56      47.47231       47.47231       47.47231       0.78408367    -693.15661     -905.76919     -624.70878    
     10000   20000          403.42151     -150.99872      6011.5002      6246.171       4327.8798      1918.2912      1438.0266      1481.6419      2720.9293      0             -3722.3065      0              0             -129.25445      106563.87      47.410004      47.410004      47.410004      0.78717902     379.68563     -280.22851     -552.45327    
     10500   21000          413.7417      -239.16662      6074.5622      6443.7563      4438.5943      2005.162       1458.28        1470.1381      2821.8263      0             -3745.0824      0              0             -130.12995      105846.92      47.303441      47.303441      47.303441      0.79251098    -563.09533     -73.373281     -81.031248    
     11000   22000          410.42867      22.937069      6345.1794      6310.1684      4403.0522      1907.1162      1506.6925      1456.3455      2713.5247      0             -3769.4466      0              0             -131.60248      104662.57      47.126349      47.126349      47.126349      0.80147892     173.13954     -171.35348      67.025149    
     11500   23000          420.08315     -171.79638      6175.5474      6440.4261      4506.6249      1933.8011      1447.0262      1513.3349      2698.1008      0             -3724.6608      0              0             -130.28616      105720.01      47.284528      47.284528      47.284528      0.79346233     244.41588     -70.196091     -689.60894    
     12000   24000          410.13972      67.423534      6433.3117      6330.0841      4399.9524      1930.1317      1450.1189      1526.1131      2716.4277      0             -3762.5279      0              0             -131.20394      104980.49      47.174017      47.174017      47.174017      0.79905176    -145.7442       82.292017      265.72278    
     12500   25000          403.54453      486.89608      6917.7254      6177.2334      4329.1997      1848.0337      1435.7812      1446.2259      2721.6348      0             -3755.6082      0              0             -132.0831       104281.72      47.069119      47.069119      47.069119      0.80440599     8.9909571      321.61122      1130.0861    
     13000   26000          403.73866     -547.7445       5546.1228      6389.684       4331.2822      2058.4017      1471.0499      1544.3371      2803.1798      0             -3760.1652      0              0             -130.43461      105599.69      47.266584      47.266584      47.266584      0.79436639     62.293715     -554.15033     -1151.3769    
     13500   27000          403.76039      127.26635      6482.914       6286.5464      4331.5154      1955.031       1440.8233      1465.7199      2761.2032      0             -3712.7154      0              0             -130.1892       105798.74      47.296264      47.296264      47.296264      0.79287184    -108.91524      426.84648      63.867823    
     14000   28000          407.96882     -661.35533      5357.0049      6392.2889      4376.6632      2015.6258      1464.8125      1495.5257      2748.0042      0             -3692.7166      0              0             -128.32364      107336.84      47.524359      47.524359      47.524359      0.78151029    -678.8666      -595.19495     -710.00443    
     14500   29000          411.63228      410.24075      6998.9667      6372.3447      4415.9645      1956.3802      1412.8916      1482.5883      2826.7184      0             -3765.8181      0              0             -131.51175      104734.78      47.137184      47.137184      47.137184      0.80092636     523.91145      134.89158      571.91923    
     15000   30000          409.25472     -9.1287003      6371.1099      6385.1651      4390.4582      1994.7069      1467.053       1459.5557      2803.6811      0             -3735.5828      0              0             -130.46726      105573.26      47.262641      47.262641      47.262641      0.79456522    -176.79968      794.14785     -644.73427    
     15500   31000          409.04868      137.37278      6570.5723      6360.786       4388.2478      1972.5382      1479.8318      1480.2418      2774.5633      0             -3762.0986      0              0             -131.53915      104712.96      47.133911      47.133911      47.133911      0.80109324     513.89349     -228.4694       126.69426    
     16000   32000          407.65574     -131.96492      6028.4955      6231.5771      4373.3045      1858.2727      1392.4473      1481.6001      2751.2437      0             -3767.0184      0              0             -130.53268      105520.35      47.254744      47.254744      47.254744      0.79496365     16.688577      117.13191     -529.71524    
     16500   33000          414.61531     -100.12187      6350.6401      6504.6476      4447.9663      2056.6814      1484.6944      1525.3724      2803.7118      0             -3757.0973      0              0             -130.59251      105472         47.247525      47.247525      47.247525      0.79532806     276.99536     -843.91173      266.55075    
     17000   34000          415.94681      19.289732      6408.6723      6379.0663      4462.2505      1916.8158      1416.6282      1469.3047      2768.1081      0             -3737.2254      0              0             -130.88133      105239.25      47.212745      47.212745      47.212745      0.79708702    -376.09606      96.603089      337.36217    
     17500   35000          412.54257     -507.47137      5564.187       6341.4007      4425.7301      1915.6707      1479.8875      1431.6256      2762.238       0             -3758.0804      0              0             -131.16032      105015.41      47.179247      47.179247      47.179247      0.79878606    -648.19135     -639.3139      -234.90887    
     18000   36000          402.83493     -64.786591      6136.5764      6235.8109      4321.5871      1914.2238      1447.4932      1466.5031      2744.8213      0             -3744.5939      0              0             -131.14569      105027.12      47.181001      47.181001      47.181001      0.798697       469.0686      -1021.6756      358.24725    
     18500   37000          406.98688     -716.34016      5117.0786      6225.3842      4366.1289      1859.2553      1472.0688      1468.1425      2676.8054      0             -3757.7614      0              0             -129.83481      106087.53      47.339257      47.339257      47.339257      0.79071354    -318.84193     -631.77024     -1198.4083    
     19000   38000          415.82554      32.585071      6484.4483      6434.3833      4460.9495      1973.4338      1498.9827      1516.9716      2679.8698      0             -3722.3903      0              0             -130.74214      105351.29      47.229494      47.229494      47.229494      0.79623933    -359.8902       129.59002      328.0554     
     19500   39000          407.01377     -170.52563      5970.9361      6231.8681      4366.4174      1865.4507      1438.2004      1458.1844      2738.6303      0             -3769.5644      0              0             -131.27856      104920.82      47.165077      47.165077      47.165077      0.79950621     896.47837      7.3548854     -1415.4101    
     20000   40000          399.92117     -419.68783      5485.062       6132.5329      4290.3285      1842.2044      1432.0434      1437.3707      2712.2838      0             -3739.4934      0              0             -130.20794      105783.51      47.293995      47.293995      47.293995      0.79298598    -698.85637     -792.31064      232.10352    
     20500   41000          407.50227     -404.58033      5654.2941      6276.3645      4371.658       1904.7065      1477.822       1501.6902      2709.3435      0             -3784.1492      0              0             -130.64614      105428.71      47.24106       47.24106       47.24106       0.79565464    -590.58054     -616.50055     -6.6599118    
     21000   42000          411.07621     -648.85822      5337.4454      6330.3963      4409.999       1920.3973      1467.314       1467.928       2757.5816      0             -3772.4263      0              0             -131.26635      104930.58      47.16654       47.16654       47.16654       0.79943183    -105.53338     -913.80361     -927.23767    
     21500   43000          401.02484     -467.48463      5543.9807      6267.0426      4302.1686      1964.874       1496.7147      1401.9374      2800.9991      0             -3734.7772      0              0             -129.8743       106055.27      47.334459      47.334459      47.334459      0.79095404    -481.83882     -487.32046     -433.29461    
     22000   44000          410.97498     -314.91284      5949.1541      6432.4913      4408.913       2023.5783      1497.0019      1491.8481      2782.4381      0             -3747.7098      0              0             -130.87947      105240.76      47.21297       47.21297       47.21297       0.79707564    -1049.999       189.18752     -83.927028    
     22500   45000          412.24595      217.81024      6850.4386      6514.5662      4422.5479      2092.0183      1557.0117      1475.4827      2782.5419      0             -3723.0182      0              0             -130.26729      105735.32      47.286812      47.286812      47.286812      0.79334739    -172.74549      388.23902      437.93718    
     23000   46000          415.10962      605.59733      7269.3602      6344.4916      4453.2692      1891.2224      1469.8051      1455.6644      2722.4803      0             -3756.7274      0              0             -131.53317      104717.72      47.134626      47.134626      47.134626      0.80105679     277.42088      1167.0233      372.34784    
     23500   47000          407.9          553.99237      7158.0406      6301.6428      4375.9248      1925.718       1458.4486      1458.2534      2755.8633      0             -3746.8473      0              0             -129.94501      105997.56      47.325872      47.325872      47.325872      0.79138465     965.45569     -17.917388      714.4388     
     24000   48000          402.09898     -463.69351      5602.1044      6312.802       4313.6919      1999.11        1509.1404      1481.1678      2749.2747      0             -3740.4728      0              0             -131.06222      105094         47.191014      47.191014      47.191014      0.79818867    -939.20222     -79.152381     -372.72593    
     24500   49000          408.11035      443.92229      7063.6063      6381.6378      4378.1815      2003.4563      1466.0137      1539.1255      2753.731       0             -3755.4139      0              0             -130.75973      105337.13      47.227376      47.227376      47.227376      0.79634643     934.16366      231.90983      165.69339    
     25000   50000          401.26724      207.10015      6492.0068      6172.5711      4304.769       1867.8021      1447.9588      1423.1828      2759.158       0             -3762.4975      0              0             -130.23519      105761.38      47.290696      47.290696      47.290696      0.79315191     289.36238     -404.123        736.06107    
     25500   51000          417.13406      399.48311      7052.7205      6437.828       4474.9872      1962.8408      1480.1759      1457.9573      2769.3588      0             -3744.6512      0              0             -130.50603      105541.89      47.257959      47.257959      47.257959      0.79480138    -203.13038      820.01371      581.56599    
     26000   52000          409.32647      277.36226      6763.2057      6339.1075      4391.2279      1947.8796      1468.5348      1471.6459      2732.7372      0             -3725.0383      0              0             -131.37488      104843.89      47.153548      47.153548      47.153548      0.80009279     0.7839358      622.11091      209.19193    
     26500   53000          415.70005     -511.49855      5657.404       6437.6301      4459.6032      1978.0268      1470.0871      1497.1119      2773.9272      0             -3763.0993      0              0             -131.69076      104592.41      47.115817      47.115817      47.115817      0.80201655    -393.81653     -391.21725     -749.46188    
     27000   54000          407.17809     -105.10034      6210.3007      6373.3328      4368.1802      2005.1525      1467.2661      1453.2837      2775.9437      0             -3691.3409      0              0             -129.49783      106363.59      47.380285      47.380285      47.380285      0.78866125    -323.26126     -453.23866      461.19889    
     27500   55000          411.15615      729.89053      7488.744       6376.9283      4410.8566      1966.0717      1454.7038      1478.6055      2804.3502      0             -3771.5879      0              0             -131.87312      104447.77      47.094089      47.094089      47.094089      0.80312715     431.1771       1064.75        693.74454    
     28000   56000          408.14158      580.05836      7279.124       6378.0011      4378.5165      1999.4846      1459.1165      1481.0125      2760.3286      0             -3700.973       0              0             -129.3061       106521.3       47.403691      47.403691      47.403691      0.7874936      983.94362     -189.21621      945.44766    
     28500   57000          403.08946     -361.584        5691.6202      6243.9012      4324.3176      1919.5836      1497.7419      1472.6718      2716.0792      0             -3766.9093      0              0             -131.51658      104730.93      47.136608      47.136608      47.136608      0.80095575    -371.00151     -521.02834     -192.72214    
     29000   58000          409.65428      66.616472      6524.1415      6422.322       4394.7447      2027.5774      1491.2831      1465.5437      2831.3903      0             -3760.6396      0              0             -131.42632      104802.86      47.147395      47.147395      47.147395      0.80040609     479.6971      -256.17682     -23.670855    
     29500   59000          398.19338      231.2921       6624.6623      6266.0842      4271.7928      1994.2914      1436.4918      1532.0934      2748.8139      0             -3723.1077      0              0             -129.57119      106303.37      47.37134       47.37134       47.37134       0.78910805    -189.89656     -216.28961      1100.0625    
     30000   60000          414.98851     -515.20665      5641.4006      6426.1597      4451.9699      1974.1898      1477.1398      1496.9685      2777.6181      0             -3777.5365      0              0             -131.87923      104442.93      47.093361      47.093361      47.093361      0.80316437    -1007.058      -39.590126     -498.97186    
     30500   61000          402.97747     -889.24898      4881.1758      6255.0161      4323.1162      1931.8999      1469.9783      1436.0902      2784.4821      0             -3758.6507      0              0             -130.02249      105934.39      47.316469      47.316469      47.316469      0.79185655    -1304.1954     -612.37706     -751.17445    
     31000   62000          410.6683      -195.33541      6147.4492      6449.312       4405.623       2043.689       1459.0064      1522.5394      2794.4147      0             -3732.2715      0              0             -129.98783      105962.64      47.320675      47.320675      47.320675      0.79164544    -162.50302     -83.188112     -340.31509    
     31500   63000          410.78033     -1217.6013      4510.4887      6385.8811      4406.8248      1979.0563      1476.1313      1498.2374      2758.658       0             -3753.9704      0              0             -130.42004      105611.49      47.268344      47.268344      47.268344      0.79427766    -1251.1298     -953.88851     -1447.7857    
     32000   64000          400.21775     -388.16821      5595.5369      6186.4923      4293.5101      1892.9822      1481.7014      1490.3626      2726.6933      0             -3805.7752      0              0             -131.94613      104389.98      47.085401      47.085401      47.085401      0.80357178    -372.46293      76.768702     -868.81042    
     32500   65000          407.65007      485.19559      7111.2755      6362.46        4373.2436      1989.2164      1439.6263      1490.1961      2772.1666      0             -3712.7726      0              0             -130.15876      105823.49      47.299951      47.299951      47.299951      0.79268642     682.19422     -173.32353      946.71609    
     33000   66000          403.57803     -141.4174       6033.7468      6248.5677      4329.559       1919.0087      1411.9026      1523.8433      2787.9439      0             -3804.6812      0              0             -132.23842      104159.25      47.050684      47.050684      47.050684      0.80535186    -21.537487     -154.76931     -247.94539    
     33500   67000          409.94034     -75.70908       6211.3325      6326.7817      4397.8135      1928.9682      1501.373       1456.222       2755.8509      0             -3784.4776      0              0             -131.73107      104560.41      47.111011      47.111011      47.111011      0.80226201    -285.04858     -403.56046      461.4818     
     34000   68000          411.33629     -631.4279       5326.811       6304.2337      4412.7891      1891.4445      1487.6313      1456.361       2672.2886      0             -3724.8364      0              0             -129.76953      106140.89      47.347194      47.347194      47.347194      0.79031597    -1000.2604     -275.12993     -618.89341    
     34500   69000          400.21932      941.75913      7686.2539      6241.658       4293.527       1948.1311      1488.4106      1488.6629      2703.5674      0             -3732.5099      0              0             -130.95583      105179.39      47.203791      47.203791      47.203791      0.79754073     1239.4374      1051.7408      534.0992     
     35000   70000          416.29394     -532.39459      5627.3591      6442.1549      4465.9745      1976.1804      1500.666       1477.8195      2755.8051      0             -3758.1102      0              0             -131.25511      104939.56      47.167887      47.167887      47.167887      0.79936336    -932.11466      40.699195     -705.76829    
     35500   71000          411.78349      117.44087      6509.1242      6327.4784      4417.5867      1909.8917      1433.2669      1462.9072      2738.7028      0             -3724.9852      0              0             -129.87486      106054.81      47.334391      47.334391      47.334391      0.79095743    -154.13655      419.90666      86.552497    
     36000   72000          408.65962     -901.97952      5013.2993      6400.9949      4384.074       2016.9209      1472.5217      1527.3284      2755.7133      0             -3738.6425      0              0             -130.56713      105492.51      47.250587      47.250587      47.250587      0.79517346    -1938.3737     -600.76908     -166.79579    
     36500   73000          404.23228     -277.04238      5835.8095      6266.9858      4336.5778      1930.408       1418.9166      1513.7142      2712.9804      0             -3715.2032      0              0             -129.06923      106716.79      47.432672      47.432672      47.432672      0.78605101    -999.98208     -173.57815      342.43308    
     37000   74000          407.19535     -553.58462      5417.8414      6272.1066      4368.3654      1903.7412      1483.0817      1474.174       2706.9805      0             -3760.495       0              0             -130.17352      105811.49      47.298163      47.298163      47.298163      0.79277635     238.31067     -715.56299     -1183.5015    
     37500   75000          406.83303     -221.62065      5936.4869      6274.228       4364.4784      1909.7496      1479.4116      1463.0136      2742.0321      0             -3774.7077      0              0             -131.81282      104495.56      47.101269      47.101269      47.101269      0.80275988    -368.25532     -471.70313      175.09651    
     38000   76000          422.90701      540.82015      7327.7699      6492.4504      4536.9191      1955.5313      1496.6977      1490.2486      2702.8772      0             -3734.2921      0              0             -130.05636      105906.81      47.312362      47.312362      47.312362      0.79206278     748.49218      534.77948      339.1888     
     38500   77000          404.57031     -891.22618      4852.7431      6228.4099      4340.2041      1888.2058      1495.7699      1415.5991      2689.371       0             -3712.5342      0              0             -130.13857      105839.91      47.302397      47.302397      47.302397      0.79256348    -964.61263     -520.02152     -1189.0444    
     39000   78000          409.66925      9.5504153      6328.22        6313.4047      4394.9052      1918.4995      1446.346       1473.5808      2697.4742      0             -3698.9014      0              0             -129.49268      106367.82      47.380912      47.380912      47.380912      0.78862991     948.54518     -445.5726      -474.32134    
     39500   79000          414.27336     -321.58015      5875.3138      6369.5959      4444.2978      1925.2981      1516.5092      1391.7979      2761.6862      0             -3744.6953      0              0             -130.69102      105392.51      47.235652      47.235652      47.235652      0.79592796    -637.91791     -261.72574     -65.096805    
     40000   80000          407.65923      969.47903      7873.1136      6388.4087      4373.3418      2015.0669      1512.301       1469.0049      2740.6868      0             -3706.9258      0              0             -131.16853      105008.83      47.178262      47.178262      47.178262      0.79883609     1001.7296      1067.0724      839.63508    
     40500   81000          400.02195     -168.83501      5869.3908      6130.3775      4291.4096      1838.9679      1454.7861      1363.1051      2726.2784      0             -3705.2017      0              0             -129.94978      105993.67      47.325292      47.325292      47.325292      0.79141374     538.23933     -446.9222      -597.82215    
     41000   82000          406.77469     -794.40234      5140.0208      6377.6493      4363.8525      2013.7967      1471.1223      1509.2299      2728.2509      0             -3694.8063      0              0             -128.9382       106825.24      47.448733      47.448733      47.448733      0.78525304    -1144.0912     -447.43756     -791.67831    
     41500   83000          415.03402      178.99091      6769.215       6493.3074      4452.4582      2040.8493      1483.5254      1484.4703      2799.0093      0             -3726.1557      0              0             -130.31632      105695.54      47.28088       47.28088       47.28088       0.79364602    -20.61335      -96.328483      653.91457    
     42000   84000          414.16337     -767.32134      5286.3747      6471.7044      4443.1178      2028.5866      1489.9141      1468.9968      2797.0626      0             -3727.3869      0              0             -130.03776      105921.96      47.314618      47.314618      47.314618      0.7919495     -276.71838     -906.94793     -1118.2977    
     42500   85000          404.35765      46.161728      6353.0235      6282.427       4337.9227      1944.5043      1477.1224      1438.8472      2794.1458      0             -3765.6111      0              0             -131.35007      104863.69      47.156517      47.156517      47.156517      0.79994172     167.98376     -746.99354      717.49497    
     43000   86000          407.22437     -253.7566       5927.6009      6320.4039      4368.6768      1951.7272      1505.5529      1411.2617      2758.4311      0             -3723.5185      0              0             -129.76989      106140.6       47.34715       47.34715       47.34715       0.79031817     94.086574     -695.92267     -159.43371    
     43500   87000          409.3533       170.85332      6395.294       6133.4995      4391.5157      1741.9838      1422.9084      1428.9642      2676.1597      0             -3786.0485      0              0             -131.09747      105065.75      47.186785      47.186785      47.186785      0.79840331     518.15309      17.440475     -23.033608    
     44000   88000          411.643        245.42197      6717.6251      6341.7581      4416.0795      1925.6786      1456.9543      1524.0126      2711.7708      0             -3767.0591      0              0             -131.16279      105013.43      47.178951      47.178951      47.178951      0.79880112     27.910052      418.37365      289.9822     
     44500   89000          419.02622     -63.544029      6349.9353      6447.0044      4495.2862      1951.7182      1469.0479      1489.4702      2751.4135      0             -3758.2135      0              0             -131.49982      104744.28      47.13861       47.13861       47.13861       0.80085368     55.469464      214.87165     -460.9732     
     45000   90000          413.033       -366.9866       5848.9899      6419.9421      4430.9914      1988.9507      1462.2982      1461.9296      2777.1952      0             -3712.4723      0              0             -129.11651      106677.71      47.426881      47.426881      47.426881      0.78633899     68.120808     -1238.2143      69.133697    
     45500   91000          405.03636     -732.09737      5215.6527      6346.1993      4345.2039      2000.9954      1486.2807      1451.3756      2758.5593      0             -3695.2202      0              0             -130.08036      105887.27      47.309451      47.309451      47.309451      0.79220899    -368.72837     -548.233       -1279.3307    
     46000   92000          408.3406      -28.722298      6376.5056      6420.6803      4380.6516      2040.0287      1492.3677      1505.6705      2757.7415      0             -3715.751       0              0             -130.61025      105457.68      47.245387      47.245387      47.245387      0.79543607     735.65356     -677.07857     -144.74188    
     46500   93000          418.94757     -436.98207      5775.3521      6453.5021      4494.4425      1959.0596      1481.2039      1483.1321      2697.9768      0             -3703.2533      0              0             -129.44021      106410.93      47.387313      47.387313      47.387313      0.78831038    -338.0301      -519.21639     -453.69974    
     47000   94000          411.68822     -79.668518      6316.0035      6439.2313      4416.5646      2022.6668      1519.112       1472.3775      2735.8493      0             -3704.6721      0              0             -129.87013      106058.67      47.334965      47.334965      47.334965      0.79092866     63.832196     -455.02814      152.19039    
     47500   95000          408.83315     -264.51269      5802.8682      6211.0017      4385.9356      1825.0661      1424.9532      1470.1623      2671.3363      0             -3741.3857      0              0             -130.18941      105798.57      47.296238      47.296238      47.296238      0.79287312    -815.38486      269.59685     -247.75006    
     48000   96000          413.15315     -209.15697      6047.9453      6371.2014      4432.2803      1938.9212      1470.1691      1470.2948      2715.8749      0             -3717.4177      0              0             -129.97416      105973.79      47.322334      47.322334      47.322334      0.79156217    -570.4196      -124.14362      67.092309    
     48500   97000          411.06057      161.01592      6543.5319      6295.3754      4409.8312      1885.5442      1406.0973      1476.6245      2763.2019      0             -3760.3796      0              0             -130.33902      105677.13      47.278135      47.278135      47.278135      0.79378426     418.9322      -108.22418      172.33974    
     49000   98000          414.42969      633.93152      7468.0247      6485.1254      4445.975       2039.1504      1511.7307      1429.7978      2793.0153      0             -3695.3933      0              0             -129.55814      106314.08      47.372932      47.372932      47.372932      0.78902854     8.8620144      1339.2944      553.6381     
     49500   99000          411.3652      -237.30641      6049.0552      6414.4088      4413.0993      2001.3095      1466.8854      1514.4598      2749.7978      0             -3729.8335      0              0             -130.47505      105566.96      47.2617        47.2617        47.2617        0.79461266    -426.04954     -417.11976      131.25006    
     50000   100000         410.20428     -540.47763      5521.4606      6357.168       4400.6451      1956.523       1532.4792      1438.7649      2709.1771      0             -3723.8983      0              0             -129.91367      106023.13      47.329677      47.329677      47.329677      0.79119381    -811.31068      47.206873     -857.32908    
     50500   101000         412.64996     -528.8355       5485.4594      6299.7377      4426.8821      1872.8556      1414.8788      1443.8699      2752.8067      0             -3738.6998      0              0             -130.46052      105578.71      47.263453      47.263453      47.263453      0.79452423    -719.23197     -662.68821     -204.58631    
     51000   102000         410.52491      301.49021      6946.8009      6476.2976      4404.0847      2072.2129      1524.2546      1496.9984      2736.6081      0             -3685.6482      0              0             -128.71876      107007.35      47.475681      47.475681      47.475681      0.78391664     529.04412      86.653204      288.77332    
     51500   103000         415.76538     -66.762919      6320.8819      6424.2454      4460.3042      1963.9412      1480.9277      1443.1672      2717.8731      0             -3678.0268      0              0             -129.74772      106158.73      47.349847      47.349847      47.349847      0.79018316    -664.40311      139.39019      324.72416    
     52000   104000         410.57224      63.543506      6464.2887      6365.4143      4404.5925      1960.8218      1449.8037      1479.139       2715.3154      0             -3683.4363      0              0             -129.09777      106693.2       47.429176      47.429176      47.429176      0.78622483     50.927644      406.89008     -267.18721    
     52500   105000         414.48665      741.5522       7730.908       6592.6885      4446.586       2146.1025      1490.4994      1550.2413      2870.7493      0             -3765.3875      0              0             -130.8721       105246.68      47.213856      47.213856      47.213856      0.79703076     285.1577       401.35908      1538.1398    
     53000   106000         416.08919      62.05804       6491.9596      6395.3783      4463.7779      1931.6004      1519.4264      1419.0084      2696.2089      0             -3703.0434      0              0             -129.0733       106713.43      47.432173      47.432173      47.432173      0.78607582     647.51628      106.82796     -568.17012    
     53500   107000         409.18963      264.82678      6813.0554      6400.8263      4389.7599      2011.0664      1487.9532      1466.1508      2761.4199      0             -3704.4575      0              0             -129.049        106733.52      47.43515       47.43515       47.43515       0.78592782     310.97089     -56.37126       539.88071    
     54000   108000         412.88075     -218.27015      6062.5109      6398.5407      4429.358       1969.1827      1456.42        1438.0558      2808.382       0             -3733.6752      0              0             -130.48118      105562         47.260959      47.260959      47.260959      0.79465003    -492.05633     -485.02695      322.27283    
     54500   109000         410.24526     -235.01816      6030.6287      6392.2935      4401.0846      1991.2089      1469.8722      1484.3986      2793.2382      0             -3756.3002      0              0             -130.53488      105518.57      47.254477      47.254477      47.254477      0.79497707     168.35857     -118.30458     -755.10848    
     55000   110000         410.65239     -409.84796      5715.5131      6347.2535      4405.4523      1941.8011      1471.5301      1436.1621      2779.233       0             -3745.1241      0              0             -130.32133      105691.48      47.280274      47.280274      47.280274      0.79367652    -854.99327     -537.3637       162.81309    
     55500   111000         402.7975      -996.48346      4816.3623      6360.1624      4321.1855      2038.9769      1519.7781      1496.9915      2719.0928      0             -3696.8855      0              0             -129.6613       106229.49      47.360364      47.360364      47.360364      0.78965684    -812.8731      -1285.8181     -890.75915    
     56000   112000         417.76832     -92.604273      6221.1271      6362.2392      4481.7915      1880.4477      1448.9533      1460.8182      2750.8522      0             -3780.1761      0              0             -131.82507      104485.85      47.09981       47.09981       47.09981       0.8028345      219.81174     -207.68707     -289.93749    
     56500   113000         403.30365     -107.14755      6139.707       6305.928       4326.6154      1979.3125      1472.6711      1477.6379      2717.7682      0             -3688.7647      0              0             -129.48752      106372.06      47.381542      47.381542      47.381542      0.78859848     50.730516     -111.41144     -260.76172    
     57000   114000         404.07711      71.746138      6458.5476      6347.7893      4334.9131      2012.8762      1512.3973      1481.8077      2747.705       0             -3729.0337      0              0             -130.12284      105852.7       47.304303      47.304303      47.304303      0.7924677      360.85809     -274.70913      129.08945    
     57500   115000         408.91444      692.04835      7476.9645      6398.5028      4386.8077      2011.6951      1484.4572      1476.9651      2738.3234      0             -3688.0505      0              0             -128.90302      106854.39      47.453049      47.453049      47.453049      0.78503881     630.40123      616.12723      829.6166     
     58000   116000         414.78707     -434.81656      5890.2239      6570.1592      4449.8089      2120.3503      1496.0015      1511.6801      2804.1053      0             -3691.4367      0              0             -128.46058      107222.42      47.507466      47.507466      47.507466      0.78234425    -234.01135     -798.60797     -271.83036    
     58500   117000         409.29738     -140.3034       6232.9744      6447.4358      4390.9158      2056.5199      1543.1968      1499.4634      2810.9024      0             -3797.0426      0              0             -131.41666      104810.56      47.148551      47.148551      47.148551      0.80034726    -555.79767     -795.78975      930.67722    
     59000   118000         402.84593      384.58244      6787.0664      6195.9076      4321.7051      1874.2025      1481.1596      1433.9069      2739.1453      0             -3780.0093      0              0             -130.68227      105399.56      47.236706      47.236706      47.236706      0.79587469     628.66273      449.31822      75.766376    
     59500   119000         409.00625     -838.33936      5047.3593      6343.1326      4387.7926      1955.3401      1479.881       1519.7144      2678.4484      0             -3722.7038      0              0             -129.96373      105982.29      47.323599      47.323599      47.323599      0.79149869    -1294.7928     -505.04209     -715.18316    
     60000   120000         407.86228      220.00478      6658.0349      6318.2042      4375.5202      1942.684       1477.0597      1455.7505      2749.1374      0             -3739.2637      0              0             -130.04716      105914.3       47.313477      47.313477      47.313477      0.79200679     838.17426     -370.406        192.24606    
     60500   121000         410.7649       162.28076      6551.7011      6300.8818      4406.6593      1894.2225      1458.4119      1461.8565      2731.5552      0             -3757.6011      0              0             -129.96833      105978.54      47.323041      47.323041      47.323041      0.79152667     107.75705      450.39652     -71.311284    
     61000   122000         398.00879     -145.20829      5947.3379      6172.876       4269.8125      1903.0635      1416.9364      1485.8167      2710.8959      0             -3710.5855      0              0             -129.33107      106500.73      47.400639      47.400639      47.400639      0.78764569    -101.33144     -612.3469       278.05348    
     61500   123000         413.3186       865.26975      7653.3192      6328.1664      4434.0552      1894.1111      1456.3355      1492.5008      2695.133       0             -3749.8581      0              0             -131.16469      105011.91      47.178723      47.178723      47.178723      0.79881268     481.57513      1359.6252      754.60888    
     62000   124000         419.05468      30.998324      6477.9254      6430.4729      4495.5915      1934.8814      1497.6129      1455.413       2743.6729      0             -3761.8174      0              0             -131.22303      104965.22      47.171731      47.171731      47.171731      0.79916797    -513.28517      234.78729      371.49286    
     62500   125000         412.91847      473.35307      7167.3138      6439.5367      4429.7627      2009.774       1490.1396      1499.5685      2753.8847      0             -3733.8187      0              0             -130.65264      105423.47      47.240277      47.240277      47.240277      0.79569421     337.48594      803.96664      278.60663    
     63000   126000         401.3274       229.02419      6506.3716      6155.686       4305.4144      1850.2716      1464.3516      1416.2987      2736.3739      0             -3766.7526      0              0             -131.18821      104993.08      47.175903      47.175903      47.175903      0.79895593    -112.3668       260.36832      539.07106    
     63500   127000         410.2469       132.64143      6521.7775      6318.1547      4401.1022      1917.0524      1463.2305      1474.471       2742.4765      0             -3763.1256      0              0             -130.85312      105261.95      47.216139      47.216139      47.216139      0.79691517    -142.2137       48.465178      491.67282    
     64000   128000         408.83539     -784.95238      5167.5141      6371.2149      4385.9597      1985.2553      1491.0539      1475.7164      2785.0271      0             -3766.5421      0              0             -130.99542      105147.6       47.199035      47.199035      47.199035      0.79778184    -867.4727       401.63651     -1889.021     
     64500   129000         397.63416      83.308547      6255.9019      6127.7893      4265.7936      1861.9957      1444.4393      1450.9087      2674.5235      0             -3707.8758      0              0             -130.62587      105445.07      47.243504      47.243504      47.243504      0.79553118    -206.00925      159.7541       296.1808     
     65000   130000         409.50459      292.98592      6873.9423      6421.8445      4393.1388      2028.7057      1514.633       1481.1032      2735.0841      0             -3702.1145      0              0             -130.18044      105805.87      47.297325      47.297325      47.297325      0.79281847     96.370099     -76.026417      858.61407    
     65500   131000         412.24745     -220.47708      5989.785       6328.8992      4422.564       1906.3351      1466.0855      1469.5084      2700.9096      0             -3730.1684      0              0             -130.60174      105464.55      47.246412      47.246412      47.246412      0.79538425     317.01816     -537.80266     -440.64675    
     66000   132000         417.40781      154.21342      6683.6443      6444.6926      4477.924       1966.7686      1487.6441      1528.2794      2669.5868      0             -3718.7417      0              0             -129.64131      106245.87      47.362799      47.362799      47.362799      0.78953507     532.98091      822.63373     -892.97438    
     66500   133000         410.32435      80.9722        6435.3899      6310.0377      4401.9331      1908.1045      1433.6479      1459.4185      2746.2788      0             -3731.2407      0              0             -129.75829      106150.09      47.348561      47.348561      47.348561      0.79024753     410.03184      531.74123     -698.85647    
     67000   134000         412.45077      42.310266      6460.6817      6395.4401      4424.7452      1970.6949      1477.2512      1496.3872      2716.311       0             -3719.2545      0              0             -130.27243      105731.15      47.286189      47.286189      47.286189      0.79337873     281.00411     -135.2042      -18.869119    
     67500   135000         405.22593     -571.27199      5342.8301      6225.2778      4347.2376      1878.0402      1454.8567      1405.5776      2726.6069      0             -3709.001       0              0             -130.0425       105918.1       47.314042      47.314042      47.314042      0.7919784     -594.16997     -691.85631     -427.7897     
     68000   136000         413.47168      61.571168      6412.1477      6317.2402      4435.6974      1881.5428      1426.2399      1489.6402      2709.8308      0             -3744.1681      0              0             -130.3192       105693.21      47.280532      47.280532      47.280532      0.79366354     153.12911     -723.6343       755.2187     
     68500   137000         417.12203     -534.05406      5512.1396      6339.4705      4474.8582      1864.6123      1464.6183      1429.4334      2661.2487      0             -3690.688       0              0             -129.66936      106222.89      47.359383      47.359383      47.359383      0.78970593    -534.76004     -813.55571     -253.84642    
     69000   138000         417.63403     -443.92381      5650.3079      6330.8185      4480.3508      1850.4677      1467.185       1413.5772      2745.8619      0             -3776.1566      0              0             -131.04031      105111.58      47.193645      47.193645      47.193645      0.7980552     -788.56977     -136.51477     -406.6869     
     69500   139000         419.00168     -231.84514      6101.4979      6456.1374      4495.0229      1961.1145      1468.2419      1498.8806      2734.6536      0             -3740.6616      0              0             -131.32345      104884.95      47.159703      47.159703      47.159703      0.79977958    -880.57893      271.03489     -85.99138     
     70000   140000         412.2214       129.19279      6486.8362      6287.7792      4422.2846      1865.4947      1451.5401      1459.4004      2681.502       0             -3726.9477      0              0             -130.37436      105648.49      47.273864      47.273864      47.273864      0.79399946     714.56927      44.670493     -371.66139    
     70500   141000         412.00742      502.36226      7278.472       6508.4518      4419.9889      2088.4629      1533.0231      1471.5035      2810.7725      0             -3726.8362      0              0             -131.05279      105101.57      47.192147      47.192147      47.192147      0.7981312      702.73908      918.66222     -114.3145     
     71000   142000         405.79232      717.4054       7485.3957      6381.196       4353.3138      2027.8822      1524.2262      1475.59        2741.5152      0             -3713.4492      0              0             -130.51138      105537.57      47.257314      47.257314      47.257314      0.79483395     111.38665      1269.1979      771.63163    
     71500   143000         403.5288       183.79742      6561.1842      6282.5269      4329.0309      1953.496       1469.8517      1502.6286      2775.0475      0             -3794.0318      0              0             -132.49526      103957.33      47.020261      47.020261      47.020261      0.8069161      43.251656      401.95504      106.18556    
     72000   144000         410.60951     -137.04333      6032.2082      6243.282       4404.9923      1838.2898      1403.243       1425.989       2760.0913      0             -3751.0335      0              0             -130.4232       105608.92      47.267961      47.267961      47.267961      0.79429694     222.12971      32.12172      -665.38141    
     72500   145000         415.03436      118.92617      6573.4164      6393.0468      4452.4618      1940.5851      1460.0601      1502.3287      2760.8757      0             -3782.6794      0              0             -132.44805      103994.38      47.025847      47.025847      47.025847      0.80662859    -91.820478      136.36115      312.23784    
     73000   146000         414.04841     -460.93234      5673.3499      6378.6266      4441.8846      1936.742       1522.3886      1465.0306      2735.0869      0             -3785.764       0              0             -131.28315      104917.15      47.164529      47.164529      47.164529      0.79953412     91.412752     -74.138219     -1400.0716    
     73500   147000         406.7658       268.34671      6616.0566      6205.3893      4363.7572      1841.6321      1457.1861      1415.9403      2733.4575      0             -3764.9518      0              0             -131.26155      104934.42      47.167115      47.167115      47.167115      0.79940258    -364.88699     -306.55039      1476.4775    
     74000   148000         412.55159      139.30216      6592.5208      6380.7179      4425.8268      1954.8911      1494.3072      1425.7254      2767.132       0             -3732.2736      0              0             -132.1166       104255.29      47.065141      47.065141      47.065141      0.80460996     329.23876      539.68329     -451.01556    
     74500   149000         402.39765      459.23999      6907.6998      6205.5585      4316.896       1888.6625      1466.1672      1459.3173      2710.4863      0             -3747.3083      0              0             -131.38523      104835.63      47.15231       47.15231       47.15231       0.80015582     143.22355      400.89346      833.60296    
     75000   150000         409.24015     -901.01381      5039.72        6417.135       4390.3018      2026.8332      1549.1369      1515.1073      2755.3624      0             -3792.7734      0              0             -131.4008       104823.21      47.150448      47.150448      47.150448      0.80025064    -1745.9635      117.05985     -1074.1377    
     75500   151000         412.1998       528.68784      7040.3761      6235.3779      4422.0528      1813.325       1438.421       1488.3586      2666.1912      0             -3779.6458      0              0             -131.92763      104404.62      47.087602      47.087602      47.087602      0.80345913     1169.0113      504.4171      -87.364859    
     76000   152000         419.24214     -131.77721      6254.2441      6455.97        4497.6026      1958.3674      1503.7475      1480.6139      2741.4227      0             -3767.4168      0              0             -131.22303      104965.22      47.17173       47.17173       47.17173       0.799168      -46.661751      251.37252     -600.0424     
     76500   153000         410.03876      690.99653      7292.9136      6242.7326      4398.8693      1843.8632      1451.7631      1533.3125      2672.3145      0             -3813.5269      0              0             -132.17309      104210.73      47.058434      47.058434      47.058434      0.80495403     574.93856      862.19398      635.85707    
     77000   154000         408.09422      382.8702       6930.0572      6349.8976      4378.0084      1971.8891      1518.4963      1509.638       2742.5331      0             -3798.7782      0              0             -132.567        103901.08      47.011779      47.011779      47.011779      0.80735296     889.74522      176.87199      81.99339     
     77500   155000         416.0412       339.88326      6945.2435      6420.2281      4463.2631      1956.965       1507.8571      1466.5737      2725.3041      0             -3742.7699      0              0             -130.04366      105917.15      47.313902      47.313902      47.313902      0.79198544    -78.803454      233.41685      865.03639    
     78000   156000         411.75059      245.5164       6863.6324      6481.8686      4417.2337      2064.6349      1482.7001      1524.944       2757.405       0             -3700.4142      0              0             -129.18651      106619.91      47.418313      47.418313      47.418313      0.78676529     385.49678      607.24564     -256.19321    
     78500   157000         405.29659      89.375466      6482.6123      6345.5774      4347.9956      1997.5818      1517.2753      1466.8291      2731.6782      0             -3718.2009      0              0             -131.01423      105132.51      47.196777      47.196777      47.196777      0.79789635     187.1381       99.102237     -18.113943    
     79000   158000         404.8259      -163.73439      6028.6882      6279.3879      4342.9461      1936.4419      1473.5015      1516.061       2724.5803      0             -3777.701       0              0             -131.19501      104987.63      47.175088      47.175088      47.175088      0.79899737    -69.585055      221.12053     -642.73865    
     79500   159000         404.37766      740.72707      7354.0741      6212.1784      4338.1374      1874.041       1404.8873      1490.8696      2697.4739      0             -3719.1898      0              0             -130.30563      105704.22      47.282174      47.282174      47.282174      0.79358087     576.07083      910.35077      735.75961    
     80000   160000         412.04581     -88.823136      6340.456       6477.606       4420.4008      2057.2051      1515.3003      1493.2033      2776.4471      0             -3727.7456      0              0             -130.0953       105875.11      47.30764       47.30764       47.30764       0.79229997    -260.07776     -76.133341      69.74169     
     80500   161000         409.25606     -561.60204      5466.0066      6335.285       4390.4726      1944.8125      1427.2634      1493.6738      2737.0319      0             -3713.1565      0              0             -129.77801      106133.96      47.346163      47.346163      47.346163      0.79036762    -1203.5008      256.091       -737.39631    
     81000   162000         418.8344       794.13527      7699.8371      6468.1975      4493.2284      1974.9691      1475.9964      1487.1272      2712.4134      0             -3700.5679      0              0             -129.5216       106344.07      47.377386      47.377386      47.377386      0.78880604     955.21486      708.26531      718.92564    
     81500   163000         402.81122      558.82813      7090.8484      6228.3253      4321.3327      1906.9926      1449.6136      1480.0197      2708.7623      0             -3731.403       0              0             -130.14842      105831.89      47.301203      47.301203      47.301203      0.79262348     588.97186      268.38928      819.12325    
     82000   164000         410.08869     -133.05137      6053.6486      6259.2213      4399.4049      1859.8164      1437.3019      1456.156       2664.1901      0             -3697.8316      0              0             -130.01254      105942.51      47.317677      47.317677      47.317677      0.79179592     0.47082766    -101.56361     -298.06133    
     82500   165000         414.76246     -168.24312      6143.4554      6401.6297      4449.5448      1952.0849      1475.6396      1492.6449      2720.8402      0             -3737.0397      0              0             -130.90482      105220.37      47.209921      47.209921      47.209921      0.79723006    -98.141116     -353.00651     -53.581744    
     83000   166000         408.80886     -58.560406      6192.0668      6282.4616      4385.6751      1896.7865      1498.0314      1456.9059      2677.382       0             -3735.5328      0              0             -130.13437      105843.32      47.302906      47.302906      47.302906      0.79253789     499.17461     -475.90905     -198.94678    
     83500   167000         402.99815      375.0071       6868.2117      6297.0748      4323.3381      1973.7367      1432.6711      1518.5406      2806.171       0             -3783.646       0              0             -131.89571      104429.89      47.0914        47.0914        47.0914        0.8032647      307.06716      40.001878      777.95226    
     84000   168000         402.14371     -388.32916      5743.5879      6344.3669      4314.1717      2030.1951      1510.1429      1487.7795      2747.9799      0             -3715.7072      0              0             -129.84244      106081.3       47.338331      47.338331      47.338331      0.79075998    -208.46505     -431.44707     -525.07535    
     84500   169000         403.28696     -351.38186      5654.0896      6192.2747      4326.4364      1865.8383      1459.6292      1413.4106      2761.1672      0             -3768.3687      0              0             -131.15325      105021.07      47.180095      47.180095      47.180095      0.798743       20.653467     -962.2528      -112.54625    
     85000   170000         413.77326     -143.58447      6091.9035      6309.9374      4438.9328      1871.0047      1428.4745      1520.0304      2730.709       0             -3808.2093      0              0             -132.28627      104121.57      47.045011      47.045011      47.045011      0.80564328    -13.255237     -182.3167      -235.18148    
     85500   171000         409.62601      73.264965      6354.4753      6242.5041      4394.4414      1848.0628      1442.2187      1485.8206      2669.2507      0             -3749.2272      0              0             -131.43812      104793.45      47.145985      47.145985      47.145985      0.80047791     729.72652     -341.81805     -168.11357    
     86000   172000         412.41161     -241.78116      6067.6453      6433.8965      4424.3251      2009.5714      1556.8874      1473.0454      2780.6209      0             -3800.9822      0              0             -132.60955      103867.74      47.00675       47.00675       47.00675       0.80761209     162.81282     -756.12866     -132.02763    
     86500   173000         406.80732      92.071951      6429.8483      6288.6117      4364.2026      1924.4091      1489.1492      1437.7178      2771.8222      0             -3774.2801      0              0             -130.95181      105182.62      47.204274      47.204274      47.204274      0.79751622     632.6729       54.4774       -410.93444    
     87000   174000         412.0022      -95.04844       6291.4546      6436.5198      4419.933       2016.5868      1468.8341      1557.7597      2765.598       0             -3775.605       0              0             -131.61734      104650.75      47.124576      47.124576      47.124576      0.80156942     8.3049309     -228.66662     -64.783631    
     87500   175000         412.40486     -769.2822       5142.3452      6322.1159      4424.2527      1897.8632      1463.3173      1501.6833      2698.943       0             -3766.0805      0              0             -130.98436      105156.48      47.200363      47.200363      47.200363      0.79771447    -628.47323     -282.83438     -1396.539     
     88000   176000         403.76968     -179.65098      5961.4606      6235.3082      4331.615       1903.6932      1476.892       1455.3766      2761.0477      0             -3789.623       0              0             -131.78074      104520.99      47.105091      47.105091      47.105091      0.80256453    -1064.6253      855.8821      -330.20978    
     88500   177000         413.86169      260.27013      6798.0925      6398.2373      4439.8814      1958.3559      1469.2958      1507.0477      2713.4041      0             -3731.3918      0              0             -130.75339      105342.23      47.228139      47.228139      47.228139      0.79630784    -178.21272      539.37199      419.65113    
     89000   178000         416.26417      256.93456      6793.9626      6401.5373      4465.6551      1935.8822      1477.9385      1485.9333      2729.9568      0             -3757.9463      0              0             -131.52153      104726.99      47.136016      47.136016      47.136016      0.80098593    -74.804202      447.45701      398.15088    
     89500   179000         413.68033     -460.26984      5624.33        6334.0094      4437.9359      1896.0736      1449.2792      1447.4415      2732.0961      0             -3732.7433      0              0             -130.28118      105724.05      47.285131      47.285131      47.285131      0.79343197    -460.62884     -123.40603     -796.77466    
     90000   180000         407.771        532.80623      7080.152       6270.7101      4374.5409      1896.1693      1474.3927      1472.638       2722.5674      0             -3773.4289      0              0             -132.22544      104169.47      47.052224      47.052224      47.052224      0.8052728      718.5591       306.09046      573.76912    
     90500   181000         413.90352     -271.38258      5827.2913      6244.4259      4440.3302      1804.0958      1461.862       1421.5922      2708.6033      0             -3787.9617      0              0             -130.68842      105394.61      47.235965      47.235965      47.235965      0.79591212    -229.85594     -1110.0807      525.78886    
     91000   182000         405.58751      391.13938      6901.1212      6305.0007      4351.1166      1953.8841      1503.844       1490.5977      2749.549       0             -3790.1065      0              0             -131.80407      104502.49      47.102311      47.102311      47.102311      0.80270661     550.67104      1086.4812     -463.73408    
     91500   183000         405.32282     -34.47481       6075.1246      6127.586       4348.277       1779.309       1476.195       1445.4003      2676.0615      0             -3818.3478      0              0             -132.00582      104342.78      47.078302      47.078302      47.078302      0.80393533    -14.698832     -230.18648      141.46088    
     92000   184000         411.7466      -1313.4807      4350.4367      6367.9305      4417.1909      1950.7396      1496.3503      1489.7556      2728.6206      0             -3763.9869      0              0             -130.78045      105320.43      47.224882      47.224882      47.224882      0.79647264    -1371.9898     -1825.1674     -743.28485    
     92500   185000         411.26443     -174.35046      6154.4856      6420.6287      4412.0183      2008.6105      1506.0345      1510.4764      2771.2604      0             -3779.1609      0              0             -131.59496      104668.56      47.127248      47.127248      47.127248      0.80143308    -883.50976      144.53777      215.92059    
     93000   186000         409.82588     -237.58333      6091.6846      6457.0471      4396.5855      2060.4616      1496.9857      1480.5094      2828.1651      0             -3745.1986      0              0             -130.62412      105446.48      47.243714      47.243714      47.243714      0.79552053    -436.28987      138.20372     -414.66382    
     93500   187000         405.5722      -229.48873      5940.0053      6292.1913      4350.9524      1941.239       1461.973       1494.8484      2732.3048      0             -3747.8873      0              0             -130.89426      105228.86      47.211191      47.211191      47.211191      0.79716575    -172.00805     -104.75059     -411.70756    
     94000   188000         415.8265       911.39233      7746.1648      6345.4047      4460.9599      1884.4449      1456.0961      1463.4552      2718.0148      0             -3753.1212      0              0             -130.69922      105385.9       47.234664      47.234664      47.234664      0.79597789     753.45431      819.26433      1161.4583    
     94500   189000         402.05596     -495.16529      5613.8418      6386.5347      4313.2303      2073.3044      1480.6713      1509.0134      2773.6258      0             -3690.0061      0              0             -128.72848      106999.27      47.474486      47.474486      47.474486      0.78397583    -687.77562     -352.61363     -445.10661    
     95000   190000         404.75813     -716.0794       5232.6504      6341.0942      4342.2191      1998.8751      1533.4178      1476.5606      2676.281       0             -3687.3843      0              0             -129.77135      106139.4       47.346972      47.346972      47.346972      0.79032708    -218.44198     -1573.4496     -356.34659    
     95500   191000         411.96429      410.84724      6940.2076      6304.1421      4419.5263      1884.6158      1487.572       1419.6654      2701.1851      0             -3723.8067      0              0             -129.75074      106156.27      47.34948       47.34948       47.34948       0.79020151     1042.6527     -207.5468       397.43582    
     96000   192000         415.43326      122.62331      6673.3838      6483.1322      4456.7412      2026.391       1482.0285      1483.2745      2782.5228      0             -3721.4348      0              0             -129.47206      106384.76      47.383428      47.383428      47.383428      0.78850431     12.307619     -43.817471      399.3798     
     96500   193000         411.61521     -597.64459      5507.1535      6444.5627      4415.7814      2028.7814      1470.2444      1499.016       2729.3022      0             -3669.7813      0              0             -128.06932      107549.99      47.555796      47.555796      47.555796      0.77996145    -136.57927     -804.53273     -851.82177    
     97000   194000         399.75947     -276.92397      5739.1017      6161.5603      4288.5938      1872.9665      1495.6908      1458.0867      2680.9311      0             -3761.7421      0              0             -131.67633      104603.87      47.117537      47.117537      47.117537      0.80192868     157.13235     -1098.7627      110.85846    
     97500   195000         407.03684     -167.59439      5985.0276      6243.4589      4366.6649      1876.794       1467.4631      1393.6956      2743.6086      0             -3727.9733      0              0             -130.2704       105732.8       47.286436      47.286436      47.286436      0.79336631     135.45267     -891.15139      252.91554    
     98000   196000         413.73471     -233.4731       6024.0555      6381.4561      4438.5192      1942.9369      1516.3006      1434.8679      2751.7479      0             -3759.9796      0              0             -131.22388      104964.54      47.171628      47.171628      47.171628      0.79917317    -415.98071     -13.049598     -271.38897    
     98500   197000         407.43048      846.52033      7684.2142      6374.7587      4370.8878      2003.8709      1531.0195      1472.5896      2712.6574      0             -3712.3957      0              0             -129.86078      106066.31      47.336102      47.336102      47.336102      0.79087168     255.3069       898.56614      1385.688     
     99000   198000         411.64322      64.12941       6420.5624      6322.4908      4416.0818      1906.4089      1489.9155      1441.5773      2758.7346      0             -3783.8185      0              0             -131.35461      104860.07      47.155974      47.155974      47.155974      0.79996935     149.58897      291.26434     -248.46508    
     99500   199000         410.75409     -482.44482      5682.7042      6423.86        4406.5433      2017.3167      1539.2114      1498.7476      2742.9042      0             -3763.5466      0              0             -130.75837      105338.22      47.22754       47.22754       47.22754       0.79633813    -474.59848     -459.06942     -513.66656    
    100000   200000         413.01625     -259.68275      5845.0169      6242.2182      4430.8117      1811.4066      1523.1729      1429.6776      2652.1089      0             -3793.5529      0              0             -131.32994      104879.77      47.158926      47.158926      47.158926      0.79981912     18.999832     -732.96732     -65.080765    
    100500   201000         407.45929     -605.217        5339.0033      6272.4056      4371.1969      1901.2087      1508.7098      1503.508       2674.5816      0             -3785.5907      0              0             -130.24876      105750.37      47.289054      47.289054      47.289054      0.79323453    -820.00256     -863.68266     -131.96577    
    101000   202000         413.23429     -203.89184      6126.292       6439.6904      4433.1507      2006.5397      1518.0651      1495.1885      2750.1334      0             -3756.8473      0              0             -130.68761      105395.26      47.236063      47.236063      47.236063      0.79590719     295.77557     -356.04446     -551.40664    
    101500   203000         422.70182      1139.8252      8245.7059      6504.1408      4534.7178      1969.423       1475.9051      1527.3553      2753.5807      0             -3787.4182      0              0             -131.47098      104767.26      47.142056      47.142056      47.142056      0.80067807     1411.2637      1584.2966      423.91532    
    102000   204000         416.46185      247.07727      6775.7503      6399.7948      4467.7758      1932.019       1491.5935      1492.5393      2742.636       0             -3794.7499      0              0             -132.01633      104334.47      47.077054      47.077054      47.077054      0.8039993     -367.53997      682.25868      426.51309    
    102500   205000         421.72993     -484.88848      5727.1892      6477.4657      4524.2914      1953.1743      1498.5252      1443.4232      2746.4925      0             -3735.2666      0              0             -129.82307      106097.12      47.340685      47.340685      47.340685      0.79064202    -237.06509     -298.24306     -919.35729    
    103000   206000         411.32339      126.64018      6613.2894      6415.6109      4412.6508      2002.9602      1517.8578      1442.3131      2758.562       0             -3715.7728      0              0             -128.68963      107031.57      47.479263      47.479263      47.479263      0.78373924    -405.56785      455.96196      329.52641    
    103500   207000         414.65131      529.6116       7211.2007      6397.5875      4448.3525      1949.235       1450.0351      1491.3211      2741.0633      0             -3733.1845      0              0             -130.75878      105337.89      47.227491      47.227491      47.227491      0.79634062     514.18157      738.14061      336.51263    
    104000   208000         404.19945      39.83753       6358.8905      6297.5957      4336.2256      1961.3701      1507.1535      1464.4448      2727.14        0             -3737.3682      0              0             -130.55692      105500.76      47.251819      47.251819      47.251819      0.79511127     269.51616     -420.52612      270.52256    
    104500   209000         410.93978      11.608525      6531.9103      6514.0027      4408.5354      2105.4673      1533.8927      1560.5149      2754.8457      0             -3743.7859      0              0             -130.21806      105775.3       47.292771      47.292771      47.292771      0.79304755     743.17179     -269.46919     -438.87703    
    105000   210000         412.09247     -466.13568      5653.1371      6375.6507      4420.9014      1954.7493      1455.2154      1494.3091      2721.9333      0             -3716.7084      0              0             -129.59782      106281.53      47.368096      47.368096      47.368096      0.78927023    -1309.4503      143.29988     -232.25661    
    105500   211000         418.80839      297.39338      6973.5707      6513.4803      4492.9493      2020.531       1526.2989      1491.1516      2730.7651      0             -3727.6847      0              0             -129.84329      106080.6       47.338227      47.338227      47.338227      0.79076517     263.05335      529.45022      99.676563    
    106000   212000         399.57486      518.82475      6965.8345      6154.7565      4286.6132      1868.1433      1462.0111      1422.2773      2682.2177      0             -3698.3627      0              0             -128.49595      107192.9       47.503106      47.503106      47.503106      0.78255968     586.09562      403.23578      567.14285    
    106500   213000         418.3101       394.48927      7116.6501      6507.7219      4487.6038      2020.1182      1489.1142      1530.6555      2735.36        0             -3735.0115      0              0             -130.13691      105841.26      47.302598      47.302598      47.302598      0.79255335     714.82589     -78.470928      547.11286    
    107000   214000         412.09527      432.84823      7072.7374      6399.7615      4420.9314      1978.8301      1481.8996      1465.1147      2696.8688      0             -3665.0529      0              0             -129.20149      106607.55      47.416481      47.416481      47.416481      0.78685652     568.61253      614.6191       115.31307    
    107500   215000         400.35908      398.69018      7007.1136      6388.1169      4295.0263      2093.0906      1474.2875      1490.094       2831.24        0             -3702.5309      0              0             -129.3834       106457.66      47.394248      47.394248      47.394248      0.78796436     921.83251      568.56227     -294.32424    
    108000   216000         407.34181     -404.87768      5749.0352      6374.9159      4369.9366      2004.9793      1518.9252      1471.8166      2735.9188      0             -3721.6812      0              0             -129.94622      105996.58      47.325725      47.325725      47.325725      0.791392      -813.9437      -194.47116     -206.21818    
    108500   217000         406.79768      83.892015      6497.7665      6368.6323      4364.0992      2004.5331      1470.0466      1489.8571      2801.427       0             -3756.7975      0              0             -130.50005      105546.73      47.258681      47.258681      47.258681      0.79476497     198.03016     -63.221674      116.86756    
    109000   218000         419.42988      260.36981      6790.7143      6389.5124      4499.6166      1889.8958      1431.7577      1502.2189      2695.8171      0             -3739.8979      0              0             -130.36442      105656.54      47.275065      47.275065      47.275065      0.79393893     134.38063      170.07693      476.65187    
    109500   219000         411.68        -106.52651      6176.3239      6339.6401      4416.4764      1923.1637      1471.3115      1464.5262      2734.7085      0             -3747.3825      0              0             -131.02675      105122.46      47.195273      47.195273      47.195273      0.79797261    -428.6935      -660.57118      769.68514    
    110000   220000         419.49897      1111.0415      8193.484       6502.9961      4500.3578      2002.6383      1481.4397      1550.9499      2748.3607      0             -3778.1121      0              0             -132.02299      104329.2       47.076261      47.076261      47.076261      0.8040399      1161.1686      1081.8373      1090.1187    
    110500   221000         413.95472     -87.400808      6281.4766      6416.2312      4440.8795      1975.3517      1515.5806      1490.7263      2705.1657      0             -3736.1208      0              0             -130.28761      105718.84      47.284354      47.284354      47.284354      0.79347112     265.93751     -1025.8049      497.66493    
    111000   222000         411.1356      -145.17437      5970.134       6193.4033      4410.6362      1782.7671      1411.839       1491.0144      2644.5559      0             -3764.6423      0              0             -130.61479      105454.02      47.244839      47.244839      47.244839      0.7954637      718.51654     -419.50591     -734.53373    
    111500   223000         406.32038      356.76157      6946.5511      6390.7665      4358.9788      2031.7878      1482.4637      1545.8296      2701.5489      0             -3698.0545      0              0             -128.94454      106819.99      47.447956      47.447956      47.447956      0.78529165    -114.68861      176.77045      1008.2029    
    112000   224000         404.25798      468.09497      7136.0346      6413.3078      4336.8535      2076.4543      1521.7036      1548.642       2743.4682      0             -3737.3595      0              0             -130.10416      105867.9       47.306567      47.306567      47.306567      0.79235389     430.48         852.48031      121.32459    
    112500   225000         416.13641     -202.4468       6091.7016      6404.8137      4464.2845      1940.5291      1471.8568      1466.7129      2742.2692      0             -3740.3098      0              0             -129.88007      106050.56      47.333758      47.333758      47.333758      0.79098918     204.75827     -787.16982     -24.928843    
    113000   226000         416.83334     -193.57765      6321.6949      6620.8245      4471.7611      2149.0634      1560.4814      1491.2522      2831.2072      0             -3733.8775      0              0             -129.99514      105956.69      47.319788      47.319788      47.319788      0.79168995     313.27363     -563.6852      -330.32139    
    113500   227000         409.83188      199.19182      6754.1297      6446.6778      4396.6499      2050.0278      1485.7753      1466.5507      2805.9487      0             -3708.2468      0              0             -130.14443      105835.14      47.301687      47.301687      47.301687      0.79259918     302.18359     -568.65683      864.0487     
    114000   228000         409.00218      292.65159      6797.0821      6348.4537      4387.7489      1960.7047      1426.5144      1488.2835      2800.636       0             -3754.7291      0              0             -131.03745      105113.88      47.193989      47.193989      47.193989      0.79803777    -262.73352      491.35636      649.33193    
    114500   229000         413.24305     -381.85612      5829.7834      6419.8522      4433.2447      1986.6075      1470.9394      1468.7353      2770.9572      0             -3724.0244      0              0             -129.99555      105956.35      47.319738      47.319738      47.319738      0.79169246     217.44082     -304.91812     -1058.0911    
    115000   230000         417.19895      666.55503      7422.4186      6396.8948      4475.6834      1921.2114      1503.6963      1410.4655      2762.7704      0             -3755.7209      0              0             -130.56345      105495.48      47.251031      47.251031      47.251031      0.79515104     1193.9494      110.05289      695.66278    
    115500   231000         399.63621     -180.4307       5968.8154      6249.6932      4287.2714      1962.4218      1552.0407      1453.3752      2674.4154      0             -3717.4094      0              0             -129.03999      106740.97      47.436253      47.436253      47.436253      0.78587298     173.34295     -887.31569      172.68065    
    116000   232000         402.26475      49.299712      6306.2663      6230.9618      4315.4703      1915.4915      1510.2155      1494.3682      2699.0291      0             -3788.1213      0              0             -131.5089       104737.05      47.137525      47.137525      47.137525      0.80090898    -19.959489      296.9112      -129.05258    
    116500   233000         409.90275     -731.47522      5223.4147      6369.0714      4397.4102      1971.6611      1489.5511      1433.9368      2718.774       0             -3670.6007      0              0             -128.25565      107393.74      47.532755      47.532755      47.532755      0.78109623    -426.3167      -1179.7709     -588.33808    
    117000   234000         405.81744      59.004138      6345.019       6254.5736      4353.5833      1900.9904      1515.4589      1458.8197      2685.1278      0             -3758.416       0              0             -131.04717      105106.08      47.192821      47.192821      47.192821      0.798097       104.76522     -110.10939      182.35658    
    117500   235000         407.17717      378.70018      6838.1197      6259.1721      4368.1704      1891.0017      1485.5001      1456.1323      2739.9369      0             -3790.5676      0              0             -131.39766      104825.72      47.150824      47.150824      47.150824      0.80023151     622.70625      685.69279     -172.29849    
    118000   236000         407.54309     -347.04828      5729.401       6259.9185      4372.096       1887.8225      1501.642       1495.857       2667.7071      0             -3777.3836      0              0             -131.40793      104817.53      47.149595      47.149595      47.149595      0.80029405    -692.68506     -160.1537      -188.30607    
    118500   237000         409.53853     -510.87976      5596.8934      6377.6025      4393.5029      1984.0996      1519.274       1499.2542      2743.1033      0             -3777.532       0              0             -131.45008      104783.92      47.144555      47.144555      47.144555      0.80055074    -121.0339      -527.64194     -883.96346    
    119000   238000         409.01911      662.08493      7211.3633      6206.7529      4387.9305      1818.8224      1434.7141      1434.8094      2751.947       0             -3802.6481      0              0             -132.38762      104041.86      47.033002      47.033002      47.033002      0.80626055     1093.9837      718.7781       173.49304    
    119500   239000         415.88871     -586.80193      5463.9698      6374.2503      4461.6272      1912.6231      1445.1344      1474.8968      2678.5888      0             -3685.9969      0              0             -129.4934       106367.23      47.380824      47.380824      47.380824      0.78863431    -998.40093     -559.30636     -202.69851    
    120000   240000         411.67002      216.23384      6774.2117      6441.2468      4416.3694      2024.8775      1506.7113      1496.7243      2756.6818      0             -3735.24        0              0             -130.45374      105584.2       47.264272      47.264272      47.264272      0.79448293     66.909524      911.58591     -329.79391    
    120500   241000         411.04997     -102.13303      6123.4812      6280.6848      4409.7176      1870.9673      1463.1054      1480.065       2671.5655      0             -3743.7686      0              0             -130.50739      105540.8       47.257796      47.257796      47.257796      0.79480962    -615.05249      531.42541     -222.77203    
    121000   242000         410.28327     -580.71845      5347.9705      6238.6475      4401.4924      1837.1551      1481.0243      1446.8379      2663.4433      0             -3754.1503      0              0             -130.97149      105166.81      47.20191       47.20191       47.20191       0.79763606    -43.931093     -1254.8841     -443.34014    
    121500   243000         417.15166     -526.55583      5590.5166      6392.3783      4475.1761      1917.2023      1507.24        1515.9565      2715.1783      0             -3821.1726      0              0             -131.90957      104418.91      47.089751      47.089751      47.089751      0.80334914    -440.20637     -532.41411     -607.04702    
    122000   244000         403.81317     -426.57426      5559.1434      6212.731       4332.0816      1880.6495      1485.3309      1466.7564      2701.4404      0             -3772.8783      0              0             -131.10589      105059         47.185775      47.185775      47.185775      0.7984546      168.47419     -617.74033     -830.45665    
    122500   245000         412.69265      84.723742      6460.0675      6330.0553      4427.3401      1902.7152      1492.761       1479.8725      2681.6772      0             -3751.5955      0              0             -130.90386      105221.15      47.210037      47.210037      47.210037      0.7972242     -660.54179      528.76828      385.94473    
    123000   246000         414.61959     -263.05671      6045.3004      6450.2492      4448.0122      2002.2371      1529.5138      1470.5102      2753.7474      0             -3751.5343      0              0             -130.49101      105554.05      47.259773      47.259773      47.259773      0.79470989     254.86034     -1197.8883      153.85783    
    123500   247000         401.09233      36.990623      6325.8814      6269.1039      4302.8926      1966.2113      1510.0287      1464.6736      2783.2808      0             -3791.7718      0              0             -130.87199      105246.77      47.213869      47.213869      47.213869      0.79703012    -411.48376      390.03627      132.41935    
    124000   248000         414.94651     -264.10713      5995.2836      6401.6099      4451.5193      1950.0905      1467.3254      1468.5297      2781.8511      0             -3767.6156      0              0             -130.56794      105491.85      47.250489      47.250489      47.250489      0.79517842    -987.70357      369.87592     -174.49374    
    124500   249000         418.79008     -567.00815      5637.8105      6529.267       4492.7529      2036.5142      1465.963       1504.9749      2736.8797      0             -3671.3035      0              0             -127.76752      107804.03      47.59321       47.59321       47.59321       0.77812344    -945.9198      -206.97472     -548.12994    
    125000   250000         413.14482     -295.97051      5945.1608      6405.1738      4432.1909      1972.9829      1460.0987      1476.901       2761.1252      0             -3725.142       0              0             -129.24378      106572.66      47.411308      47.411308      47.411308      0.78711407    -1137.9257     -119.75753      369.77168    
    125500   251000         408.27525     -288.25402      5782.2191      6227.7205      4379.9505      1847.77        1482.9568      1438.608       2676.9089      0             -3750.7038      0              0             -129.97434      105973.64      47.322311      47.322311      47.322311      0.7915633     -428.09425      313.38844     -750.05624    
    126000   252000         420.56183     -831.27828      5219.7567      6514.8933      4511.7602      2003.1332      1513.1702      1458.4516      2759.1039      0             -3727.5925      0              0             -128.93244      106830.01      47.44944       47.44944       47.44944       0.78521797    -118.02042     -231.65124     -2144.1632    
    126500   253000         416.89681      465.03868      6985.1412      6272.6198      4472.442       1800.1778      1498.4751      1430.766       2637.6245      0             -3766.6877      0              0             -131.106        105058.92      47.185762      47.185762      47.185762      0.79845526    -132.74626      914.2181       613.6442     
    127000   254000         405.88516     -99.828031      6056.7583      6211.554       4354.3098      1857.2442      1466.6746      1446.4891      2670.3461      0             -3726.2655      0              0             -129.54623      106323.85      47.374382      47.374382      47.374382      0.78895606    -786.57155      1.5896626      485.4978     
    127500   255000         412.31652     -93.422678      6172.1453      6317.0959      4423.305       1893.7909      1492.2083      1412.2668      2691.6923      0             -3702.3765      0              0             -129.46836      106387.8       47.383879      47.383879      47.383879      0.78848181    -61.968097     -121.31847     -96.98147     
    128000   256000         413.64829      75.412608      6429.6889      6312.7729      4437.5922      1875.1808      1493.6694      1418.3482      2658.1007      0             -3694.9376      0              0             -129.56905      106305.12      47.371601      47.371601      47.371601      0.78909504    -648.37703      901.37451     -26.759657    
    128500   257000         407.74515     -307.79568      5960.3787      6437.0747      4374.2636      2062.8111      1510.9964      1479.3295      2763.9936      0             -3691.5084      0              0             -129.7037       106194.77      47.355204      47.355204      47.355204      0.78991503    -1299.7578     -71.146254      447.51706    
    129000   258000         417.12975     -126.60889      6195.4326      6389.0156      4474.941       1914.0746      1444.5545      1518.7522      2734.1406      0             -3783.3727      0              0             -131.37972      104840.03      47.15297       47.15297       47.15297       0.80012224    -211.72538      113.88507     -281.98637    
    129500   259000         406.17448     -439.93127      5529.195       6207.543       4357.4135      1850.1294      1455.406       1465.9691      2668.561       0             -3739.8066      0              0             -130.27578      105728.43      47.285784      47.285784      47.285784      0.79339912    -230.6312      -848.6266      -240.536      
    130000   260000         412.12997      335.50711      6954.8997      6437.476       4421.3036      2016.1723      1529.8825      1531.5899      2685.4819      0             -3730.782       0              0             -130.25271      105747.16      47.288576      47.288576      47.288576      0.79325858     147.77879      275.17156      583.57099    
    130500   261000         400.01921     -355.83832      5620.5564      6164.6174      4291.3803      1873.2371      1482.2866      1473.0708      2696.7303      0             -3778.8506      0              0             -131.38219      104838.06      47.152674      47.152674      47.152674      0.80013731    -390.67955     -344.66062     -332.17479    
    131000   262000         408.07581      403.54832      6870.6369      6248.3686      4377.8109      1870.5577      1462.7083      1478.001       2652.6214      0             -3722.773       0              0             -130.27144      105731.95      47.28631       47.28631       47.28631       0.79337267     408.03132      96.411138      706.2025     
    131500   263000         412.8162      -122.08682      6148.9532      6337.1252      4428.6656      1908.4596      1451.2038      1466.6445      2729.6149      0             -3739.0035      0              0             -130.33023      105684.26      47.279198      47.279198      47.279198      0.79373074     255.20481     -428.90573     -192.55954    
    132000   264000         413.97231      1128.5558      8108.9378      6376.3797      4441.0681      1935.3116      1447.5801      1479.6106      2730.9721      0             -3722.8512      0              0             -130.84785      105266.18      47.216772      47.216772      47.216772      0.7968831      793.96133      1194.262       1397.4441    
    132500   265000         414.70204     -3.164129       6361.9375      6366.8212      4448.8966      1917.9245      1452.3155      1474.8355      2717.8715      0             -3727.0979      0              0             -130.14874      105831.64      47.301165      47.301165      47.301165      0.7926254      871.08815     -346.39435     -534.18619    
    133000   266000         399.6434      -229.68773      5937.4178      6291.9098      4287.3486      2004.5613      1476.0979      1499.9928      2779.0675      0             -3750.5969      0              0             -130.15555      105826.1       47.30034       47.30034       47.30034       0.79266688     610.56215     -619.22225     -680.40311    
    133500   267000         419.11033     -280.02069      6034.0767      6462.8984      4496.1885      1966.7099      1452.0265      1480.3774      2783.6037      0             -3749.2977      0              0             -131.17308      105005.19      47.177717      47.177717      47.177717      0.79886377    -575.20094      17.086306     -281.94745    
    134000   268000         403.96663     -542.13794      5467.7737      6306.338       4333.7279      1972.6101      1487.3519      1429.2781      2758.7671      0             -3702.7871      0              0             -129.86879      106059.77      47.335129      47.335129      47.335129      0.79092046    -493.97926     -818.8338      -313.60076    
    134500   269000         414.13712      84.18046       6455.0901      6326.9583      4442.8363      1884.1221      1475.5664      1478.2611      2733.1519      0             -3802.8574      0              0             -131.97322      104368.55      47.082179      47.082179      47.082179      0.80373678     431.81034      303.95634     -483.2253     
    135000   270000         413.272        602.15586      7351.7538      6429.0337      4433.5553      1995.4783      1494.919       1481.8848      2780.0257      0             -3761.3513      0              0             -131.09021      105071.57      47.187656      47.187656      47.187656      0.79835912     1363.5535     -465.54146      908.45553    
    135500   271000         411.20293     -544.10601      5463.0672      6297.014       4411.3584      1885.6556      1508.3078      1418.4032      2703.5583      0             -3744.6137      0              0             -131.06192      105094.25      47.191051      47.191051      47.191051      0.79818682    -1319.0746      22.779114     -336.0225     
    136000   272000         405.20012      277.09824      6700.514       6276.6175      4346.9607      1929.6568      1492.1617      1456.3228      2751.7221      0             -3770.5498      0              0             -131.31228      104893.88      47.161041      47.161041      47.161041      0.79971153    -125.9665       638.44367      318.81756    
    136500   273000         392.11914      36.625629      6118.223       6062.2078      4206.6288      1855.579       1453.4281      1528.403       2671.5648      0             -3797.8169      0              0             -131.34417      104868.41      47.157224      47.157224      47.157224      0.79990573     192.5282      -285.26646      202.61515    
    137000   274000         405.20882      471.379        7035.1132      6309.4525      4347.0541      1962.3985      1532.3575      1468.0304      2716.59        0             -3754.5796      0              0             -130.48723      105557.1       47.260229      47.260229      47.260229      0.79468686     407.90859      310.38933      695.83907    
    137500   275000         412.80464     -216.36581      5933.0372      6264.7494      4428.5415      1836.2079      1467.594       1444.4506      2692.3423      0             -3768.179       0              0             -131.02629      105122.83      47.195328      47.195328      47.195328      0.79796982    -246.12262     -361.4618      -41.513009    
    138000   276000         409.2269      -364.4028       5712.9294      6276.0244      4390.1597      1885.8646      1439.6872      1471.2782      2686.5219      0             -3711.6227      0              0             -129.99643      105955.64      47.319631      47.319631      47.319631      0.7916978     -1226.6924     -19.316353      152.80031    
    138500   277000         410.07264      18.706245      6390.6175      6361.7529      4399.2328      1962.5202      1479.8476      1459.9175      2714.7903      0             -3692.0353      0              0             -130.18267      105804.06      47.297056      47.297056      47.297056      0.79283202     61.398651     -628.64311      623.36319    
    139000   278000         410.46048     -1073.0654      4795.1902      6465.6974      4403.3935      2062.3039      1510.0843      1481.3829      2784.164       0             -3713.3273      0              0             -129.03551      106744.68      47.436803      47.436803      47.436803      0.78584564    -643.976       -1401.4322     -1173.7881    
    139500   279000         399.50533     -830.31988      5022.7049      6300.9343      4285.8674      2015.067       1510.5898      1457.4212      2779.447       0             -3732.3909      0              0             -130.48722      105557.11      47.26023       47.26023       47.26023       0.7946868     -633.41322     -695.9756      -1161.5708    
    140000   280000         405.40129      162.23017      6534.1491      6285.9249      4349.1188      1936.8061      1459.3442      1482.5097      2768.4913      0             -3773.5392      0              0             -131.28614      104914.76      47.16417       47.16417       47.16417       0.79955234    -135.14935      650.71271     -28.872844    
    140500   281000         404.88057     -7.6202011      6299.8369      6311.5384      4343.5326      1968.0058      1502.3723      1504.8746      2709.949       0             -3749.1902      0              0             -130.81507      105292.56      47.220715      47.220715      47.220715      0.79668349     485.94494     -781.40766      272.60212    
    141000   282000         414.68027      749.75243      7579.6017      6435.5844      4448.6632      1986.9213      1509.8831      1458.4637      2763.6642      0             -3745.0898      0              0             -131.64872      104625.81      47.120831      47.120831      47.120831      0.80176054     1161.1355      327.49678      760.62502    
    141500   283000         415.23023      449.31719      7035.8728      6348.9067      4454.563       1894.3437      1463.0343      1498.6698      2705.1925      0             -3772.5529      0              0             -131.386        104835.02      47.152218      47.152218      47.152218      0.80016051     166.78487      418.30607      762.86064    
    142000   284000         409.05943     -11.415931      6313.3234      6330.7474      4388.3631      1942.3843      1504.5718      1450.8349      2769.5225      0             -3782.5449      0              0             -131.61232      104654.75      47.125175      47.125175      47.125175      0.80153881    -94.767374      92.234282     -31.714702    
    142500   285000         403.80254     -80.578185      6208.4622      6330.7662      4331.9675      1998.7987      1518.7496      1484.183       2744.8676      0             -3749.0015      0              0             -132.34525      104075.17      47.038021      47.038021      47.038021      0.80600248     399.46107     -1041.9591      400.76343    
    143000   286000         417.94747     -737.42711      5309.8797      6438.0249      4483.7135      1954.3114      1503.6792      1408.3855      2789.3413      0             -3747.0946      0              0             -131.30627      104898.68      47.16176       47.16176       47.16176       0.79967493    -381.70635     -1086.0798     -744.4952     
    143500   287000         415.61202      324.11523      6874.5469      6381.1804      4458.6589      1922.5216      1505.2429      1489.266       2722.986       0             -3794.9733      0              0             -131.96573      104374.48      47.08307       47.08307       47.08307       0.80369115     477.00378      79.665203      415.6767     
    144000   288000         410.92076      321.87504      6989.8485      6495.1924      4408.3313      2086.8611      1532.0416      1524.3602      2785.7189      0             -3755.2595      0              0             -130.71195      105375.63      47.23313       47.23313       47.23313       0.79605546    -56.657959      907.44259      114.84051    
    144500   289000         418.73405     -295.52721      5926.6551      6380.6243      4492.1519      1888.4725      1494.9158      1465.9665      2695.41        0             -3767.8198      0              0             -130.76829      105330.23      47.226346      47.226346      47.226346      0.79639856     402.05378     -1027.022      -261.61346    
    145000   290000         410.86219     -51.186774      6257.3987      6336.1498      4407.703       1928.4468      1475.9471      1550.0391      2684.7112      0             -3782.2506      0              0             -130.5668       105492.78      47.250627      47.250627      47.250627      0.79517144     211.52337     -695.46786      330.38417    
    145500   291000         409.32516     -248.15519      5928.7753      6308.9052      4391.2138      1917.6913      1473.6173      1497.3454      2730.6303      0             -3783.9017      0              0             -131.13626      105034.67      47.182132      47.182132      47.182132      0.79863953    -56.815982      8.2287832     -695.87836    
    146000   292000         408.40889      267.2082       6724.5131      6317.6858      4381.3842      1936.3016      1459.6302      1538.669       2728.7754      0             -3790.773       0              0             -131.93836      104396.13      47.086326      47.086326      47.086326      0.80352445     56.210523      589.09193      156.32213    
    146500   293000         409.90131      331.78035      6832.007       6325.234       4397.3948      1927.8393      1456.9339      1466.9416      2781.3897      0             -3777.4259      0              0             -131.51297      104733.81      47.137039      47.137039      47.137039      0.80093378     515.22244      448.43743      31.681191    
    147000   294000         411.00425      559.17882      7257.9763      6395.0159      4409.2271      1985.7888      1439.2449      1451.4719      2803.9086      0             -3708.8366      0              0             -130.16409      105819.16      47.299306      47.299306      47.299306      0.79271888     646.84973      374.12177      656.56495    
    147500   295000         410.74181      447.57449      6964.0246      6276.6205      4406.4116      1870.2088      1414.3491      1487.8533      2709.4875      0             -3741.481       0              0             -130.79302      105310.31      47.223369      47.223369      47.223369      0.79654917     785.89338     -185.83242      742.66252    
    148000   296000         411.11849      229.51721      6719.8257      6365.6552      4410.4525      1955.2027      1412.1988      1508.739       2742.0716      0             -3707.8067      0              0             -130.17698      105808.67      47.297744      47.297744      47.297744      0.79279742    -553.8681       380.12389      862.29585    
    148500   297000         409.05468     -137.16706      6007.811       6218.7526      4388.3121      1830.4405      1432.9324      1450.439       2690.7442      0             -3743.6751      0              0             -130.62281      105447.54      47.243873      47.243873      47.243873      0.79551254    -702.20456      194.95607      95.747308    
    149000   298000         405.29786      119.78517      6557.7866      6372.6503      4348.0093      2024.641       1450.1856      1484.3553      2816.4393      0             -3726.3393      0              0             -129.96987      105977.28      47.322854      47.322854      47.322854      0.79153609     191.94634     -146.0108       313.41996    
    149500   299000         412.8514       323.9269       6804.8252      6314.3972      4429.0431      1885.3541      1408.932       1452.9286      2818.2684      0             -3794.7749      0              0             -132.67927      103813.15      46.998514      46.998514      46.998514      0.80803674    -288.31967      244.17944      1015.9209    
    150000   300000         408.90783     -3.8516027      6347.3518      6353.2307      4386.7368      1966.4939      1439.875       1466.0295      2822.0535      0             -3761.4641      0              0             -131.60785      104658.3       47.125709      47.125709      47.125709      0.80151159     362.20273     -245.61888     -128.13865    
    150500   301000         414.29608      271.13847      6892.7599      6475.6871      4444.5416      2031.1455      1468.9499      1468.0355      2819.9378      0             -3725.7776      0              0             -130.59023      105473.85      47.247801      47.247801      47.247801      0.79531414     137.74406      1187.1075     -511.43614    
    151000   302000         407.97878      360.99153      6933.1393      6379.4686      4376.7699      2002.6987      1499.507       1431.9239      2821.3312      0             -3750.0634      0              0             -130.97153      105166.78      47.201905      47.201905      47.201905      0.7976363      87.606782      564.75913      430.60868    
    151500   303000         405.39036      119.8734       6355.2023      6171.3286      4349.0016      1822.327       1455.2611      1473.5265      2658.3297      0             -3764.7902      0              0             -130.95881      105176.99      47.203433      47.203433      47.203433      0.79755888    -631.10503      526.60087      464.12434    
    152000   304000         408.78102      250.68646      6705.0978      6320.4307      4385.3764      1935.0543      1470.1495      1492.857       2692.2534      0             -3720.2055      0              0             -130.91131      105215.15      47.209141      47.209141      47.209141      0.7972696      1078.1583     -365.16021      39.061325    
    152500   305000         410.54625     -351.49251      5933.107       6471.9911      4404.3137      2067.6774      1480.1119      1577.1122      2750.7443      0             -3740.2911      0              0             -131.02437      105124.37      47.195559      47.195559      47.195559      0.79795813    -877.0528      -293.50014      116.07542    
    153000   306000         410.59103      179.68384      6610.8633      6332.6198      4404.7941      1927.8257      1408.9159      1479.0201      2732.2469      0             -3692.3572      0              0             -129.72251      106179.37      47.352914      47.352914      47.352914      0.79002962     1165.0056     -192.36776     -433.5863     
    153500   307000         410.51911     -252.08829      5848.6041      6238.7292      4404.0224      1834.7068      1426.3838      1492.0487      2652.1125      0             -3735.8382      0              0             -129.80162      106114.65      47.343292      47.343292      47.343292      0.7905114     -281.27332     -493.01558      18.024016    
    154000   308000         408.69458      519.89565      7224.7263      6425.5624      4384.4491      2041.1133      1531.3647      1511.5778      2724.8513      0             -3726.6805      0              0             -130.68078      105400.77      47.236886      47.236886      47.236886      0.79586559     194.69585      829.31911      535.67199    
    154500   309000         404.7276      -90.959553      6175.8448      6314.098       4341.8915      1972.2065      1497.6171      1473.9855      2750.3605      0             -3749.7566      0              0             -132.16133      104220         47.059831      47.059831      47.059831      0.80488237    -723.43277      585.63255     -135.07844    
    155000   310000         417.06927      514.27235      7246.1374      6460.0694      4474.2922      1985.7772      1492.4245      1534.6539      2743.8656      0             -3785.1669      0              0             -131.42089      104807.19      47.148045      47.148045      47.148045      0.80037299     967.90539      572.45041      2.4612482    
    155500   311000         410.87278     -70.055818      6388.6102      6496.9767      4407.8166      2089.16        1538.1352      1495.2669      2758.9922      0             -3703.2343      0              0             -129.86164      106065.61      47.335998      47.335998      47.335998      0.7908769     -477.11388      156.79715      110.14928    
    156000   312000         411.16348      640.99739      7331.9183      6346.1816      4410.9352      1935.2464      1444.8         1506.0565      2712.9941      0             -3728.6042      0              0             -130.62512      105445.67      47.243593      47.243593      47.243593      0.79552665     1087.4887      631.68656      203.81693    
    156500   313000         404.5339      -622.29446      5285.0523      6244.0882      4339.8135      1904.2747      1442.242       1454.1023      2701.594       0             -3693.6635      0              0             -130.34442      105672.76      47.277483      47.277483      47.277483      0.79381712    -1381.4998     -674.54582      189.16222    
    157000   314000         414.56099     -280.06983      6051.3056      6479.2965      4447.3835      2031.913       1538.7663      1525.1503      2733.3575      0             -3765.3611      0              0             -131.45079      104783.35      47.14447       47.14447       47.14447       0.80055507    -538.16466     -296.0484      -5.9964313    
    157500   315000         409.52148     -156.99699      6073.2412      6311.4484      4393.32        1918.1283      1467.6245      1501.8524      2757.4164      0             -3808.7649      0              0             -132.39384      104036.97      47.032265      47.032265      47.032265      0.80629841    -400.03058      234.19388     -305.15427    
    158000   316000         402.16143     -881.32733      4992.5126      6345.3635      4314.3619      2031.0016      1552.9378      1474.1662      2761.2982      0             -3757.4006      0              0             -130.86354      105253.57      47.214885      47.214885      47.214885      0.79697864    -1050.4588     -1046.1439     -547.37924    
    158500   317000         409.29434     -398.52974      5795.4956      6401.1629      4390.8833      2010.2797      1566.3581      1451.9477      2764.6488      0             -3772.6748      0              0             -132.17763      104207.15      47.057896      47.057896      47.057896      0.80498163     104.67792     -989.68542     -310.58171    
    159000   318000         406.95496     -29.948349      6236.4752      6281.5377      4365.7865      1915.7511      1446.7861      1472.0646      2817.2512      0             -3820.3508      0              0             -133.50238      103173.1       46.901726      46.901726      46.901726      0.81304959    -699.78998      570.58565      39.35928     
    159500   319000         404.00297     -57.559421      6197.3361      6284.6307      4334.1178      1950.5129      1525.8017      1461.4161      2733.4302      0             -3770.1352      0              0             -132.45254      103990.87      47.025317      47.025317      47.025317      0.80665587     214.51369      101.85106     -489.04301    
    160000   320000         399.87394     -855.66374      4903.587       6221.8526      4289.8218      1932.0308      1471.7883      1516.5303      2715.6877      0             -3771.9754      0              0             -130.38618      105638.91      47.272434      47.272434      47.272434      0.79407148    -214.70423     -1578.2109     -774.0761     
    160500   321000         406.58254      368.48845      6752.2911      6191.5703      4361.7912      1829.7791      1476.0082      1454.7375      2708.5382      0             -3809.5049      0              0             -132.01053      104339.06      47.077743      47.077743      47.077743      0.80396397     177.01929      964.01187     -35.565808    
    161000   322000         417.68382     -355.92645      5962.7191      6511.1217      4480.885       2030.2367      1498.2984      1536.9506      2745.1583      0             -3750.1706      0              0             -130.37433      105648.52      47.273867      47.273867      47.273867      0.79399926     279.83802     -995.59758     -352.01979    
    161500   323000         408.34821      557.98534      7183.6524      6329.2991      4380.7332      1948.5658      1502.5876      1476.7655      2729.4009      0             -3760.1882      0              0             -131.1948       104987.81      47.175113      47.175113      47.175113      0.79899607     816.41573      571.80633      285.73396    
    162000   324000         419.74216     -19.058775      6345.9165      6375.194       4502.9668      1872.2273      1443.0598      1497.2324      2664.6982      0             -3732.7632      0              0             -130.76521      105332.71      47.226717      47.226717      47.226717      0.79637981     13.052982     -228.31674      158.08743    
    162500   325000         418.76969      174.5912       6690.8902      6421.2896      4492.5342      1928.7554      1491.9709      1491.9502      2673.4974      0             -3728.663       0              0             -130.0867       105882.11      47.308683      47.308683      47.308683      0.79224756     236.6975      -237.87841      524.95452    
    163000   326000         405.09608      400.06984      6923.4011      6307.6208      4345.8445      1961.7763      1460.7787      1480.6781      2779.2249      0             -3758.9054      0              0             -130.50928      105539.27      47.257567      47.257567      47.257567      0.79482118     749.65702     -138.63737      589.18985    
    163500   327000         405.40445     -985.08996      4810.4386      6347.4921      4349.1527      1998.3393      1509.626       1470.8106      2708.948       0             -3691.0453      0              0             -128.74142      106988.52      47.472897      47.472897      47.472897      0.7840546     -827.63653     -1302.7947     -824.83867    
    164000   328000         413.83938      298.63337      6691.6258      6238.1123      4439.6421      1798.4702      1437.9331      1426.1584      2696.1261      0             -3761.7474      0              0             -132.27553      104130.03      47.046284      47.046284      47.046284      0.80557786     1119.0549     -321.54346      98.388712    
    164500   329000         403.76737      117.15425      6442.6109      6261.3796      4331.5902      1929.7894      1515.059       1410.4253      2733.6219      0             -3729.3168      0              0             -129.85422      106071.67      47.336899      47.336899      47.336899      0.79083175    -58.620917      729.99579     -319.91213    
    165000   330000         409.55454      787.37424      7569.5348      6360.5341      4393.6747      1966.8595      1515.9307      1495.9871      2700.9889      0             -3746.0472      0              0             -130.82358      105285.72      47.219692      47.219692      47.219692      0.79673527     456.02441      820.96911      1085.1292    
    165500   331000         407.87802      493.90703      7220.2865      6461.8833      4375.689       2086.1943      1527.0467      1477.5083      2821.7466      0             -3740.1073      0              0             -130.8207       105288.03      47.220039      47.220039      47.220039      0.79671774     841.06657      106.1972       534.45733    
    166000   332000         410.11698      352.22165      6961.014       6423.558       4399.7084      2023.8495      1523.0234      1460.2606      2775.4285      0             -3734.8629      0              0             -131.64504      104628.74      47.121271      47.121271      47.121271      0.80173808     103.81211     -50.654304      1003.5071    
    166500   333000         405.67998     -183.71712      6016.1852      6299.901       4352.1086      1947.7924      1513.7967      1408.5474      2756.968       0             -3731.5197      0              0             -130.07611      105890.73      47.309967      47.309967      47.309967      0.79218309    -59.392836      378.24189     -870.00041    
    167000   334000         408.8947      -241.00321      5843.0307      6209.5893      4386.5959      1822.9934      1449.7188      1414.0493      2746.0669      0             -3786.8416      0              0             -132.07201      104290.49      47.070437      47.070437      47.070437      0.80433841    -828.26672     -98.559345      203.81644    
    167500   335000         415.58081      217.34144      6749.7223      6413.6937      4458.324       1955.3696      1514.8603      1397.0233      2758.3789      0             -3714.893       0              0             -129.92647      106012.68      47.328123      47.328123      47.328123      0.79127176     428.02855      323.31688     -99.321116    
    168000   336000         408.77389     -75.214691      6368.5874      6482.9967      4385.2998      2097.6968      1556.3827      1569.3965      2776.3856      0             -3804.4679      0              0             -132.06045      104299.62      47.071811      47.071811      47.071811      0.804268       602.68649     -868.93333      40.602777    
    168500   337000         414.84342      8.0423532      6455.2003      6442.7983      4450.4135      1992.3849      1502.2884      1461.8543      2745.0792      0             -3716.8371      0              0             -130.26412      105737.9       47.287196      47.287196      47.287196      0.79332807    -145.97123      495.15806     -325.05977    
    169000   338000         415.85026      201.03938      6628.4469      6321.5548      4461.2147      1860.3401      1502.7764      1400.9325      2721.7301      0             -3765.099       0              0             -131.5912       104671.55      47.127697      47.127697      47.127697      0.80141018     412.8374      -88.144624      278.42538    
    169500   339000         422.14231      111.07674      6623.8489      6454.5472      4528.7154      1925.8318      1459.8087      1506.802       2713.9345      0             -3754.7135      0              0             -131.79322      104511.1       47.103604      47.103604      47.103604      0.80264055     266.26495     -15.29544       82.260703    
    170000   340000         411.4594       400.68931      6950.5194      6335.0991      4414.1099      1920.9893      1488.6081      1487.2565      2676.3023      0             -3731.1776      0              0             -130.78782      105314.5       47.223995      47.223995      47.223995      0.7965175     -367.57216      1195.5327      374.10738    
    170500   341000         409.93078      286.21368      6859.1433      6418.8522      4397.7109      2021.1414      1516.9011      1525.1543      2720.9329      0             -3741.8469      0              0             -130.58156      105480.85      47.248846      47.248846      47.248846      0.79526137     247.90132     -130.12445      740.86415    
    171000   342000         409.7735      -783.27949      5047.2858      6255.5869      4396.0236      1859.5633      1451.7631      1442.3219      2721.1413      0             -3755.6631      0              0             -130.21857      105774.88      47.292708      47.292708      47.292708      0.7930507     -416.20558     -841.36114     -1092.2717    
    171500   343000         412.24943      90.045331      6467.4799      6328.4731      4422.5852      1905.8879      1520.3668      1458.6889      2696.059       0             -3769.2268      0              0             -130.12375      105851.96      47.304193      47.304193      47.304193      0.79247322     12.689301     -470.14811      727.5948     
    172000   344000         398.79214      8.0246346      6314.0095      6301.4815      4278.2163      2023.2652      1575.7761      1467.5812      2702.5217      0             -3722.6137      0              0             -128.66878      107048.92      47.481828      47.481828      47.481828      0.78361224     171.64113     -377.36504      229.79782    
    172500   345000         417.04238      472.46036      7084.9527      6355.8194      4474.0037      1881.8157      1504.2176      1427.6849      2668.1276      0             -3718.2145      0              0             -130.16367      105819.5       47.299356      47.299356      47.299356      0.79271634     1064.7603     -405.63964      758.2604     
    173000   346000         408.76338     -169.32717      5982.0894      6244.4494      4385.1871      1859.2623      1486.7356      1427.299       2663.6066      0             -3718.3789      0              0             -129.64637      106241.72      47.362182      47.362182      47.362182      0.78956592    -571.43315      204.17461     -140.72298    
    173500   347000         414.31228      297.13673      6702.4705      6246.3459      4444.7154      1801.6305      1519.1385      1429.7337      2608.4663      0             -3755.7081      0              0             -130.85919      105257.06      47.215408      47.215408      47.215408      0.79695219     11.558626      1172.2275     -292.37599    
    174000   348000         413.66503      1030.6327      7994.5695      6407.5868      4437.7717      1969.8151      1520.1126      1537.4543      2675.4332      0             -3763.185       0              0             -130.45571      105582.6       47.264034      47.264034      47.264034      0.79449493     852.57858      1035.4781      1203.8415    
    174500   349000         412.58954      397.98053      6969.7365      6356.6794      4426.2339      1930.4455      1560.1258      1432.3867      2689.7659      0             -3751.8329      0              0             -130.40441      105624.14      47.270232      47.270232      47.270232      0.79418247     1025.0922      94.238694      74.610706    
    175000   350000         415.47428     -373.88841      5705.0284      6278.4641      4457.1812      1821.2829      1486.9812      1452.5416      2660.7206      0             -3778.9605      0              0             -130.97508      105163.93      47.201478      47.201478      47.201478      0.79765794    -206.93987      313.48923     -1228.2146    
    175500   351000         416.29067      107.47443      6488.9323      6325.0044      4465.9394      1859.065       1514.6341      1431.8082      2722.2702      0             -3809.6474      0              0             -131.69938      104585.57      47.114789      47.114789      47.114789      0.80206904     742.75754     -66.955401     -353.37885    
    176000   352000         403.00349     -301.21033      5673.5582      6132.9415      4323.3954      1809.5461      1501.8281      1424.6415      2678.6521      0             -3795.5755      0              0             -131.71222      104575.37      47.113258      47.113258      47.113258      0.80214723    -96.93086       268.16442     -1074.8645    
    176500   353000         413.53607      226.98114      6668.1508      6320.2231      4436.3883      1883.8348      1526.9935      1444.057       2671.6737      0             -3758.8894      0              0             -131.04851      105105         47.19266       47.19266       47.19266       0.79810517     42.655712     -307.2899       945.5776     
    177000   354000         402.37712     -334.73771      5617.0542      6131.4096      4316.6758      1814.7338      1477.6786      1480.4013      2661.6496      0             -3804.9957      0              0             -130.72922      105361.71      47.23105       47.23105       47.23105       0.79616061     336.72074     -970.86092     -370.07294    
    177500   355000         416.66388      349.90102      6882.9719      6349.9323      4469.9432      1879.9891      1520.0804      1500.649       2651.8537      0             -3792.594       0              0             -131.86123      104457.19      47.095504      47.095504      47.095504      0.80305474     199.23605      126.01216      724.45484    
    178000   356000         398.77504      309.60124      6692.5861      6221.168       4278.0329      1943.1351      1550.3744      1484.1956      2709.5376      0             -3800.9726      0              0             -131.92521      104406.53      47.087889      47.087889      47.087889      0.80344441     994.92926     -138.91475      72.789192    
    178500   357000         412.67673      617.79131      7283.4136      6332.5069      4427.1693      1905.3376      1492.9191      1492.4242      2637.4785      0             -3717.4842      0              0             -130.50744      105540.76      47.25779       47.25779       47.25779       0.79480993     745.03732      352.0111       756.32551    
    179000   358000         405.83501     -288.42891      5861.6442      6298.3977      4353.7717      1944.626       1566.9186      1480.9903      2700.7497      0             -3804.0326      0              0             -132.65808      103829.74      47.001017      47.001017      47.001017      0.8079077     -564.83137     -685.8009       385.34553    
    179500   359000         413.09635      384.74576      6872.2583      6285.8147      4431.6709      1854.1438      1477.9094      1479.1397      2658.1217      0             -3761.0269      0              0             -131.78893      104514.5       47.104115      47.104115      47.104115      0.80261439     380.63221      94.041508      679.56358    
    180000   360000         419.12738      227.74114      6732.3358      6387.4326      4496.3715      1891.0612      1524.3485      1539.8991      2650.4626      0             -3823.649       0              0             -132.64037      103843.6       47.003109      47.003109      47.003109      0.80779981    -409.66099      401.45761      691.4268     
    180500   361000         408.37314      184.37374      6463.4423      6183.9049      4381.0006      1802.9043      1495.5054      1432.8487      2709.1793      0             -3834.6291      0              0             -132.49226      103959.69      47.020617      47.020617      47.020617      0.80689778    -5.8631408      184.21115      374.77322    
    181000   362000         398.69782     -509.33056      5444.2134      6211.9867      4277.2045      1934.7822      1502.0502      1522.2986      2726.2588      0             -3815.8254      0              0             -133.25948      103361.16      46.930205      46.930205      46.930205      0.8115703     -598.55682     -424.08108     -505.35378    
    181500   363000         405.77983     -418.68777      5611.7798      6254.6552      4353.1798      1901.4755      1492.8912      1480.1795      2710.6613      0             -3782.2566      0              0             -130.82622      105283.59      47.219374      47.219374      47.219374      0.79675136    -259.96853     -851.43329     -144.66151    
    182000   364000         401.33239      629.78001      7051.4342      6092.8258      4305.468       1787.3578      1466.4128      1415.1926      2700.3468      0             -3794.5944      0              0             -131.97116      104370.18      47.082424      47.082424      47.082424      0.80372421     832.90607      680.44239      375.99158    
    182500   365000         415.40867     -402.03262      5663.4264      6276.5271      4456.4774      1820.0498      1489.5305      1462.6029      2658.3114      0             -3790.395       0              0             -131.72275      104567.01      47.112003      47.112003      47.112003      0.80221135     241.64813     -442.52324     -1005.2227    
    183000   366000         410.16886     -1011.0062      4664.2161      6197.296       4400.2651      1797.0309      1464.3188      1487.6945      2670.5731      0             -3825.5555      0              0             -132.47086      103976.48      47.023148      47.023148      47.023148      0.8067675     -883.97731     -1106.4154     -1042.6258    
    183500   367000         411.61605     -238.44942      5980.7741      6342.2636      4415.7904      1926.4733      1463.5833      1533.8239      2721.2316      0             -3792.1657      0              0             -132.50491      103949.76      47.019121      47.019121      47.019121      0.80697483    -825.57602      534.31497     -424.08721    
    184000   368000         397.63983      156.16511      6382.7741      6143.9271      4265.8543      1878.0727      1513.337       1485.7538      2653.9722      0             -3774.9904      0              0             -131.33955      104872.1       47.157776      47.157776      47.157776      0.79987763     1319.2833     -904.91479      54.126777    
    184500   369000         409.62456     -1000.7374      4798.3053      6325.7246      4394.4258      1931.2988      1533.8145      1468.3481      2724.8579      0             -3795.7216      0              0             -131.61131      104655.55      47.125296      47.125296      47.125296      0.80153267    -783.11739     -1044.7407     -1174.354     
    185000   370000         415.8074       247.63874      6753.3487      6375.3579      4460.7549      1914.603       1552.6746      1498.4534      2678.8384      0             -3815.3634      0              0             -131.60389      104661.45      47.126182      47.126182      47.126182      0.80148748    -73.374652      334.73434      481.55653    
    185500   371000         405.68878     -564.23536      5361.0599      6233.4629      4352.203       1881.2599      1498.4387      1469.0306      2693.2285      0             -3779.4379      0              0             -129.91955      106018.33      47.328963      47.328963      47.328963      0.79122963    -670.07947     -669.48088     -353.14574    
    186000   372000         408.30348      155.46032      6569.6822      6331.8529      4380.2534      1951.5995      1525.3926      1532.1195      2654.3982      0             -3760.3108      0              0             -131.30628      104898.67      47.161759      47.161759      47.161759      0.79967501    -757.51702      698.98961      524.90838    
    186500   373000         413.20535     -305.93427      5886.338       6361.0307      4432.8403      1928.1904      1450.3925      1456.2506      2730.1504      0             -3708.6031      0              0             -129.46339      106391.88      47.384485      47.384485      47.384485      0.78845152    -443.38177     -55.31475      -419.10628    
    187000   374000         410.38605     -610.18091      5440.7122      6378.2511      4402.595       1975.6561      1478.4029      1497.2729      2771.1092      0             -3771.129       0              0             -130.73766      105354.91      47.230034      47.230034      47.230034      0.79621203    -383.64947     -266.06128     -1180.832     
    187500   375000         424.95239     -63.795325      6322.8997      6420.2122      4558.8618      1861.3504      1440.0516      1483.4938      2721.0909      0             -3783.2859      0              0             -131.6896       104593.33      47.115955      47.115955      47.115955      0.8020095      469.03223     -330.72473     -329.69347    
    188000   376000         419.44031     -494.0731       5637.9072      6394.6472      4499.7285      1894.9187      1501.9496      1419.5401      2726.646       0             -3753.2171      0              0             -131.15229      105021.83      47.180209      47.180209      47.180209      0.79873721    -237.26826     -245.88971     -999.06132    
    188500   377000         410.03217     -88.595505      6182.2398      6319.5933      4398.7986      1920.7947      1524.1719      1466.1338      2658.3342      0             -3727.8452      0              0             -129.56967      106304.62      47.371526      47.371526      47.371526      0.78909876     226.20489      484.57444     -976.56584    
    189000   378000         412.83237     -182.52232      6056.892       6334.5035      4428.839       1905.6645      1559.4041      1496.2665      2678.2453      0             -3828.2514      0              0             -132.07176      104290.68      47.070467      47.070467      47.070467      0.80433689    -426.75089     -66.377876     -54.438205    
    189500   379000         420.67585      123.5755       6598.9698      6409.4068      4512.9833      1896.4235      1490.9362      1482.0772      2671.2269      0             -3747.8168      0              0             -130.95143      105182.92      47.20432       47.20432       47.20432       0.79751389     342.70718     -11.705913      39.72522     
    190000   380000         411.7108      -26.331268      6137.1964      6177.621       4416.8069      1760.8141      1461.3918      1481.8954      2587.6936      0             -3770.1667      0              0             -130.84499      105268.49      47.217117      47.217117      47.217117      0.79686566    -328.63015      342.20098     -92.564633    
    190500   381000         415.72354     -82.370239      6175.0884      6300.4739      4459.8553      1840.6186      1504.5638      1479.736       2652.7628      0             -3796.444       0              0             -131.96365      104376.12      47.083317      47.083317      47.083317      0.80367849    -147.36761     -456.56364      356.82053    
    191000   382000         403.52155      133.7554       6366.1574      6160.1334      4328.9532      1831.1802      1439.6512      1444.8133      2675.1733      0             -3728.4576      0              0             -130.41422      105616.2       47.269047      47.269047      47.269047      0.79424221    -71.231098      335.10839      137.38891    
    191500   383000         413.61118     -44.036386      6309.5001      6376.8734      4437.194       1939.6793      1515.6961      1493.7943      2709.622       0             -3779.433       0              0             -131.29721      104905.92      47.162845      47.162845      47.162845      0.79961977     442.7249      -1008.7631      433.929      
    192000   384000         414.15255      311.72217      6854.8353      6372.399       4443.0018      1929.3972      1503.5211      1454.3019      2671.6037      0             -3700.0295      0              0             -129.79532      106119.8       47.344058      47.344058      47.344058      0.79047305     0.45367407     492.76601      441.94683    
    192500   385000         411.81701      347.52838      6946.0472      6409.6657      4417.9463      1991.7195      1561.7589      1404.5184      2755.9201      0             -3730.4779      0              0             -130.15112      105829.7       47.300877      47.300877      47.300877      0.79263989     172.78717      733.75051      136.04747    
    193000   386000         405.72763     -111.31267      6075.1822      6245.9819      4352.6198      1893.3622      1504.31        1456.8304      2674.0834      0             -3741.8617      0              0             -130.9148       105212.35      47.208721      47.208721      47.208721      0.79729086    -479.69715      199.42394     -53.664793    
    193500   387000         411.65824     -273.16366      5911.6539      6331.2984      4416.243       1915.0554      1482.6122      1460.0452      2724.3918      0             -3751.9937      0              0             -130.75933      105337.45      47.227425      47.227425      47.227425      0.79634398     312.93774     -1263.4234      130.99474    
    194000   388000         415.71116     -837.06249      5114.7024      6402.2586      4459.7225      1942.5361      1494.5391      1492.7727      2705.3437      0             -3750.1194      0              0             -130.59395      105470.84      47.247351      47.247351      47.247351      0.79533683    -621.50185     -1235.0427     -654.64291    
    194500   389000         409.21277      757.3383       7442.5196      6268.8906      4390.0082      1878.8824      1437.1045      1485.2802      2667.0597      0             -3710.5619      0              0             -129.6255       106258.83      47.364724      47.364724      47.364724      0.78943881     765.06017      325.87702      1181.0777    
    195000   390000         409.19424     -445.64422      5543.6342      6233.3103      4389.8094      1843.5009      1472.1942      1423.0943      2673.0852      0             -3724.8729      0              0             -129.79993      106116.03      47.343497      47.343497      47.343497      0.79050113    -957.8301      -556.31147      177.2089     
    195500   391000         402.67046      241.60901      6647.2136      6275.7382      4319.8227      1955.9155      1502.3805      1488.7623      2709.7774      0             -3745.0046      0              0             -130.65152      105424.37      47.240412      47.240412      47.240412      0.7956874     -172.00197      337.07509      559.75392    
    196000   392000         398.71034     -401.08794      5511.1181      6131.7801      4277.3388      1854.4414      1458.6654      1450.3497      2659.9929      0             -3714.5667      0              0             -129.81228      106105.94      47.341996      47.341996      47.341996      0.79057635    -32.250799     -695.2669      -475.74611    
    196500   393000         412.92346     -55.653046      6336.7914      6423.1328      4429.8162      1993.3166      1458.9915      1502.5204      2732.2983      0             -3700.4936      0              0             -129.47953      106378.62      47.382516      47.382516      47.382516      0.78854982     574.22377     -223.50732     -517.67558    
    197000   394000         409.17994     -161.6223       6016.4769      6265.3907      4389.656       1875.7347      1487.2408      1470.0261      2650.6641      0             -3732.1962      0              0             -130.43185      105601.92      47.266916      47.266916      47.266916      0.79434962    -73.509955     -83.263198     -328.09374    
    197500   395000         413.63265      525.36634      7185.0729      6370.4807      4437.4243      1933.0564      1525.6295      1421.7648      2702.6191      0             -3716.9571      0              0             -129.55476      106316.85      47.373344      47.373344      47.373344      0.78900795     430.17616     -35.159374      1181.0822    
    198000   396000         416.37628      355.39908      6892.5095      6342.4442      4466.8578      1875.5864      1451.4157      1458.2417      2684.3973      0             -3718.4684      0              0             -129.78767      106126.06      47.344988      47.344988      47.344988      0.79042643     346.25298      662.15767      57.786583    
    198500   397000         408.88055      267.72934      6826.9271      6408.4962      4386.4441      2022.0521      1502.9668      1515.0096      2709.4587      0             -3705.3831      0              0             -128.52973      107164.73      47.498944      47.498944      47.498944      0.78276541    -52.153144      350.97887      504.36229    
    199000   398000         413.17211      153.84481      6584.7974      6346.0552      4432.4837      1913.5715      1507.1549      1466.178       2670.4293      0             -3730.1908      0              0             -129.44491      106407.07      47.38674       47.38674       47.38674       0.788339       214.03799     -154.19773      401.69418    
    199500   399000         407.0956       629.62274      7379.6329      6407.9896      4367.2953      2040.6943      1519.8277      1466.9683      2775.1492      0             -3721.2509      0              0             -130.1682       105815.81      47.298808      47.298808      47.298808      0.79274392    -22.017359      956.12618      954.75941    
    200000   400000         403.88144      336.01292      6750.7488      6237.0078      4332.814       1904.1939      1485.7059      1442.9976      2697.9748      0             -3722.4845      0              0             -131.3842       104836.46      47.152433      47.152433      47.152433      0.80014956     169.23739      292.65171      546.14966    
    200500   401000         406.93093      537.90869      7226.4447      6393.682       4365.5287      2028.1532      1493.2162      1524.6626      2718.7039      0             -3708.4295      0              0             -129.75337      106154.12      47.34916       47.34916       47.34916       0.79021753     922.34967      1146.0742     -454.69777    
    201000   402000         412.25882      456.8394       7000.4293      6293.3963      4422.686       1870.7103      1436.7599      1487.527       2636.1759      0             -3689.7525      0              0             -129.79419      106120.73      47.344196      47.344196      47.344196      0.79046613     315.50604      557.66004      497.35211    
    201500   403000         407.80838      364.95183      7007.4783      6443.5238      4374.942       2068.5818      1535.956       1554.2503      2723.5938      0             -3745.2183      0              0             -129.99388      105957.71      47.319941      47.319941      47.319941      0.79168227     487.48134      216.97435      390.3998     
    202000   404000         395.11484      54.924203      6314.6019      6229.3724      4238.7664      1990.6059      1488.9717      1461.1874      2748.385       0             -3707.9382      0              0             -129.45092      106402.13      47.386006      47.386006      47.386006      0.78837561     275.60348     -457.01525      346.18439    
    202500   405000         402.36722      211.04416      6649.2909      6323.3788      4316.5695      2006.8093      1545.5296      1513.5166      2718.1969      0             -3770.4338      0              0             -130.0781       105889.11      47.309726      47.309726      47.309726      0.79219521     350.75408     -60.694043      343.07246    
    203000   406000         409.14006      150.29236      6585.351       6354.1721      4389.2281      1964.944       1514.2286      1480.2901      2672.7006      0             -3702.2752      0              0             -130.59306      105471.56      47.247459      47.247459      47.247459      0.79533141    -535.74128      487.70232      498.91605    
    203500   407000         404.39089     -570.74438      5487.2427      6364.9326      4338.2793      2026.6533      1520.3471      1506.0119      2698.3488      0             -3698.0545      0              0             -130.62669      105444.41      47.243405      47.243405      47.243405      0.79553618    -744.41602     -1144.749       176.93186    
    204000   408000         403.6165      -302.4723       5753.4069      6217.2504      4329.9717      1887.2787      1470.8794      1486.5602      2684.153       0             -3754.314       0              0             -130.9922       105150.18      47.199421      47.199421      47.199421      0.79776224    -84.191463     -453.09718     -370.12826    
    204500   409000         411.28592      336.20426      6905.3042      6388.3213      4412.2487      1976.0725      1547.7844      1460.6268      2693.7521      0             -3726.0907      0              0             -130.63464      105437.99      47.242446      47.242446      47.242446      0.79558459     898.36224      207.26569     -97.01514     
    205000   410000         408.09174     -287.8939       5860.6053      6306.3721      4377.9818      1928.3903      1469.4615      1479.4699      2675.4255      0             -3695.9665      0              0             -129.73468      106169.41      47.351433      47.351433      47.351433      0.79010372    -625.03535     -388.78008      150.13373    
    205500   411000         406.46451      455.38045      7026.3336      6332.4479      4360.525       1971.9229      1509.4381      1484.707       2743.2255      0             -3765.4477      0              0             -131.83108      104481.08      47.099094      47.099094      47.099094      0.80287112     40.124338      583.49897      742.51803    
    206000   412000         403.61552      68.940897      6266.8872      6161.9455      4329.9612      1831.9843      1432.6215      1426.4226      2741.0581      0             -3768.118       0              0             -131.96536      104374.77      47.083114      47.083114      47.083114      0.80368888     833.71059     -513.48799     -113.39992    
    206500   413000         416.33649      57.417656      6367.0484      6279.67        4466.431       1813.2391      1453.0909      1433.0403      2711.2526      0             -3784.1447      0              0             -131.99969      104347.63      47.079032      47.079032      47.079032      0.80389795     402.85697     -117.22707     -113.37693    
    207000   414000         403.38156      552.21903      6998.1724      6154.454       4327.4513      1827.0027      1498.2538      1469.1745      2647.9259      0             -3788.3515      0              0             -131.47561      104763.57      47.141503      47.141503      47.141503      0.80070624     611.73307      876.13853      168.78549    
    207500   415000         413.33885      199.34628      6514.1898      6209.3539      4434.2725      1775.0814      1457.9245      1465.7411      2665.8079      0             -3814.3921      0              0             -131.36309      104853.3       47.154959      47.154959      47.154959      0.80002098     362.90711      563.5583      -328.42657    
    208000   416000         406.85904      141.73712      6499.3196      6281.9194      4364.7574      1917.162       1499.2         1491.4381      2687.3242      0             -3760.8003      0              0             -130.96497      105172.05      47.202693      47.202693      47.202693      0.79759635     170.507        126.46282      128.24153    
    208500   417000         412.63823     -442.37897      5718.4203      6399.3753      4426.7563      1972.619       1512.7407      1522.8206      2701.0168      0             -3763.9591      0              0             -130.49908      105547.52      47.258799      47.258799      47.258799      0.79475901    -688.97031     -25.546441     -612.62015    
    209000   418000         402.1776      -185.73792      5960.9288      6247.6598      4314.5354      1933.1245      1497.9704      1477.3365      2705.6222      0             -3747.8047      0              0             -130.12394      105851.8       47.304169      47.304169      47.304169      0.79247439     38.71245      -145.94092     -449.98529    
    209500   419000         410.54811     -207.84562      6046.9306      6365.3654      4404.3336      1961.0318      1476.2041      1490.8885      2739.5678      0             -3745.6286      0              0             -131.11477      105051.89      47.18471       47.18471       47.18471       0.79850867     510.93105     -356.98942     -777.47848    
    210000   420000         415.96911     -336.84254      5788.915       6305.7555      4462.4898      1843.2657      1446.352       1415.4047      2749.2934      0             -3767.7844      0              0             -130.91872      105209.2       47.20825       47.20825       47.20825       0.79731472    -478.52145     -424.45981     -107.54637    
    210500   421000         420.00478      36.800364      6488.9214      6432.8248      4505.7841      1927.0407      1501.8649      1493.6641      2677.979       0             -3746.4674      0              0             -131.77923      104522.2       47.105271      47.105271      47.105271      0.80255531     397.75779     -667.19227      379.83557    
    211000   422000         418.00711      558.8968       7206.6514      6353.1192      4484.3533      1868.7659      1491.5927      1446.8821      2732.152       0             -3801.8609      0              0             -131.53552      104715.85      47.134345      47.134345      47.134345      0.80107113    -20.365093      1015.6623      681.39324    
    211500   423000         409.62252     -499.72527      5540.9589      6299.8605      4394.4039      1905.4566      1526.3249      1408.9334      2771.7089      0             -3801.5106      0              0             -132.27484      104130.57      47.046365      47.046365      47.046365      0.80557369    -124.28893     -609.12524     -765.76165    
    212000   424000         406.33692      77.743665      6349.774       6230.6746      4359.1562      1871.5185      1483.4419      1463.8001      2665.2129      0             -3740.9365      0              0             -131.12544      105043.34      47.18343       47.18343       47.18343       0.79857364     452.65768      151.52392     -370.9506     
    212500   425000         414.00906     -403.994        5736.6171      6356.1056      4441.4624      1914.6432      1495.4444      1468.753       2729.9517      0             -3779.5059      0              0             -131.00053      105143.5       47.198422      47.198422      47.198422      0.79781292     29.940593     -217.98664     -1023.936     
    213000   426000         414.35628      1053.7892      7885.5333      6289.749       4445.1874      1844.5616      1443.555       1456.5119      2730.303       0             -3785.8083      0              0             -132.65112      103835.19      47.001839      47.001839      47.001839      0.80786526     1190.0325      713.63402      1257.7011    
    213500   427000         407.01641     -983.42721      4811.2946      6323.4107      4366.4457      1956.965       1481.0657      1483.8979      2749.2436      0             -3757.2423      0              0             -130.64369      105430.68      47.241355      47.241355      47.241355      0.79563975    -699.65608     -1280.0131     -970.61242    
    214000   428000         409.68601     -751.93367      5122.6241      6282.6632      4395.085       1887.5782      1473.9392      1422.8419      2733.0156      0             -3742.2186      0              0             -130.20818      105783.33      47.293966      47.293966      47.293966      0.79298739    -457.19        -1658.911      -139.70002    
    214500   429000         411.09599      460.0115       7064.3914      6359.2812      4410.2112      1949.07        1497.1102      1447.5092      2741.8959      0             -3737.4452      0              0             -131.05182      105102.35      47.192263      47.192263      47.192263      0.7981253      563.65422      631.17868      185.20159    
    215000   430000         420.09659      50.636563      6597.3236      6519.7579      4506.7691      2012.9888      1524.7057      1521.6477      2721.4675      0             -3754.8321      0              0             -131.13716      105033.95      47.182024      47.182024      47.182024      0.79864505     81.007374      226.93524     -156.03292    
    215500   431000         401.51404      752.87726      7280.3652      6116.6152      4307.4167      1809.1985      1450.4218      1452.032       2650.3259      0             -3743.5812      0              0             -129.95585      105988.72      47.324555      47.324555      47.324555      0.79145071     742.32623      176.07297      1340.2326    
    216000   432000         419.87287     -17.532871      6381.5857      6408.7691      4504.369       1904.4001      1433.177       1439.3601      2723.801       0             -3691.9379      0              0             -129.56268      106310.35      47.372377      47.372377      47.372377      0.78905625     291.21523      296.71382     -640.52766    
    216500   433000         418.14573      337.32175      6918.1311      6396.4207      4485.8403      1910.5804      1468.2831      1540.6197      2645.6375      0             -3743.9599      0              0             -129.88118      106049.65      47.333623      47.333623      47.333623      0.79099594     497.94155      274.49423      239.52947    
    217000   434000         413.69254     -338.5957       5777.9679      6296.9947      4438.0669      1858.9279      1491.5058      1459.9924      2702.3307      0             -3794.901       0              0             -131.04578      105107.19      47.192989      47.192989      47.192989      0.79808851     199.84564     -200.8581      -1014.7746    
    217500   435000         409.29521      16.408789      6379.5422      6354.2845      4390.8925      1963.392       1498.8301      1496.1195      2722.8595      0             -3754.4172      0              0             -130.50106      105545.92      47.25856       47.25856       47.25856       0.79477108    -559.80661      151.22116      457.81182    
    218000   436000         413.04285      769.83497      7530.3292      6350.9512      4431.097       1919.8542      1462.0887      1446.7287      2727.4199      0             -3716.3831      0              0             -131.12213      105045.99      47.183827      47.183827      47.183827      0.79855349     825.80062      649.91794      833.78634    
    218500   437000         398.22479     -457.47486      5410.1341      6114.4522      4272.1298      1842.3224      1449.219       1460.5287      2682.9669      0             -3750.3922      0              0             -130.47575      105566.39      47.261615      47.261615      47.261615      0.79461693     377.91155     -717.69575     -1032.6404    
    219000   438000         414.14806     -340.78379      5777.9622      6308.0671      4442.9536      1865.1135      1470.4564      1432.9486      2692.9573      0             -3731.2488      0              0             -129.13635      106661.32      47.424452      47.424452      47.424452      0.78645982    -554.92385     -159.47769     -307.94983    
    219500   439000         410.6104      -78.7028        6270.4144      6392.5785      4405.0018      1987.5766      1483.1229      1497.5454      2718.9665      0             -3712.0581      0              0             -129.41303      106433.29      47.390631      47.390631      47.390631      0.7881448     -592.10903     -166.04518      522.04581    
    220000   440000         411.09284     -5.936367       6370.7754      6379.8768      4410.1774      1969.6994      1509.6853      1513.8947      2675.3361      0             -3729.2166      0              0             -131.02251      105125.86      47.195782      47.195782      47.195782      0.79794679    -412.59793     -330.53595      725.32477    
    220500   441000         420.78048     -640.76382      5404.8451      6389.3419      4514.1058      1875.2362      1485.6429      1470.8493      2710.8663      0             -3792.1223      0              0             -130.74196      105351.44      47.229516      47.229516      47.229516      0.79623823    -151.25171     -1687.5885     -83.451293    
    221000   442000         419.80662      787.92327      7465.6513      6263.3685      4503.6583      1759.7103      1446.2796      1395.4162      2691.5412      0             -3773.5267      0              0             -131.6463       104627.73      47.12112       47.12112       47.12112       0.80174577     496.71196      1225.268       641.78979    
    221500   443000         408.53845     -106.08645      6218.2844      6382.301       4382.7741      1999.5269      1507.3629      1537.6909      2689.3308      0             -3734.8577      0              0             -129.92818      106011.29      47.327916      47.327916      47.327916      0.79128214     169.71065     -474.36754     -13.602464    
    222000   444000         411.45392      729.34986      7244.7179      6134.2484      4414.0511      1720.1973      1498.294       1395.455       2649.5438      0             -3823.0954      0              0             -131.93519      104398.63      47.086702      47.086702      47.086702      0.80350519     871.74726      1147.1189      169.18345    
    222500   445000         405.70546      314.02233      6814.6631      6337.8785      4352.382       1985.4965      1490.1614      1502.5298      2778.4899      0             -3785.6846      0              0             -132.30299      104108.41      47.043028      47.043028      47.043028      0.80574513     100.43287     -95.110455      936.74458    
    223000   446000         416.33402      143.01905      6577.2769      6359.6038      4466.4044      1893.1993      1532.8324      1494.8122      2655.2252      0             -3789.6705      0              0             -131.98375      104360.23      47.080927      47.080927      47.080927      0.80380088    -523.38949      857.59611      94.850537    
    223500   447000         404.66608     -315.30468      5788.1724      6269.6538      4341.2315      1928.4223      1493.6931      1482.8143      2735.8703      0             -3783.9554      0              0             -131.54741      104706.38      47.132924      47.132924      47.132924      0.80114355     340.8085      -315.2905      -971.43203    
    224000   448000         421.49389     -412.6342       5819.7807      6447.5201      4521.7593      1925.7609      1479.2642      1508.9062      2722.4687      0             -3784.8782      0              0             -132.04353      104312.98      47.07382       47.07382       47.07382       0.804165       58.437529     -1163.0477     -133.29247    
    224500   449000         405.70759     -905.74753      4815.7194      6216.4426      4352.4049      1864.0378      1513.7558      1477.8205      2626.2433      0             -3753.7819      0              0             -129.89314      106039.89      47.332171      47.332171      47.332171      0.79106875    -1699.1412     -1029.3055      11.204135    
    225000   450000         415.6445      -162.21492      6160.0746      6411.2443      4459.0074      1952.2369      1502.8595      1469.1038      2711.1964      0             -3730.9228      0              0             -129.73435      106169.68      47.351474      47.351474      47.351474      0.7901017     -707.17764      297.6121      -77.079221    
    225500   451000         415.30704      200.77901      6632.9753      6324.435       4455.3871      1869.048       1475.7954      1461.5235      2674.2087      0             -3742.4796      0              0             -130.71873      105370.17      47.232314      47.232314      47.232314      0.79609672    -98.826906      647.97343      53.190521    
    226000   452000         412.69007      144.15254      6527.6969      6305.5488      4427.3124      1878.2364      1491.5258      1459.437       2676.9371      0             -3749.6634      0              0             -130.35         105668.23      47.276808      47.276808      47.276808      0.79385109     378.16419     -240.03695      294.33036    
    226500   453000         412.083       -8.7773792      6292.0357      6305.4826      4420.7997      1884.6828      1499.2407      1478.3499      2664.121       0             -3757.0289      0              0             -131.12163      105046.39      47.183886      47.183886      47.183886      0.79855047    -0.51435034     275.72175     -301.53954    
    227000   454000         407.00667      232.90051      6539.1597      6182.5154      4366.3413      1816.1741      1503.8634      1438.4147      2672.1827      0             -3798.2867      0              0             -131.17967      104999.92      47.176927      47.176927      47.176927      0.7989039      395.73734     -64.41744       367.38163    
    227500   455000         413.02247     -370.32082      5786.0135      6358.3852      4430.8784      1927.5068      1575.8795      1437.8403      2671.4166      0             -3757.6295      0              0             -129.96648      105980.05      47.323266      47.323266      47.323266      0.79151541     16.16833      -329.73113     -797.39965    
    228000   456000         410.84318     -1002.4808      4818.0836      6363.6219      4407.499       1956.1228      1530.3663      1470.7788      2671.7324      0             -3716.7547      0              0             -130.29497      105712.86      47.283463      47.283463      47.283463      0.79351599    -522.56134     -2218.3056     -266.57543    
    228500   457000         401.70867     -180.9729       5801.8961      6077.0669      4309.5047      1767.5622      1470.1451      1445.9645      2674.8418      0             -3823.3891      0              0             -132.11208      104258.85      47.065677      47.065677      47.065677      0.80458247    -391.87755     -212.2762       61.235062    
    229000   458000         405.23883      183.31432      6524.4999      6243.1645      4347.376       1895.7885      1491.1644      1480.1978      2678.157       0             -3753.7306      0              0             -130.88907      105233.04      47.211815      47.211815      47.211815      0.79713412    -535.80286      516.96444      568.78139    
    229500   459000         418.5663      -201.19564      6061.9382      6369.5576      4490.3522      1879.2054      1480.992       1528.6393      2656.1367      0             -3786.5626      0              0             -131.38214      104838.1       47.15268       47.15268       47.15268       0.800137       286.29531     -554.03287     -335.84936    
    230000   460000         405.24008      106.27338      6343.5871      6180.6095      4347.3894      1833.2202      1483.6875      1495.1417      2630.0804      0             -3775.6893      0              0             -130.98695      105154.4       47.200052      47.200052      47.200052      0.79773024    -730.30249      499.30571      549.81693    
    230500   461000         412.78982      218.47267      6484.855       6154.9498      4428.3825      1726.5673      1481.2487      1429.3372      2663.7501      0             -3847.7687      0              0             -133.02687      103541.89      46.957543      46.957543      46.957543      0.81015366     53.569415      875.98585     -274.13727    
    231000   462000         410.95469      591.57561      7238.4583      6336.3175      4408.6953      1927.6222      1493.6         1539.9325      2682.4864      0             -3788.3968      0              0             -131.72472      104565.44      47.111767      47.111767      47.111767      0.80222339     969.79206      1288.5083     -483.57353    
    231500   463000         417.24387      364.61584      6732.0682      6175.5989      4476.1653      1699.4336      1464.5596      1411.9326      2633.0581      0             -3810.1167      0              0             -131.62116      104647.72      47.12412       47.12412       47.12412       0.80159266     851.44794      325.49719     -83.097597    
    232000   464000         408.48242      638.81145      7210.5116      6224.9335      4382.173       1842.7604      1458.3162      1445.5274      2699.0305      0             -3760.1137      0              0             -130.2006       105789.49      47.294884      47.294884      47.294884      0.79294122    -9.1625581      877.24906      1048.3478    
    232500   465000         408.8876       127.71489      6535.8389      6339.3974      4386.5198      1952.8776      1479.1269      1501.2822      2702.7566      0             -3730.2881      0              0             -130.59893      105466.83      47.246752      47.246752      47.246752      0.79536711     318.99167      492.64271     -428.48972    
    233000   466000         409.54059      821.97725      7405.3314      6148.5269      4393.525       1755.0019      1434.5215      1430.5322      2671.0997      0             -3781.1514      0              0             -131.37823      104841.22      47.153147      47.153147      47.153147      0.80011321     1748.5045      699.58315      17.844099    
    233500   467000         413.774        244.82919      6672.1272      6295.319       4438.9408      1856.3782      1482.1255      1430.9799      2701.6297      0             -3758.357       0              0             -130.51912      105531.31      47.256379      47.256379      47.256379      0.79488111     373.96121     -302.09297      662.61934    
    234000   468000         407.0535      -95.902231      6181.1821      6327.7481      4366.8437      1960.9044      1514.9865      1513.9383      2713.1046      0             -3781.1249      0              0             -131.43971      104792.18      47.145794      47.145794      47.145794      0.80048764     521.95542     -823.57044      13.908329    
    234500   469000         402.83198     -573.49452      5263.0128      6136.3223      4321.5554      1814.7669      1452.3641      1419.4279      2717.0719      0             -3774.097       0              0             -131.91447      104415.04      47.089168      47.089168      47.089168      0.80337895    -1164.4577     -301.663       -254.3629     
    235000   470000         413.82153      320.93751      6807.6318      6322.4526      4439.4506      1883.002       1500.5022      1494.5138      2700.7907      0             -3812.8047      0              0             -132.87698      103658.69      46.975193      46.975193      46.975193      0.8092408      652.00381      420.68094     -109.87223    
    235500   471000         405.98385     -587.16234      5408.26        6307.1247      4355.3686      1951.7562      1567.2696      1455.9197      2710.4779      0             -3781.9111      0              0             -131.21855      104968.8       47.172267      47.172267      47.172267      0.79914072    -946.85592     -748.0055      -66.625604    
    236000   472000         413.93744      456.39158      7071.2666      6371.9905      4440.6942      1931.2963      1521.7388      1502.0131      2684.0775      0             -3776.5331      0              0             -131.1053       105059.47      47.185845      47.185845      47.185845      0.79845103    -119.78997      941.65948      547.30523    
    236500   473000         405.49839     -60.124262      6020.7139      6112.71        4350.1605      1762.5495      1461.5263      1440.0708      2674.2273      0             -3813.2749      0              0             -131.28397      104916.5       47.16443       47.16443       47.16443       0.79953912    -386.6552       407.24122     -200.95881    
    237000   474000         414.35586      339.41653      6788.6368      6275.2225      4445.1829      1830.0396      1481.3826      1455.0371      2719.7546      0             -3826.1346      0              0             -132.79949      103719.18      46.984328      46.984328      46.984328      0.80876887     725.37018      300.46887     -7.5894699    
    237500   475000         404.76582      560.184        7041.6783      6176.7258      4342.3016      1834.4242      1456.0209      1455.9771      2682.4692      0             -3760.0429      0              0             -130.09776      105873.11      47.307342      47.307342      47.307342      0.79231494     1374.1285      292.95369      13.469847    
    238000   476000         408.36833     -386.80564      5727.0732      6320.2429      4380.9491      1939.2938      1534.9723      1490.1163      2676.1964      0             -3761.9912      0              0             -130.99213      105150.24      47.19943       47.19943       47.19943       0.79776178    -337.15135     -382.59622     -440.66936    
    238500   477000         410.18746      108.21256      6497.3272      6332.6527      4400.4646      1932.1881      1503.4089      1467.7227      2749.5558      0             -3788.4993      0              0             -132.00262      104345.3       47.078683      47.078683      47.078683      0.80391584    -132.856       -128.44624      585.93992    
    239000   478000         412.05001      774.6762       7419.2544      6238.9126      4420.4458      1818.4668      1480.4522      1435.4533      2685.1508      0             -3782.5896      0              0             -131.83897      104474.83      47.098155      47.098155      47.098155      0.80291914     976.60093      840.63395      506.79371    
    239500   479000         416.12164     -564.77498      5596.3036      6445.8114      4464.1261      1981.6853      1558.3645      1519.7949      2723.6837      0             -3820.1577      0              0             -133.54863      103137.37      46.896311      46.896311      46.896311      0.81333126    -1058.1838     -112.37628     -523.76483    
    240000   480000         411.88888     -204.07846      6069.0691      6380.6791      4418.7173      1961.9618      1536.6541      1496.3664      2720.4442      0             -3791.5028      0              0             -131.55794      104698         47.131667      47.131667      47.131667      0.80120768    -280.19185     -346.76138      14.717846    
    240500   481000         398.40488     -603.83588      5247.8977      6176.4902      4274.0618      1902.4285      1479.9012      1464.3752      2698.8273      0             -3740.6752      0              0             -130.62463      105446.07      47.243653      47.243653      47.243653      0.79552365    -439.15145     -347.58376     -1024.7724    
    241000   482000         407.90686     -125.54617      6059.0075      6250.3257      4375.9984      1874.3273      1470.3427      1425.053       2731.7114      0             -3752.7798      0              0             -131.81917      104490.52      47.100513      47.100513      47.100513      0.80279857    -281.41944      165.62444     -260.84351    
    241500   483000         422.49228      262.67862      6838.7955      6434.7373      4532.4699      1902.2675      1482.3959      1476.455       2684.926       0             -3741.5094      0              0             -130.59067      105473.49      47.247748      47.247748      47.247748      0.79531683     68.72606       389.62801      329.68179    
    242000   484000         403.71663     -70.066757      6184.6953      6292.0434      4331.0459      1960.9976      1468.2691      1491.0913      2753.0175      0             -3751.3803      0              0             -131.11391      105052.58      47.184813      47.184813      47.184813      0.79850345    -461.88403      80.777788      170.90597    
    242500   485000         406.04967     -471.51482      5557.884       6288.208       4356.0746      1932.1334      1479.1203      1455.5447      2721.0179      0             -3723.5495      0              0             -129.69138      106204.85      47.356702      47.356702      47.356702      0.78984005    -592.16497     -438.10696     -384.27253    
    243000   486000         406.49019     -198.21895      6065.1349      6369.8887      4360.8005      2009.0882      1594.4838      1401.6008      2736.2914      0             -3723.2877      0              0             -130.65538      105421.25      47.239945      47.239945      47.239945      0.79571095    -272.62861     -215.66516     -106.36309    
    243500   487000         409.95595      395.93965      7002.6809      6391.4723      4397.981       1993.4913      1483.7775      1423.1562      2781.2456      0             -3694.688       0              0             -130.12804      105848.47      47.303673      47.303673      47.303673      0.79249934     1253.022       426.03654     -491.2396     
    244000   488000         420.43727      28.796677      6479.1617      6434.896       4510.4239      1924.4721      1485.702       1477.8739      2674.4089      0             -3713.5127      0              0             -130.67918      105402.05      47.237078      47.237078      47.237078      0.79585587    -153.1648      -22.480969      262.0358     
    244500   489000         415.8869      -2.2678956      6424.6157      6428.1233      4461.6078      1966.5155      1512.4107      1479.3341      2706.0724      0             -3731.3016      0              0             -129.88109      106049.73      47.333634      47.333634      47.333634      0.79099537    -392.81099     -783.23591      1169.2432    
    245000   490000         409.28188      154.90976      6668.2342      6431.2859      4390.7496      2040.5363      1523.7338      1539.9055      2729.5193      0             -3752.6222      0              0             -131.32778      104881.5       47.159185      47.159185      47.159185      0.79980593     277.1018       121.81702      65.810452    
    245500   491000         410.98781     -176.55679      6091.1394      6362.3889      4409.0506      1953.3382      1557.6463      1474.8529      2687.4538      0             -3766.6148      0              0             -130.75158      105343.69      47.228358      47.228358      47.228358      0.79629679    -27.60417      -31.668055     -470.39815    
    246000   492000         410.61806      661.51079      7195.6062      6185.257       4405.084       1780.173       1464.384       1453.9083      2631.9081      0             -3770.0274      0              0             -131.5215       104727.01      47.136019      47.136019      47.136019      0.80098575     834.0642       550.73099      599.73719    
    246500   493000         414.40255      563.9961       7340.7243      6471.7167      4445.6838      2026.0329      1532.4343      1526.2169      2719.6545      0             -3752.2728      0              0             -130.37186      105650.52      47.274166      47.274166      47.274166      0.79398423     126.19675      178.61406      1387.1775    
    247000   494000         409.86746     -414.52935      5588.684       6222.6897      4397.0316      1825.6581      1482.9603      1456.8134      2646.3291      0             -3760.4447      0              0             -131.33892      104872.6       47.157851      47.157851      47.157851      0.7998738     -338.87171     -635.59028     -269.12605    
    247500   495000         409.97865     -252.59992      5856.7566      6245.4323      4398.2245      1847.2077      1433.6024      1463.9393      2692.5179      0             -3742.8518      0              0             -130.55011      105506.26      47.25264       47.25264       47.25264       0.79506983    -701.78995     -146.398        90.388176    
    248000   496000         410.27869     -299.06585      5897.2388      6355.8127      4401.4432      1954.3694      1517.6872      1510.7949      2690.8002      0             -3764.9129      0              0             -131.0053       105139.67      47.197848      47.197848      47.197848      0.797842       375.79586     -465.5976      -807.39582    
    248500   497000         413.63579      739.99273      7482.7748      6354.2141      4437.458       1916.756       1529.8008      1497.8528      2669.0094      0             -3779.9069      0              0             -131.71459      104573.49      47.112976      47.112976      47.112976      0.80216165     389.33684      972.04582      858.59553    
    249000   498000         422.71085      294.01445      6860.1663      6415.9896      4534.8146      1881.1749      1512.4866      1484.1391      2683.6887      0             -3799.1394      0              0             -132.96713      103588.41      46.964575      46.964575      46.964575      0.80978982     647.22959      348.30184     -113.48807    
    249500   499000         399.18345     -278.7043       5809.0442      6232.3149      4282.4143      1949.9006      1464.5748      1521.5831      2707.1615      0             -3743.4189      0              0             -132.26864      104135.45      47.0471        47.0471        47.0471        0.80553593    -362.68453     -701.05275      227.62438    
    250000   500000         404.51782      264.0852       6496.0319      6093.7461      4339.6411      1754.1051      1464.5241      1387.7306      2686.6647      0             -3784.8143      0              0             -131.86841      104451.51      47.09465       47.09465       47.09465       0.80309844    -496.23914      1075.2497      213.24507    
    250500   501000         408.61584     -148.54016      6194.4921      6422.0059      4383.6044      2038.4015      1549.8605      1502.4881      2726.0335      0             -3739.9805      0              0             -131.14977      105023.86      47.180512      47.180512      47.180512      0.79872181     181.94928     -623.35364     -4.216128     
    251000   502000         401.32364     -638.40455      5332.1204      6321.8903      4305.3741      2016.5163      1553.7609      1509.3843      2706.1587      0             -3752.7877      0              0             -129.56661      106307.13      47.371899      47.371899      47.371899      0.78908014    -1008.9925      48.655273     -954.87647    
    251500   503000         411.26693      124.26496      6681.2898      6490.5944      4412.0451      2078.5493      1530.2041      1510.0073      2764.6485      0             -3726.3105      0              0             -130.90006      105224.2       47.210494      47.210494      47.210494      0.79720104     648.18757     -248.20997     -27.182712    
    252000   504000         413.29427     -94.917321      6108.2509      6253.7935      4433.7942      1819.9992      1476.313       1436.961       2632.3254      0             -3725.6002      0              0             -131.00464      105140.2       47.197928      47.197928      47.197928      0.79783799    -86.205506      384.3398      -582.88626    
    252500   505000         406.70712      432.61951      6984.9716      6327.006       4363.1277      1963.8783      1531.4412      1473.4858      2745.3057      0             -3786.3545      0              0             -132.07915      104284.85      47.069589      47.069589      47.069589      0.80438187     577.82389      120.13719      599.89746    
    253000   506000         404.58065      175.06936      6543.8182      6277.6427      4340.315       1937.3277      1520.1992      1496.8534      2716.66        0             -3796.385       0              0             -132.12151      104251.41      47.064558      47.064558      47.064558      0.80463987    -146.01391      761.12739     -89.905393    
    253500   507000         403.7383       440.68073      6869.5439      6203.6173      4331.2784      1872.339       1482.3905      1432.5772      2753.446       0             -3796.0748      0              0             -132.93186      103615.9       46.968728      46.968728      46.968728      0.80957501     315.65535     -455.15389      1461.5407    
    254000   508000         407.93513      470.97067      7146.8611      6429.1096      4376.3017      2052.8079      1516.4805      1564.787       2755.0527      0             -3783.5123      0              0             -131.81084      104497.13      47.101505      47.101505      47.101505      0.80274785     286.25792      780.55026      346.10384    
    254500   509000         405.93762     -120.20665      6125.2089      6309.1004      4354.8726      1954.2278      1518.6263      1512.8547      2688.586       0             -3765.8392      0              0             -131.31012      104895.6       47.161299      47.161299      47.161299      0.7996984     -975.06202      320.89766      293.5444     
    255000   510000         404.93101     -519.0535       5396.8656      6195.1495      4344.0737      1851.0759      1503.7662      1441.0013      2683.731       0             -3777.4227      0              0             -130.61291      105455.54      47.245066      47.245066      47.245066      0.79545226    -150.68176     -1150.1226     -256.35613    
    255500   511000         414.57178     -149.5974       6097.3124      6326.145       4447.4993      1878.6457      1418.1676      1477.6319      2729.1248      0             -3746.2786      0              0             -131.32201      104886.1       47.159875      47.159875      47.159875      0.79977081    -1075.4423      306.28031      320.36978    
    256000   512000         418.16329     -646.32874      5542.8446      6542.3491      4486.0288      2056.3204      1492.4088      1510.4472      2771.8208      0             -3718.3565      0              0             -129.89728      106036.51      47.331668      47.331668      47.331668      0.79109397    -415.97475     -724.84996     -798.16151    
    256500   513000         409.14245      433.61958      6950.8026      6282.1799      4389.2538      1892.9261      1483.8523      1458.1857      2649.8244      0             -3698.9362      0              0             -130.27443      105729.53      47.285948      47.285948      47.285948      0.79339087     480.93067      98.680754      721.24733    
    257000   514000         413.61406      621.6735       7367.5273      6419.0726      4437.2249      1981.8476      1504.3378      1508.8985      2738.8075      0             -3770.1961      0              0             -131.66705      104611.25      47.118645      47.118645      47.118645      0.80187213    -204.9797       1511.8286      558.17162    
    257500   515000         399.42287      293.01147      6728.1365      6277.9322      4284.9827      1992.9495      1508.107       1462.6897      2766.229       0             -3744.0762      0              0             -130.73935      105353.55      47.229831      47.229831      47.229831      0.79622228     783.83662     -174.8499       270.0477     
    258000   516000         404.40613     -135.14569      6050.0027      6258.3571      4338.4428      1919.9143      1455.8138      1464.1419      2759.6506      0             -3759.692       0              0             -130.29591      105712.09      47.283349      47.283349      47.283349      0.79352172    -248.40203     -252.3436       95.308562    
    258500   517000         410.06681     -326.79991      5831.4581      6335.2675      4399.1702      1936.0972      1478.0448      1424.3119      2772.8591      0             -3739.1186      0              0             -130.3008       105708.13      47.282757      47.282757      47.282757      0.79355149    -347.23827     -72.881175     -560.28027    
    259000   518000         408.66939      584.59491      7110.3542      6223.1671      4384.1788      1838.9883      1437.8602      1482.1344      2713.0563      0             -3794.0626      0              0             -132.36439      104060.12      47.035753      47.035753      47.035753      0.80611907     732.69174      201.49319      819.59981    
    259500   519000         416.85914      87.056267      6586.5666      6452.4628      4472.0379      1980.4249      1493.0932      1481.8302      2697.0628      0             -3691.5613      0              0             -130.40379      105624.64      47.270307      47.270307      47.270307      0.79417871     76.170386      227.94146     -42.943047    
    260000   520000         410.41739      444.84788      7016.6667      6332.65        4402.9312      1929.7188      1449.1828      1482.6133      2736.3513      0             -3738.4287      0              0             -130.64         105433.66      47.2418        47.2418        47.2418        0.79561726     862.84159     -459.15876      930.86081    
    260500   521000         413.08865      212.96634      6666.4495      6339.3607      4431.5883      1907.7723      1441.7469      1518.9987      2710.123       0             -3763.0963      0              0             -130.79062      105312.25      47.223659      47.223659      47.223659      0.79653453     99.46293       217.16077      322.27533    
    261000   522000         413.5304       701.18433      7450.4475      6372.1425      4436.3274      1935.8151      1523.3831      1481.333       2666.8124      0             -3735.7134      0              0             -130.62369      105446.83      47.243766      47.243766      47.243766      0.79551793     1029.8582     -25.922128      1099.6169    
    261500   523000         410.83345      133.44686      6459.6157      6256.3194      4407.3947      1848.9247      1524.0382      1472.3195      2663.4666      0             -3810.8996      0              0             -131.8592       104458.8       47.095746      47.095746      47.095746      0.80304236     168.32551      67.825715      164.18934    
    262000   524000         418.7103      -302.88453      6048.0317      6509.4517      4491.897       2017.5547      1530.1676      1522.3855      2746.0381      0             -3781.0365      0              0             -131.85969      104458.41      47.095687      47.095687      47.095687      0.80304536    -67.802789     -919.73687      78.886052    
    262500   525000         411.73037     -169.21758      6004.3562      6262.7511      4417.0168      1845.7343      1463.8899      1466.5916      2704.1104      0             -3788.8577      0              0             -131.55061      104703.84      47.132543      47.132543      47.132543      0.80116301     431.66428     -76.957692     -862.35933    
    263000   526000         406.26183      367.38775      6850.7035      6293.6539      4358.3506      1935.3033      1481.9901      1465.0546      2796.1854      0             -3807.9267      0              0             -132.48363      103966.46      47.021638      47.021638      47.021638      0.80684523    -223.61349      63.069464      1262.7073    
    263500   527000         408.30499     -169.20768      5983.5321      6242.9361      4380.2696      1862.6665      1508.4464      1411.6897      2708.0767      0             -3765.5463      0              0             -131.0312       105118.89      47.194738      47.194738      47.194738      0.79799974    -852.04368      280.63133      63.789304    
    264000   528000         410.17699     -191.43864      6026.4666      6319.7961      4400.3522      1919.4439      1477.5929      1497.6127      2707.5005      0             -3763.2622      0              0             -131.10076      105063.11      47.18639       47.18639       47.18639       0.79842335    -777.15362     -352.51753      555.35523    
    264500   529000         400.51676     -1537.6633      3899.5901      6273.9505      4296.718       1977.2325      1558.932       1469.174       2681.9588      0             -3732.8323      0              0             -130.09062      105878.92      47.308208      47.308208      47.308208      0.79227143    -726.15062     -1349.021      -2537.8182    
    265000   530000         402.21117     -417.01005      5457.9762      6089.8141      4314.8955      1774.9186      1489.6764      1402.4587      2701.7001      0             -3818.9166      0              0             -132.57822      103892.28      47.010452      47.010452      47.010452      0.80742134    -175.12028     -62.271786     -1013.6381    
    265500   531000         408.12342      486.60032      6970.242       6225.9318      4378.3217      1847.6101      1456.9198      1477.0068      2651.3719      0             -3737.6884      0              0             -131.32573      104883.13      47.159431      47.159431      47.159431      0.79979345    -247.04332      976.06907      730.7752     
    266000   532000         412.14947      655.80678      7264.2127      6258.9852      4421.5129      1837.4723      1513.7376      1436.2474      2642.6982      0             -3755.2109      0              0             -131.05177      105102.39      47.192269      47.192269      47.192269      0.798125       953.11775      648.35642      365.94616    
    266500   533000         411.952       -1057.1762      4700.3564      6318.1273      4419.3944      1898.7329      1463.8028      1390.9024      2788.4643      0             -3744.4366      0              0             -131.26886      104928.57      47.16624       47.16624       47.16624       0.79944711    -977.86881     -1399.7662     -793.89356    
    267000   534000         405.77274     -21.396477      6173.0938      6206.1365      4353.1038      1853.0327      1498.2058      1411.081       2687.0992      0             -3743.3534      0              0             -130.07655      105890.37      47.309914      47.309914      47.309914      0.79218574     86.355718     -483.56925      333.0241     
    267500   535000         412.12873      427.99471      7102.4352      6441.9658      4421.2904      2020.6754      1539.7875      1506.8804      2677.5826      0             -3703.5751      0              0             -130.17184      105812.86      47.298367      47.298367      47.298367      0.79276607     724.64208     -604.79837      1164.1404    
    268000   536000         406.94767      135.38075      6433.1165      6228.1492      4365.7083      1862.4409      1502.539       1469.5148      2685.9646      0             -3795.5775      0              0             -132.67948      103812.99      46.99849       46.99849       46.99849       0.80803801    -470.18822      487.8731       388.45736    
    268500   537000         413.0381      -33.37965       6308.9555      6360.1279      4431.046       1929.0819      1486.7797      1515.4388      2656.571       0             -3729.7075      0              0             -131.032        105118.25      47.194643      47.194643      47.194643      0.7980046      872.67421      215.64643     -1188.4596    
    269000   538000         413.88802     -209.63001      5951.0833      6272.108       4440.1639      1831.9441      1476.4764      1420.4268      2721.6302      0             -3786.5892      0              0             -131.17357      105004.79      47.177658      47.177658      47.177658      0.7988668     -625.54617      218.84278     -222.18665    
    269500   539000         409.52852     -186.96242      5964.6988      6250.1255      4393.3955      1856.73        1477.1589      1434.9414      2732.0574      0             -3787.4277      0              0             -131.58037      104680.16      47.128989      47.128989      47.128989      0.80134425     119.18176     -43.989183     -636.07983    
    270000   540000         409.1979      -305.60096      5695.8125      6160.4894      4389.8487      1770.6407      1455.1561      1414.5197      2711.9388      0             -3810.9739      0              0             -132.10981      104260.64      47.065947      47.065947      47.065947      0.80456862    -441.69268     -573.59809      98.487888    
    270500   541000         415.12974      143.64739      6627.4276      6406.7553      4453.485       1953.2703      1511.0256      1506.7753      2704.5205      0             -3769.051       0              0             -130.76195      105335.34      47.22711       47.22711       47.22711       0.79635992     228.55402     -119.70326      322.09143    
    271000   542000         400.24343     -121.55119      6050.022       6235.9804      4293.7857      1942.1947      1458.2025      1525.9833      2717.7766      0             -3759.7677      0              0             -131.30309      104901.22      47.162141      47.162141      47.162141      0.79965557     221.41826     -764.53746      178.46563    
    271500   543000         408.85008      308.73004      6724.9511      6251.6403      4386.1173      1865.523       1460.1855      1457.5623      2721.8017      0             -3774.0266      0              0             -131.02791      105121.53      47.195134      47.195134      47.195134      0.79797967     295.01523      470.55051      160.62437    
    272000   544000         416.61496      46.711484      6490.4947      6418.1748      4469.4184      1948.7564      1546.613       1439.3412      2695.2675      0             -3732.4652      0              0             -129.74707      106159.27      47.349926      47.349926      47.349926      0.79017917     391.87192     -20.293094     -231.44437    
    272500   545000         413.0198       118.54174      6539.6051      6358.9214      4430.8497      1928.0718      1534.7911      1536.2986      2637.6662      0             -3780.6841      0              0             -131.7904       104513.33      47.103939      47.103939      47.103939      0.80262339     59.948931     -16.313145      311.98943    
    273000   546000         407.46702     -537.08419      5560.8338      6382.493       4371.2798      2011.2132      1559.0729      1512.71        2683.5088      0             -3744.0785      0              0             -131.30523      104899.5       47.161884      47.161884      47.161884      0.79966863    -483.22332     -126.50178     -1001.5275    
    273500   547000         422.48745      49.42846       6501.6331      6426.5557      4532.4181      1894.1376      1540.3248      1456.4086      2685.845       0             -3788.4408      0              0             -132.25117      104149.21      47.049172      47.049172      47.049172      0.80542951     321.14539     -807.12657      634.26657    
    274000   548000         402.988        346.1137       6688.8536      6160.237       4323.2292      1837.0078      1461.3029      1458.0667      2699.9676      0             -3782.3294      0              0             -131.52533      104723.97      47.135563      47.135563      47.135563      0.80100903     1314.3834     -436.32839      160.28605    
    274500   549000         408.69499     -63.473852      6174.0251      6270.8322      4384.4534      1886.3788      1504.9887      1508.9338      2679.103       0             -3806.6468      0              0             -131.71008      104577.06      47.113512      47.113512      47.113512      0.80213424    -338.46202     -115.81771      263.85818    
    275000   550000         411.25682     -618.88036      5387.363       6334.6078      4411.9366      1922.6713      1511.5706      1485.7236      2711.3425      0             -3785.9654      0              0             -131.2429       104949.32      47.169349      47.169349      47.169349      0.79928903    -889.25532     -623.7695      -343.61627    
    275500   551000         416.03988      361.96785      6928.3127      6371.9763      4463.249       1908.7273      1480.5054      1454.058       2748.4238      0             -3774.2599      0              0             -130.69649      105388.1       47.234993      47.234993      47.234993      0.79596128     528.70182      178.58731      378.61441    
    276000   552000         406.27407      173.59573      6455.01        6191.3131      4358.482       1832.8311      1510.5979      1456.7259      2654.2916      0             -3788.7842      0              0             -132.24073      104157.42      47.05041       47.05041       47.05041       0.80536596     904.10292      106.39545     -489.71118    
    276500   553000         409.07315     -265.12236      5683.2163      6085.9767      4388.5103      1697.4664      1426.152       1480.9342      2619.7367      0             -3829.3566      0              0             -132.23028      104165.66      47.051649      47.051649      47.051649      0.8053023     -472.18065      503.50975     -826.69617    
    277000   554000         407.36706      330.95412      6663.4993      6162.2956      4370.2075      1792.088       1388.4016      1542.6975      2701.4805      0             -3840.4916      0              0             -132.64315      103841.43      47.00278       47.00278       47.00278       0.80781675     280.27835      55.750925      656.83307    
    277500   555000         406.98993     -32.790901      6171.2306      6221.1226      4366.1617      1854.9609      1461.1866      1497.2259      2693.0179      0             -3796.4695      0              0             -132.02438      104328.11      47.076097      47.076097      47.076097      0.80404832     11.685886      682.01482     -792.07341    
    278000   556000         412.66969     -315.26232      5766.0974      6250.5088      4427.0938      1823.415       1433.8037      1463.6404      2679.218       0             -3753.247       0              0             -130.73415      105357.73      47.230456      47.230456      47.230456      0.79619067     130.69772     -256.14541     -820.33926    
    278500   557000         403.19066      306.37351      6722.9395      6252.6412      4325.4033      1927.2378      1504.3795      1466.5408      2695.0555      0             -3738.7379      0              0             -130.86065      105255.89      47.215232      47.215232      47.215232      0.79696107     511.90588     -525.26956      932.48421    
    279000   558000         402.72833     -309.33369      5890.5783      6365.7307      4320.4435      2045.2872      1542.2798      1520.4056      2730.5989      0             -3747.9971      0              0             -130.77528      105324.6       47.225504      47.225504      47.225504      0.79644115    -766.68956     -457.53486      296.22335    
    279500   559000         413.43958     -253.13937      5898.2602      6293.3302      4435.3531      1857.9771      1453.3913      1461.1306      2660.5464      0             -3717.0912      0              0             -128.71141      107013.47      47.476586      47.476586      47.476586      0.78387185     24.514267     -739.085       -44.847375    
    280000   560000         412.10438      121.07575      6419.7646      6235.5034      4421.0292      1814.4742      1439.2728      1469.9011      2688.639       0             -3783.3388      0              0             -131.99412      104352.03      47.079694      47.079694      47.079694      0.80386407    -347.04563      388.6299       321.64297    
    280500   561000         415.25506     -728.03626      5260.0605      6383.6995      4454.8294      1928.8701      1489.945       1449.5114      2750.6347      0             -3761.221       0              0             -130.15401      105827.35      47.300526      47.300526      47.300526      0.79265752    -943.48268     -244.91866     -995.70744    
    281000   562000         398.21138     -256.18048      5706.7755      6098.6543      4271.986       1826.6683      1458.3961      1474.4666      2659.9346      0             -3766.129       0              0             -131.31842      104888.98      47.160306      47.160306      47.160306      0.79974891    -376.07258     -329.10134     -63.367518    
    281500   563000         397.3045      -273.7191       5791.0985      6211.4362      4262.257       1949.1793      1451.069       1520.5046      2755.136       0             -3777.5304      0              0             -130.80915      105297.33      47.221428      47.221428      47.221428      0.7966474     -501.99017      23.063413     -342.23053    
    282000   564000         402.69618      342.04166      6794.307       6268.4709      4320.0986      1948.3723      1489.7492      1469.6864      2725.9288      0             -3736.992       0              0             -130.66521      105413.32      47.238761      47.238761      47.238761      0.79577082     208.57195      532.20156      285.35145    
    282500   565000         423.05264      480.7017       7252.7298      6519.1099      4538.4814      1980.6286      1524.6392      1480.9438      2753.7685      0             -3778.7229      0              0             -131.62425      104645.26      47.123751      47.123751      47.123751      0.80161151     168.63724      1043.8132      229.65466    
    283000   566000         404.90053     -169.7486       6053.0706      6316.2891      4343.7467      1972.5424      1545.5028      1463.039       2658.4056      0             -3694.405       0              0             -129.54515      106324.74      47.374515      47.374515      47.374515      0.78894943     606.8917      -837.17416     -278.96335    
    283500   567000         415.61103      289.74626      6809.8697      6366.4716      4458.6482      1907.8234      1511.4985      1479.5532      2657.1894      0             -3740.4177      0              0             -131.26695      104930.1       47.166468      47.166468      47.166468      0.7994355      80.186224      772.53943      16.513119    
    284000   568000         405.6059       140.62587      6611.1491      6394.6389      4351.3139      2043.325       1532.2225      1534.0561      2740.2277      0             -3763.1813      0              0             -130.47231      105569.17      47.26203       47.26203       47.26203       0.794596       718.98709     -86.881587     -210.22791    
    284500   569000         414.26325      317.04561      6700.8345      6216.976       4444.1894      1772.7866      1476.7168      1457.9004      2637.9588      0             -3799.7893      0              0             -131.6239       104645.54      47.123793      47.123793      47.123793      0.80160938     446.83215      812.51687     -308.2122     
    285000   570000         411.98785     -381.10649      5697.7393      6282.1141      4419.7791      1862.335       1444.8938      1478.7269      2698.8265      0             -3760.1122      0              0             -131.0045       105140.31      47.197945      47.197945      47.197945      0.7978371     -977.11934      458.88274     -625.08286    
    285500   571000         408.34409     -209.37183      5965.4622      6285.3115      4380.689       1904.6225      1522.3211      1457.2019      2708.8141      0             -3783.7146      0              0             -131.49347      104749.34      47.139369      47.139369      47.139369      0.80081502    -86.99401      -98.644923     -442.47656    
    286000   572000         405.21366     -650.0481       5271.2849      6271.1041      4347.1059      1923.9981      1510.2009      1478.2877      2704.0516      0             -3768.5421      0              0             -130.60367      105462.99      47.246179      47.246179      47.246179      0.79539602    -763.54261     -924.2757      -262.32598    
    286500   573000         413.60346      87.879535      6478.7597      6344.2767      4437.1112      1907.1655      1534.7021      1459.6136      2675.1374      0             -3762.2876      0              0             -131.26586      104930.97      47.166599      47.166599      47.166599      0.79942884     700.55939      287.49882     -724.4196     
    287000   574000         416.01675      233.59793      6673.9384      6321.9465      4463.0008      1858.9457      1496.428       1486.6557      2721.5767      0             -3845.7147      0              0             -133.31151      103320.82      46.924099      46.924099      46.924099      0.81188715     290.66945      664.53958     -254.41524    
    287500   575000         402.00192     -80.144565      6061.7909      6181.9093      4312.6506      1869.2587      1503.0968      1511.8347      2709.2253      0             -3854.8981      0              0             -134.02816      102768.36      46.840315      46.840315      46.840315      0.81625168    -745.33096     -165.55673      670.454      
    288000   576000         405.55696     -17.29232       6169.068       6195.39        4350.7889      1844.6011      1467.1283      1520.3653      2665.5607      0             -3808.4533      0              0             -131.96696      104373.51      47.082924      47.082924      47.082924      0.80369862     564.89221     -140.28128     -476.48789    
    288500   577000         405.6599      -124.48445      5959.9711      6148.9699      4351.8931      1797.0768      1452.2972      1471.2238      2717.7463      0             -3844.1905      0              0             -132.30836      104104.18      47.042391      47.042391      47.042391      0.80577785    -330.05158     -195.34146      151.93968    
    289000   578000         409.31586     -181.26851      6074.5486      6351.6512      4391.1141      1960.5371      1587.2709      1478.617       2690.0066      0             -3795.3573      0              0             -131.40538      104819.56      47.1499        47.1499        47.1499        0.80027852    -377.24466      202.57345     -369.13431    
    289500   579000         404.97236      162.98129      6355.8919      6107.8191      4344.5173      1763.3018      1478.591       1476.621       2632.0516      0             -3823.9618      0              0             -131.97448      104367.55      47.082029      47.082029      47.082029      0.80374446     119.32559     -154.95171      524.56999    
    290000   580000         405.50899     -263.49736      5914.1473      6318.0561      4350.2742      1967.7819      1551.6738      1494.366       2710.1473      0             -3788.4053      0              0             -131.04616      105106.89      47.192943      47.192943      47.192943      0.79809083     11.594514      283.17121     -1085.2578    
    290500   581000         413.62538      208.36274      6616.4851      6299.2762      4437.3464      1861.9298      1487.7078      1495.3797      2676.1961      0             -3797.3537      0              0             -131.94899      104387.72      47.085061      47.085061      47.085061      0.80358918     279.25209      140.60478      205.23134    
    291000   582000         404.90286     -370.68449      5674.4458      6240.1003      4343.7717      1896.3286      1500.5732      1516.7993      2646.2117      0             -3767.2555      0              0             -131.63898      104633.55      47.121993      47.121993      47.121993      0.80170123    -521.57257     -123.07308     -467.40781    
    291500   583000         411.01365     -40.528441      6327.3835      6389.3145      4409.3279      1979.9866      1545.8226      1479.8073      2715.1396      0             -3760.7828      0              0             -131.45683      104778.53      47.143748      47.143748      47.143748      0.8005919      369.55008     -264.08127     -227.05414    
    292000   584000         399.35736     -178.06077      5913.8218      6182.6274      4284.2799      1898.3475      1527.9727      1456.9016      2753.1298      0             -3839.6566      0              0             -133.06419      103512.85      46.953152      46.953152      46.953152      0.81038096     64.684384      207.13236     -805.99905    
    292500   585000         409.24084      216.63336      6607.0927      6278.8323      4390.3093      1888.523       1531.5839      1499.369       2695.4182      0             -3837.8481      0              0             -132.56782      103900.43      47.011681      47.011681      47.011681      0.80735798     1013.98       -98.253793     -265.8261     
    293000   586000         408.27542     -824.46978      5029.6699      6292.1101      4379.9523      1912.1578      1475.7289      1520.543       2698.9008      0             -3783.015       0              0             -131.18835      104992.96      47.175886      47.175886      47.175886      0.79895682    -1112.0632     -971.09752     -390.24866    
    293500   587000         414.04327     -44.066796      6375.2075      6442.4243      4441.8294      2000.5949      1575.3241      1419.0608      2790.12        0             -3783.9099      0              0             -131.69353      104590.21      47.115486      47.115486      47.115486      0.80203343     800.70946     -870.88975     -62.020094    
    294000   588000         412.29851      135.99237      6583.5986      6378.2435      4423.1118      1955.1317      1547.7598      1477.2981      2754.1362      0             -3824.0624      0              0             -133.02721      103541.63      46.957503      46.957503      46.957503      0.81015575     209.51348      184.51385      13.949764    
    294500   589000         410.0003       639.65483      7294.6612      6321.3341      4398.4568      1922.8774      1517.711       1491.3916      2700.2722      0             -3786.4975      0              0             -132.01347      104336.73      47.077394      47.077394      47.077394      0.8039819      553.86626      409.16378      955.93446    
    295000   590000         414.85553      476.01335      7068.5993      6343.9367      4450.5433      1893.3934      1464.6309      1510.3457      2710.6538      0             -3792.237       0              0             -131.95161      104385.65      47.084749      47.084749      47.084749      0.80360515     940.94128     -173.3085       660.40729    
    295500   591000         412.78513     -146.45021      6136.5445      6359.3552      4428.3322      1931.023       1528.727       1419.4395      2783.2467      0             -3800.3902      0              0             -132.03386      104320.62      47.07497       47.07497       47.07497       0.80410605    -337.70963     -51.35079      -50.290208    
    296000   592000         413.11413     -422.02449      5726.3026      6379.0834      4431.8617      1947.2217      1455.6988      1464.7299      2777.5624      0             -3750.7694      0              0             -129.86785      106060.54      47.335243      47.335243      47.335243      0.79091473    -1295.4038     -188.56825      217.8986     
    296500   593000         414.50078      286.15349      6780.7366      6341.3892      4446.7375      1894.6517      1495.1781      1447.78        2720.6284      0             -3768.9349      0              0             -130.83455      105276.89      47.218372      47.218372      47.218372      0.79680208    -84.206549      511.96092      430.70611    
    297000   594000         407.3358      -449.40549      5515.0126      6205.9404      4369.8721      1836.0683      1481.1133      1475.2434      2666.9521      0             -3787.2405      0              0             -130.65832      105418.88      47.239591      47.239591      47.239591      0.79572886    -810.45612     -101.87476     -435.88558    
    297500   595000         407.45087      389.85699      7035.5842      6435.3814      4371.1066      2064.2748      1530.5608      1506.4426      2748.9413      0             -3721.6699      0              0             -130.4784       105564.25      47.261295      47.261295      47.261295      0.79463308     283.06236      371.7078       514.80082    
    298000   596000         413.32381     -167.78386      6089.9411      6345.7622      4434.1112      1911.651       1482.1836      1437.4584      2754.9917      0             -3762.9826      0              0             -131.74833      104546.71      47.108953      47.108953      47.108953      0.80236716    -250.06071     -709.30474      456.01386    
    298500   597000         412.3046       401.8277       6936.2055      6312.5636      4423.1771      1889.3865      1448.9276      1500.7258      2652.1971      0             -3712.464       0              0             -129.4303       106419.09      47.388523      47.388523      47.388523      0.78825        644.92686      537.09819      23.458058    
    299000   598000         405.88172     -2.6632769      6224.2613      6228.3202      4354.2729      1874.0473      1514.627       1440.6274      2693.1573      0             -3774.3644      0              0             -131.8083       104499.14      47.101807      47.101807      47.101807      0.80273238    -152.20798      140.81966      3.3984974    
    299500   599000         404.73222      180.55084      6443.9516      6167.3256      4341.9411      1825.3846      1486.0788      1429.8899      2667.7384      0             -3758.3225      0              0             -131.11063      105055.2       47.185206      47.185206      47.185206      0.79848347     314.46202     -621.25505      848.44556    
    300000   600000         409.78706     -438.96231      5640.4483      6315.0982      4396.1691      1918.9291      1521.3339      1454.9559      2702.6573      0             -3760.018       0              0             -130.70138      105384.15      47.234403      47.234403      47.234403      0.79599109    -623.35526      114.56815     -808.09983    
    300500   601000         413.7685      -343.15484      5729.3777      6253.2125      4438.8817      1814.3308      1523.3397      1439.0575      2624.7559      0             -3772.8223      0              0             -131.59127      104671.49      47.127688      47.127688      47.127688      0.80141064     70.299472     -385.05949     -714.70451    
    301000   602000         414.66498     -212.08253      6021.834       6344.7266      4448.4991      1896.2275      1501.4794      1487.9003      2689.8586      0             -3783.0107      0              0             -131.94051      104394.43      47.08607       47.08607       47.08607       0.80353756     160.82252     -1134.0189      336.94881    
    301500   603000         401.0814       420.25906      6742.1229      6109.6946      4302.7753      1806.9193      1465.98        1454.857       2693.7517      0             -3807.6694      0              0             -133.48645      103185.41      46.903592      46.903592      46.903592      0.81295255     546.58639     -500.06887      1214.2597    
    302000   604000         421.70182      80.868207      6561.4731      6437.9434      4523.9899      1913.9536      1454.335       1498.7612      2751.2352      0             -3790.3778      0              0             -131.50364      104741.23      47.138153      47.138153      47.138153      0.80087699    -158.12924      291.18932      109.54454    
    302500   605000         410.54794      630.43133      7298.0962      6335.1501      4404.3317      1930.8184      1500.2593      1480.1018      2718.2459      0             -3767.7886      0              0             -131.51255      104734.14      47.137089      47.137089      47.137089      0.8009312      627.96046      176.23653      1087.097     
    303000   606000         417.11741      475.82017      7138.1761      6415.5099      4474.8086      1940.7013      1527.4055      1477.5537      2726.0388      0             -3790.2967      0              0             -132.26243      104140.34      47.047837      47.047837      47.047837      0.80549809     389.44903      1016.7344      21.277031    
    303500   607000         416.54265      523.61347      7113.8993      6320.7259      4468.6427      1852.0832      1520.7469      1471.9494      2682.7061      0             -3823.319       0              0             -132.60931      103867.92      47.006778      47.006778      47.006778      0.80761068     739.13626      864.0705      -32.366353    
    304000   608000         405.11882      64.656111      6353.3749      6254.1842      4346.0885      1908.0956      1437.7014      1523.7704      2689.1493      0             -3742.5254      0              0             -130.9392       105192.75      47.205789      47.205789      47.205789      0.79743943     385.37027      105.35635     -296.75829    
    304500   609000         408.98741      304.67765      6695.3009      6225.2094      4387.5905      1837.6189      1475.5123      1419.9169      2713.0053      0             -3770.8155      0              0             -130.19358      105795.19      47.295734      47.295734      47.295734      0.79289847     768.1711       3.3459226      142.51591    
    305000   610000         407.24906     -363.30332      5735.4699      6292.6741      4368.9416      1923.7325      1467.5205      1476.2496      2736.7854      0             -3756.823       0              0             -130.97438      105164.49      47.201563      47.201563      47.201563      0.79765368    -990.52945      531.03718     -630.4177     
    305500   611000         410.37017     -124.93407      6159.3352      6351.5863      4402.4246      1949.1617      1513.6984      1475.8211      2713.2435      0             -3753.6014      0              0             -130.53993      105514.49      47.253868      47.253868      47.253868      0.79500784    -335.3802       183.70961     -223.13162    
    306000   612000         416.03827     -273.91002      5887.7498      6306.1471      4463.2317      1842.9154      1480.8307      1449.4727      2674.8825      0             -3762.2705      0              0             -131.50746      104738.19      47.137697      47.137697      47.137697      0.80090024    -293.4099      -203.01703     -325.30312    
    306500   613000         405.94262     -117.27727      6013.6846      6191.3028      4354.9261      1836.3766      1466.2316      1531.5169      2642.8278      0             -3804.1997      0              0             -132.63487      103847.91      47.003759      47.003759      47.003759      0.80776629    -233.75854     -84.339674     -33.733606    
    307000   614000         398.78744      474.53386      6913.0902      6192.7224      4278.1659      1914.5565      1483.036       1468.4961      2734.0696      0             -3771.0453      0              0             -132.32572      104090.53      47.040335      47.040335      47.040335      0.80588355     552.93948      38.005256      832.65683    
    307500   615000         421.37058     -55.009153      6477.1583      6561.4574      4520.4363      2041.021       1543.8949      1483.3308      2788.1972      0             -3774.4018      0              0             -131.08218      105078         47.188619      47.188619      47.188619      0.79831022    -581.25179     -25.53914       441.76347    
    308000   616000         406.0778       528.51747      7099.3145      6293.217       4356.3764      1936.8406      1500.5133      1452.3681      2770.3583      0             -3786.3992      0              0             -131.70525      104580.9       47.114088      47.114088      47.114088      0.80210481     488.31708      1116.8832     -19.64785     
    308500   617000         401.23887      325.2858       6674.3881      6176.9553      4304.4647      1872.4906      1481.978       1435.1925      2748.2525      0             -3792.9323      0              0             -131.35966      104856.04      47.155369      47.155369      47.155369      0.80000011     69.510327      441.22125      465.12582    
    309000   618000         404.6723      -377.54805      5642.1138      6223.2416      4341.2982      1881.9433      1482.1126      1422.8388      2733.037       0             -3756.0451      0              0             -130.50644      105541.57      47.25791       47.25791       47.25791       0.79480385     177.10493     -585.38368     -724.3654     
    309500   619000         410.54314      683.77674      7284.4945      6254.7649      4404.2803      1850.4846      1440.8293      1451.7894      2774.6751      0             -3816.8093      0              0             -133.38975      103260.21      46.914922      46.914922      46.914922      0.81236368     658.49473      161.65342      1231.1821    
    310000   620000         408.03399     -93.918119      6207.5607      6351.6862      4377.3622      1974.324       1477.0465      1510.9162      2732.578       0             -3746.2167      0              0             -130.9001       105224.17      47.210489      47.210489      47.210489      0.79720132    -267.31877     -352.51823      338.08264    
    310500   621000         412.03312     -453.85437      5734.3075      6437.5742      4420.2647      2017.3096      1517.2656      1509.3014      2737.4631      0             -3746.7205      0              0             -129.63666      106249.68      47.363365      47.363365      47.363365      0.78950677    -324.64617     -550.96227     -485.95466    
    311000   622000         399.28788     -1107.2717      4551.8181      6247.0177      4283.5346      1963.4832      1461.8277      1523.6052      2744.0033      0             -3765.9531      0              0             -131.20932      104976.18      47.173372      47.173372      47.173372      0.79908453    -2099.6309     -438.07309     -784.11102    
    311500   623000         409.58043     -252.06123      5963.4538      6349.1928      4393.9524      1955.2404      1520.0397      1485.6032      2748.8548      0             -3799.2574      0              0             -131.26349      104932.87      47.166883      47.166883      47.166883      0.79941439    -348.66728     -902.19842      494.682      
    312000   624000         410.99851      613.98485      7191.9503      6256.3025      4409.1655      1847.137       1482.8184      1477.7708      2682.8747      0             -3796.3269      0              0             -131.81859      104490.99      47.100582      47.100582      47.100582      0.80279503     1151.8409      597.43495      92.678727    
    312500   625000         410.76201      136.11309      6540.8297      6333.2219      4406.6283      1926.5937      1515.3754      1457.5143      2736.4503      0             -3782.7464      0              0             -131.70055      104584.63      47.114649      47.114649      47.114649      0.80207619     19.755541      369.36259      19.221128    
    313000   626000         406.38983      114.13005      6508.6288      6335.11        4359.7238      1975.3862      1509.4523      1449.5063      2818.0545      0             -3801.6269      0              0             -132.12492      104248.73      47.064153      47.064153      47.064153      0.80466062    -142.36778      107.30424      377.4537     
    313500   627000         403.72111      78.305776      6418.848       6298.6766      4331.094       1967.5826      1493.5259      1460.2028      2772.891       0             -3759.0372      0              0             -130.89527      105228.05      47.21107       47.21107       47.21107       0.79717186     111.99324      199.272       -76.347907    
    314000   628000         417.69494      215.54984      6806.5625      6473.9854      4481.0043      1992.9811      1519.6837      1442.2148      2765.9645      0             -3734.8819      0              0             -130.19271      105795.9       47.29584       47.29584       47.29584       0.79289317     154.61518      834.93243     -342.8981     
    314500   629000         408.8181      -339.15159      5845.7068      6365.1449      4385.7741      1979.3708      1491.8959      1508.8206      2747.2755      0             -3768.6212      0              0             -131.15697      105018.09      47.179649      47.179649      47.179649      0.79876567    -166.21686     -365.8466      -485.39131    
    315000   630000         409.10264      825.069        7573.2833      6300.5231      4388.8267      1911.6964      1460.1451      1506.319       2686.5522      0             -3741.32        0              0             -130.21921      105774.36      47.29263       47.29263       47.29263       0.7930546      858.23887      302.00673      1314.9614    
    315500   631000         419.67325      38.381638      6547.2736      6487.9868      4502.2275      1985.7593      1512.746       1505.0165      2713.2278      0             -3745.2311      0              0             -130.04596      105915.28      47.313623      47.313623      47.313623      0.79199948    -141.82234      134.45497      122.51229    
    316000   632000         408.54762      440.7212       6927.1766      6253.225       4382.8725      1870.3526      1492.0323      1473.4135      2676.3718      0             -3771.4651      0              0             -131.36106      104854.92      47.155202      47.155202      47.155202      0.80000862     682.77853     -200.17668      839.56176    
    316500   633000         412.54032     -552.26317      5459.6324      6312.2813      4425.7059      1886.5754      1501.9102      1439.7667      2703.1697      0             -3758.2711      0              0             -130.10895      105864         47.305986      47.305986      47.305986      0.79238309    -826.37845     -87.533131     -742.87792    
    317000   634000         402.54737      760.46684      7355.9449      6183.5451      4318.5022      1865.0429      1509.1063      1406.1023      2699.6304      0             -3749.7961      0              0             -130.29745      105710.85      47.283163      47.283163      47.283163      0.79353107     1431.5396      191.80932      658.05157    
    317500   635000         419.65334      500.60149      7202.5495      6428.5117      4502.014       1926.4977      1487.7298      1441.0008      2717.6281      0             -3719.8609      0              0             -129.91561      106021.55      47.329442      47.329442      47.329442      0.79120561     517.35718     -177.78272      1162.23      
    318000   636000         409.73864      376.07742      7016.5085      6442.4478      4395.6497      2046.7982      1588.4398      1488.0144      2745.8378      0             -3775.4939      0              0             -131.59847      104665.76      47.126828      47.126828      47.126828      0.80145448    -234.61741      493.52767      869.322      
    318500   637000         415.09316     -301.28322      5840.6781      6303.6359      4453.0925      1850.5434      1452.9956      1438.7808      2714.5688      0             -3755.8019      0              0             -130.72688      105363.6       47.231332      47.231332      47.231332      0.79614637     125.40046     -179.38648     -849.86364    
    319000   638000         398.94493     -68.90897       6121.1686      6225.8002      4279.8554      1945.9447      1528.4602      1477.7201      2731.7445      0             -3791.98        0              0             -132.29537      104114.41      47.043932      47.043932      47.043932      0.8056987     -104.85894      572.98566     -674.85363    
    319500   639000         415.63727     -6.3400738      6336.8889      6346.6315      4458.9297      1887.7018      1529.7129      1435.8774      2680.2535      0             -3758.1419      0              0             -130.72235      105367.25      47.231878      47.231878      47.231878      0.79611876    -883.85592      607.60344      257.23225    
    320000   640000         410.53229      177.04853      6464.4795      6193.7222      4404.1639      1789.5583      1465.6695      1482.8044      2579.6842      0             -3738.5999      0              0             -131.35405      104860.52      47.156041      47.156041      47.156041      0.79996593     79.525314     -71.395184      523.01547    
    320500   641000         407.62192     -805.21863      4954.0015      6189.3342      4372.9416      1816.3925      1477.1428      1446.1655      2642.6253      0             -3749.541       0              0             -130.93666      105194.79      47.206095      47.206095      47.206095      0.79742395     100.56221     -1211.126      -1305.0921    
    321000   642000         412.8529       152.872        6532.4195      6298.5542      4429.0592      1869.495       1484.1715      1461.6601      2698.065       0             -3774.4017      0              0             -131.30872      104896.72      47.161467      47.161467      47.161467      0.79968986     60.344925     -611.93865      1010.2097    
    321500   643000         413.84057     -461.03835      5573.5649      6282.2915      4439.6549      1842.6365      1521.5206      1439.7988      2661.6934      0             -3780.3762      0              0             -130.67415      105406.11      47.237684      47.237684      47.237684      0.79582524    -228.92423     -688.03605     -466.15477    
    322000   644000         403.3141      -737.05202      5212.1234      6338.448       4326.7276      2011.7203      1609.1453      1434.0137      2770.0588      0             -3801.4974      0              0             -131.45162      104782.69      47.144371      47.144371      47.144371      0.80056013    -1303.5226     -477.33669     -430.29678    
    322500   645000         408.07893      98.099475      6427.1318      6276.83        4377.8444      1898.9856      1577.661       1395.7111      2674.4097      0             -3748.7962      0              0             -131.10943      105056.17      47.18535       47.18535       47.18535       0.79847615     146.63598      90.038425      57.62402     
    323000   646000         406.50046     -37.978043      6217.862       6276.2398      4360.9106      1915.3291      1455.9585      1531.6366      2670.4501      0             -3742.7161      0              0             -130.68217      105399.64      47.236718      47.236718      47.236718      0.79587406    -402.922        71.290083      217.69779    
    323500   647000         409.13178      145.48817      6545.7639      6321.8712      4389.1393      1932.732       1526.7618      1447.1118      2703.1025      0             -3744.2441      0              0             -130.53264      105520.38      47.254748      47.254748      47.254748      0.79496342    -514.21273      339.81931      610.85794    
    324000   648000         410.48861      243.34232      6734.3935      6362.5924      4403.6953      1958.8972      1495.2041      1499.8538      2715.4101      0             -3751.5708      0              0             -131.47353      104765.23      47.141752      47.141752      47.141752      0.80069355     839.05985     -223.66612      114.63322    
    324500   649000         398.31254     -297.20242      5815.6566      6270.0255      4273.0712      1996.9543      1538.1252      1489.1907      2713.8816      0             -3744.2432      0              0             -131.39385      104828.75      47.151279      47.151279      47.151279      0.80020835    -990.99215      323.84041     -224.45551    
    325000   650000         413.50245      54.991296      6436.2157      6352.0039      4436.0275      1915.9764      1478.0893      1471.0484      2708.4555      0             -3741.6168      0              0             -131.17533      105003.39      47.177447      47.177447      47.177447      0.79887749    -298.45901      101.79501      361.63789    
    325500   651000         406.40272      99.359831      6491.2712      6338.2639      4359.8622      1978.4017      1547.4825      1428.8953      2752.7489      0             -3750.725       0              0             -130.44574      105590.67      47.265238      47.265238      47.265238      0.79443421    -73.606068      219.2695       152.41606    
    326000   652000         414.18436     -183.23492      6189.1927      6471.4725      4443.3431      2028.1295      1541.3302      1506.627       2711.8672      0             -3731.6949      0              0             -130.39465      105632.05      47.271411      47.271411      47.271411      0.79412307    -284.90468      419.60848     -684.40857    
    326500   653000         408.59672     -61.095758      6213.7051      6308.0396      4383.3992      1924.6404      1501.6365      1483.993       2685.1353      0             -3746.1244      0              0             -130.09834      105872.63      47.307272      47.307272      47.307272      0.7923185     -495.55702     -424.53677      736.80652    
    327000   654000         413.85416      1029.0782      7911.4847      6343.5263      4439.8007      1903.7257      1510.2675      1469.285       2687.0557      0             -3762.8825      0              0             -131.8394       104474.49      47.098103      47.098103      47.098103      0.8029218      1734.4442      556.36237      796.42798    
    327500   655000         418.81835     -159.28464      6177.98        6423.0645      4493.0562      1930.0083      1528.0622      1453.8675      2689.1012      0             -3741.0226      0              0             -130.55378      105503.29      47.252197      47.252197      47.252197      0.79509217    -856.72787      304.83316      74.040786    
    328000   656000         410.5813      -542.54667      5416.7655      6249.4734      4404.6896      1844.7838      1432.0318      1469.4093      2714.2952      0             -3770.9525      0              0             -130.88075      105239.72      47.212815      47.212815      47.212815      0.79708349    -744.55397     -558.86503     -324.22102    
    328500   657000         407.43536     -125.49828      6014.0527      6205.6656      4370.9402      1834.7254      1495.589       1442.0067      2680.8895      0             -3783.7598      0              0             -131.56624      104691.4       47.130676      47.130676      47.130676      0.80125819    -89.864049     -173.23508     -113.3957     
    329000   658000         409.19593      231.2792       6615.3813      6261.9997      4389.8275      1872.1722      1471.344       1462.1042      2731.7153      0             -3792.9913      0              0             -131.46918      104768.69      47.142271      47.142271      47.142271      0.80066711     988.00235      553.41761     -847.58235    
    329500   659000         415.49393     -257.33216      5928.0427      6320.9989      4457.392       1863.6069      1494.9388      1475.3329      2696.5605      0             -3803.2254      0              0             -131.5471       104706.63      47.132962      47.132962      47.132962      0.80114165    -763.73604      377.14743     -385.40787    
    330000   660000         403.75948      266.67998      6601.3784      6197.1363      4331.5056      1865.6307      1535.1419      1499.709       2651.2477      0             -3820.468       0              0             -132.51965      103938.2       47.017377      47.017377      47.017377      0.80706461    -154.64702      349.97447      604.71248    
    330500   661000         404.96257      164.77308      6490.0054      6236.6837      4344.4123      1892.2714      1499.1331      1479.2159      2664.4941      0             -3750.5717      0              0             -130.66074      105416.93      47.2393        47.2393        47.2393        0.79574357     363.39515      396.83924     -265.91516    
    331000   662000         398.958        334.62529      6637.8018      6129.2504      4279.9956      1849.2548      1505.0983      1460.4267      2686.1676      0             -3802.4378      0              0             -132.17681      104207.79      47.057993      47.057993      47.057993      0.80497668     206.95121      38.050682      758.87396    
    331500   663000         415.11852      88.443111      6328.4423      6192.8347      4453.3646      1739.4701      1451.7334      1410.8684      2662.6107      0             -3785.7424      0              0             -131.01207      105134.24      47.197036      47.197036      47.197036      0.79788323    -220.62845      96.747485      389.2103     
    332000   664000         415.57588      669.86239      7232.619       6213.1165      4458.2711      1754.8454      1486.2999      1426.41        2627.0002      0             -3784.8647      0              0             -131.98625      104358.25      47.08063       47.08063       47.08063       0.80381611     1245.5382     -14.404005      778.453      
    332500   665000         406.02163     -765.26903      5004.4214      6172.8205      4355.7738      1817.0468      1504.1401      1404.5881      2667.234       0             -3758.9154      0              0             -131.56921      104689.03      47.130321      47.130321      47.130321      0.80127631    -1100.401      -237.4932      -957.91289    
    333000   666000         412.39932     -34.520607      6262.3746      6315.6263      4424.1933      1891.433       1539.0501      1440.4316      2659.8661      0             -3747.9148      0              0             -130.21962      105774.03      47.292581      47.292581      47.292581      0.79305707    -144.90274     -222.05756      263.39848    
    333500   667000         413.74615      105.84468      6304.7495      6143.6632      4438.6419      1705.0213      1445.084       1502.7711      2573.6173      0             -3816.451       0              0             -131.99025      104355.09      47.080155      47.080155      47.080155      0.80384046    -414.49374      484.31965      247.70812    
    334000   668000         411.20824      225.14206      6540.7066      6196.5891      4411.4154      1785.1737      1489.0416      1472.5526      2597.2643      0             -3773.6848      0              0             -131.426        104803.12      47.147435      47.147435      47.147435      0.80040409     333.41931      60.553437      281.45344    
    334500   669000         409.1115       184.08682      6479.0389      6197.8457      4388.9217      1808.924       1511.28        1444.5266      2633.5891      0             -3780.4717      0              0             -131.5071       104738.48      47.13774       47.13774       47.13774       0.80089805    -510.69851      328.27531      734.68367    
    335000   670000         409.55457     -387.3232       5612.3806      6205.5556      4393.6749      1811.8807      1521.6375      1417.5537      2669.8351      0             -3797.1457      0              0             -131.16622      105010.68      47.178539      47.178539      47.178539      0.79882205    -72.570898     -687.01267     -402.38604    
    335500   671000         415.30103      99.772308      6443.8322      6291.7916      4455.3226      1836.469       1482.7745      1514.9747      2625.3759      0             -3786.6561      0              0             -131.82018      104489.72      47.100392      47.100392      47.100392      0.80280475     111.23183     -33.554404      221.6395     
    336000   672000         404.62764      205.18216      6432.8307      6123.8952      4340.8192      1783.076       1496.7306      1439.5717      2684.4781      0             -3837.7043      0              0             -133.41454      103241.03      46.912017      46.912017      46.912017      0.81251461    -132.76528      560.27612      188.03563    
    336500   673000         407.43928      54.246961      6165.7767      6083.8754      4370.9823      1712.8931      1446.0964      1420.9625      2652.7679      0             -3806.9337      0              0             -133.05043      103523.56      46.954772      46.954772      46.954772      0.81029712     212.33765      108.84758     -158.44434    
    337000   674000         407.24662      486.31512      6944.215       6204.9053      4368.9154      1835.9899      1440.3904      1444.1674      2732.8127      0             -3781.3806      0              0             -132.13647      104239.61      47.062781      47.062781      47.062781      0.80473101     196.13301      1039.3895      223.42288    
    337500   675000         410.33883      279.03367      6741.8608      6315.6266      4402.0885      1913.5381      1524.6456      1509.2298      2646.2872      0             -3766.6246      0              0             -131.5042       104740.79      47.138086      47.138086      47.138086      0.80088038    -635.25781      488.89568      983.46314    
    338000   676000         411.28502      576.7346       7223.9429      6339.006       4412.2391      1926.767       1533.5061      1480.3895      2696.4218      0             -3783.5504      0              0             -130.91671      105210.82      47.208493      47.208493      47.208493      0.79730245     134.00302      545.90736      1050.2934    
    338500   677000         409.61594     -156.49721      6015.6628      6256.6398      4394.3333      1862.3065      1482.0433      1452.3013      2683.2904      0             -3755.3284      0              0             -130.45551      105582.77      47.264059      47.264059      47.264059      0.79449368    -800.53123      14.37549       316.66413    
    339000   678000         406.00171     -158.64961      5893.2342      6135.0029      4355.5601      1779.4428      1492.9887      1429.6055      2658.0718      0             -3801.2232      0              0             -131.81667      104492.51      47.100811      47.100811      47.100811      0.80278333    -75.26344      -331.42009     -69.265301    
    339500   679000         416.68223     -458.61456      5654.3661      6357.0463      4470.1401      1886.9062      1491.032       1479.9196      2678.6488      0             -3762.6941      0              0             -131.10568      105059.17      47.1858        47.1858        47.1858        0.79845331    -64.659326     -655.57616     -655.6082     
    340000   680000         419.83781     -200.28483      6041.6141      6344.1406      4503.9929      1840.1476      1501.0349      1472.6576      2715.4021      0             -3848.9469      0              0             -132.98909      103571.31      46.96199       46.96199       46.96199       0.80992357    -660.17873     -198.23359      257.55783    
    340500   681000         412.41358     -614.38579      5338.5718      6282.1193      4424.3462      1857.7731      1476.6661      1454.1162      2694.0804      0             -3767.0895      0              0             -130.8003       105304.45      47.222493      47.222493      47.222493      0.7965935     -1174.308      -924.43973      255.59033    
    341000   682000         403.33304     -84.7588        6171.5303      6299.9497      4326.9308      1973.0189      1578.4539      1468.9121      2746.9094      0             -3821.2565      0              0             -132.58229      103889.09      47.009971      47.009971      47.009971      0.80744612     15.401829      246.2887      -515.96692    
    341500   683000         410.27456     -131.36048      6082.8983      6283.7061      4401.399       1882.3072      1516.5615      1417.0655      2732.3006      0             -3783.6205      0              0             -131.40608      104819         47.149817      47.149817      47.149817      0.80028278    -650.74053      410.46995     -153.81085    
    342000   684000         415.30281      402.76522      6855.9722      6243.1589      4455.3417      1787.8171      1491.2465      1398.9725      2685.9375      0             -3788.3394      0              0             -132.02469      104327.87      47.07606       47.07606       47.07606       0.80405023     636.92039     -273.25226      844.62754    
    342500   685000         416.95369      112.85052      6348.2199      6179.5045      4473.0522      1706.4523      1466.4272      1444.6611      2688.2642      0             -3892.9003      0              0             -134.3632       102512.1       46.801349      46.801349      46.801349      0.81829213     90.661294      349.60378     -101.7135     
    343000   686000         405.63483     -103.69899      6051.015       6209.3472      4351.6242      1857.723       1527.8977      1459.3818      2705.4654      0             -3835.0219      0              0             -131.56384      104693.31      47.130962      47.130962      47.130962      0.80124361    -103.06604     -327.61043      119.5795     
    343500   687000         416.73628      222.32208      6681.49        6345.2341      4470.7199      1874.5142      1521.1683      1484.1322      2662.7507      0             -3793.537       0              0             -132.81407      103707.8       46.982609      46.982609      46.982609      0.80885765     188.74455      99.936851      378.28483    
    344000   688000         403.08258      435.66069      6824.1778      6164.5707      4324.2439      1840.3268      1496.5961      1497.2925      2676.1787      0             -3829.7405      0              0             -132.67661      103815.24      46.998828      46.998828      46.998828      0.80802054     565.19817      726.53236      15.251533    
    344500   689000         410.2765       606.31536      7136.8117      6217.9077      4401.4198      1816.4879      1495.1373      1491.3797      2661.5101      0             -3831.5392      0              0             -132.54391      103919.18      47.014509      47.014509      47.014509      0.80721233     552.29443      1055.8873      210.76438    
    345000   690000         411.96676      539.23367      6893.8829      6079.4492      4419.5528      1659.8965      1456.5716      1406.8256      2630.7333      0             -3834.2341      0              0             -133.00032      103562.57      46.960668      46.960668      46.960668      0.80999194     1022.9036      768.40349     -173.6061     
    345500   691000         408.04372     -743.4003       5134.0297      6285.2119      4377.4666      1907.7452      1522.9295      1486.678       2671.5955      0             -3773.4578      0              0             -129.72093      106180.66      47.353107      47.353107      47.353107      0.79001996    -1316.2908     -478.24949     -435.66065    
    346000   692000         403.13084      94.961524      6348.0158      6203.3063      4324.7616      1878.5447      1531.7266      1489.1033      2664.2872      0             -3806.5723      0              0             -131.82021      104489.7       47.100389      47.100389      47.100389      0.80280492    -18.879634     -784.81029      1088.5745    
    346500   693000         416.07874      211.35908      6728.5971      6406.3035      4463.6658      1942.6377      1513.9737      1512.5544      2700.4166      0             -3784.307       0              0             -131.73485      104557.4       47.11056       47.11056       47.11056       0.80228506    -261.19849      845.33096      49.944781    
    347000   694000         408.31818     -132.43861      6141.7806      6345.4631      4380.411       1965.052       1532.9454      1471.1279      2699.3211      0             -3738.3423      0              0             -130.61479      105454.02      47.244839      47.244839      47.244839      0.79546371     365.77261     -401.93073     -361.15771    
    347500   695000         408.13019     -140.97646      6040.3105      6256.3481      4378.3943      1877.9538      1543.412       1498.3495      2626.259       0             -3790.0667      0              0             -131.08368      105076.8       47.188439      47.188439      47.188439      0.79831936    -855.37171      396.13285      36.309477    
    348000   696000         404.99276     -299.4319       5719.6062      6176.7122      4344.7362      1831.976       1461.1215      1488.326       2658.9843      0             -3776.4557      0              0             -131.58684      104675.01      47.128216      47.128216      47.128216      0.80138367    -130.69962     -778.10355      10.507475    
    348500   697000         416.13025     -99.089026      6118.779       6271.3957      4464.2184      1807.1773      1495.6803      1415.7912      2649.8969      0             -3754.191       0              0             -130.42317      105608.95      47.267965      47.267965      47.267965      0.79429673    -714.91166      67.04804       350.59654    
    349000   698000         404.09708     -330.03849      5779.9725      6288.5173      4335.1273      1953.39        1485.8377      1456.6768      2751.6222      0             -3740.7467      0              0             -130.36672      105654.68      47.274787      47.274787      47.274787      0.79395295    -144.20462     -1099.2884      253.37753    
    349500   699000         410.27118      505.0877       6961.6177      6181.352       4401.3627      1779.9893      1462.3429      1409.5251      2652.5926      0             -3744.4713      0              0             -130.03361      105925.33      47.31512       47.31512       47.31512       0.79192427     180.4778       825.13189      509.65341    
    350000   700000         407.27542      239.05171      6775.2193      6406.9801      4369.2244      2037.7557      1543.0603      1465.169       2776.922       0             -3747.3956      0              0             -130.40468      105623.92      47.270199      47.270199      47.270199      0.79418412     166.0942      -97.813957      648.8749     
    350500   701000         411.18866     -271.74145      5866.7207      6284.4658      4411.2054      1873.2604      1520.9608      1454.769       2661.4463      0             -3763.9157      0              0             -130.67         105409.46      47.238184      47.238184      47.238184      0.79579995     184.27124     -306.4276      -693.06799    
    351000   702000         407.65676     -844.38378      4976.5027      6271.3505      4373.3154      1898.0351      1468.2734      1497.5514      2712.7102      0             -3780.4999      0              0             -130.99434      105148.47      47.199165      47.199165      47.199165      0.79777523    -1309.9225     -188.81168     -1034.4171    
    351500   703000         416.88431     -50.742868      6262.6633      6340.338       4472.3079      1868.0301      1455.5932      1455.9762      2686.6496      0             -3730.1888      0              0             -131.22796      104961.27      47.171139      47.171139      47.171139      0.79919805    -72.66324       673.65427     -753.21964    
    352000   704000         403.47966      333.11542      6766.8034      6258.4638      4328.5037      1929.9601      1561.1468      1470.6766      2694.5203      0             -3796.3835      0              0             -131.63525      104636.52      47.122439      47.122439      47.122439      0.80167846     19.956743      346.09171      633.29781    
    352500   705000         399.29931      470.13144      6856.5827      6134.4509      4283.6572      1850.7937      1500.5342      1415.7893      2676.4404      0             -3741.9701      0              0             -130.77785      105322.53      47.225195      47.225195      47.225195      0.79645678     627.64947      100.06775      682.6771     
    353000   706000         414.79864      22.34187       6401.1594      6366.6667      4449.933       1916.7337      1458.2945      1490.5817      2736.3161      0             -3768.4586      0              0             -130.11402      105859.87      47.305371      47.305371      47.305371      0.79241399     50.454742     -514.29442      530.86529    
    353500   707000         407.3441      -99.524632      6112.5746      6264.5866      4369.9612      1894.6254      1506.5624      1458.6128      2702.517       0             -3773.0668      0              0             -131.51762      104730.1       47.136483      47.136483      47.136483      0.80096209     4.673547       4.7076892     -307.95513    
    354000   708000         413.43217      22.54587       6344.8114      6310.1325      4435.2736      1874.8589      1481.4781      1471.614       2697.292       0             -3775.5251      0              0             -130.59718      105468.24      47.246963      47.246963      47.246963      0.79535645    -365.04363      73.829162      358.85208    
    354500   709000         403.50262     -324.53361      5595.1809      6093.2173      4328.75        1764.4672      1443.3638      1389.4849      2708.7261      0             -3777.1076      0              0             -130.89708      105226.6       47.210852      47.210852      47.210852      0.79718291     661.47675     -891.60275     -743.47483    
    355000   710000         416.25418      531.42634      7178.3869      6356.514       4465.5479      1890.966       1522.5004      1463.4583      2644.6329      0             -3739.6255      0              0             -129.88822      106043.91      47.332768      47.332768      47.332768      0.7910388      637.48464      272.76924      684.02515    
    355500   711000         411.65919     -33.588295      6203.9795      6255.7633      4416.2532      1839.5101      1472.9263      1476.251       2620.032       0             -3729.6993      0              0             -130.29424      105713.45      47.283551      47.283551      47.283551      0.79351152    -565.665        282.25804      182.64208    
    356000   712000         412.7447      -792.64284      5119.8567      6336.7836      4427.8984      1908.8852      1510.504       1447.6671      2709.3572      0             -3758.6431      0              0             -130.84117      105271.56      47.217576      47.217576      47.217576      0.7968424     -1374.1241     -474.87671     -528.92771    
    356500   713000         407.92051     -364.44599      5607.5308      6165.0329      4376.1448      1788.888       1463.5912      1461.0631      2647.9329      0             -3783.6991      0              0             -131.31614      104890.79      47.160578      47.160578      47.160578      0.79973505    -1009.9921      36.968448     -120.31437    
    357000   714000         403.62355     -293.03424      5822.3357      6272.1518      4330.0474      1942.1045      1506.1481      1550.5007      2683.3935      0             -3797.9378      0              0             -130.86234      105254.53      47.21503       47.21503       47.21503       0.79697134     82.701342     -414.89174     -546.91232    
    357500   715000         408.52708     -518.04814      5420.2653      6212.872       4382.6521      1830.2199      1441.0157      1493.6095      2689.5375      0             -3793.9428      0              0             -131.29367      104908.75      47.163269      47.163269      47.163269      0.79959819    -342.52208     -413.75888     -797.86346    
    358000   716000         410.11217     -181.02503      5960.5668      6239.9152      4399.6569      1840.2583      1456.6674      1438.7895      2665.9919      0             -3721.1905      0              0             -130.17384      105811.23      47.298125      47.298125      47.298125      0.79277825    -9.0340606     -493.33463     -40.706392    
    358500   717000         414.40365     -441.65108      5642.2598      6326.2015      4445.6956      1880.5059      1458.7127      1461.9717      2692.4975      0             -3732.676       0              0             -129.71543      106185.16      47.353776      47.353776      47.353776      0.78998647    -739.8251      -246.23974     -338.8884     
    359000   718000         402.25317      320.42863      6718.7111      6223.2661      4315.346       1907.9201      1469.666       1481.1332      2709.381       0             -3752.2601      0              0             -129.91737      106020.11      47.329228      47.329228      47.329228      0.79121633     971.65656      345.40757     -355.77824    
    359500   719000         413.4076       438.81535      6879.2851      6206.7397      4435.0101      1771.7297      1406.8901      1471.6998      2691.7659      0             -3798.6262      0              0             -131.06647      105090.6       47.190505      47.190505      47.190505      0.79821451     606.52331     -455.68305      1165.6058    
    360000   720000         415.46547      139.75015      6640.3932      6426.0276      4457.0867      1968.941       1510.8082      1529.692       2707.5648      0             -3779.124       0              0             -130.95696      105178.48      47.203655      47.203655      47.203655      0.79754761    -303.05805     -33.844778      756.15329    
    360500   721000         408.85117     -17.74656       6276.7087      6303.9796      4386.1289      1917.8507      1500.8085      1462.9012      2733.9302      0             -3779.7892      0              0             -130.72104      105368.31      47.232036      47.232036      47.232036      0.79611078     183.91435     -314.63217      77.478134    
    361000   722000         411.21068     -353.1144       5673.1842      6215.6167      4411.4416      1804.175       1428.6174      1512.338       2676.0518      0             -3812.8322      0              0             -130.76788      105330.56      47.226395      47.226395      47.226395      0.79639609    -120.68145     -474.97286     -463.68889    
    361500   723000         401.66719     -243.24631      5700.4155      6070.7473      4309.0597      1761.6876      1454.2797      1466.1246      2645.1397      0             -3803.8565      0              0             -131.9431       104392.38      47.085762      47.085762      47.085762      0.80355331    -241.75425     -780.73007      292.74537    
    362000   724000         411.65875      165.58741      6538.2987      6285.4849      4416.2485      1869.2364      1516.7614      1447.2095      2674.8825      0             -3769.617       0              0             -131.57035      104688.13      47.130186      47.130186      47.130186      0.80128321     213.64858      246.72375      36.389892    
    362500   725000         402.36779      5.1333625      6238.6208      6230.7367      4316.5756      1914.1611      1517.0238      1488.4555      2688.3456      0             -3779.6638      0              0             -130.79199      105311.14      47.223493      47.223493      47.223493      0.7965429      408.7021      -151.03434     -242.26767    
    363000   726000         411.19267     -466.92868      5573.4896      6294.4881      4411.2484      1883.2397      1483.5545      1419.9536      2728.915       0             -3749.1834      0              0             -130.09109      105878.53      47.30815       47.30815       47.30815       0.79227434    -903.69371     -436.06094     -61.031383    
    363500   727000         416.59389     -457.34777      5746.5896      6448.4491      4469.1923      1979.2568      1515.5814      1485.4516      2749.4332      0             -3771.2095      0              0             -130.8964       105227.14      47.210934      47.210934      47.210934      0.79717876    -1007.309      -836.07687      471.34254    
    364000   728000         411.05029     -575.82683      5308.5231      6183.5712      4409.721       1773.8503      1440.8577      1418.7028      2698.5889      0             -3784.2991      0              0             -132.18779      104199.14      47.05669       47.05669       47.05669       0.80504354    -289.53163     -596.29594     -841.6529     
    364500   729000         415.52647     -97.568537      6114.2152      6263.8866      4457.7411      1806.1455      1442.7524      1481.9252      2658.7234      0             -3777.2556      0              0             -130.94902      105184.86      47.204609      47.204609      47.204609      0.79749925     364.0284      -388.47724     -268.25677    
    365000   730000         408.75188     -845.60298      5030.4909      6328.0803      4385.0638      1943.0165      1511.6537      1487.0776      2695.198       0             -3750.9127      0              0             -130.90631      105219.17      47.209742      47.209742      47.209742      0.79723915     115.03237     -926.60551     -1725.2358    
    365500   731000         406.4853      -606.11333      5369.1231      6303.2937      4360.748       1942.5457      1548.3713      1446.8954      2698.2137      0             -3750.9346      0              0             -130.33439      105680.89      47.278695      47.278695      47.278695      0.79375606    -1497.3189      356.63011     -677.65123    
    366000   732000         408.64952     -970.74295      4749.2087      6229.1669      4383.9657      1845.2013      1480.4288      1462.5568      2697.8548      0             -3795.6393      0              0             -131.76078      104536.83      47.107469      47.107469      47.107469      0.80244297    -1004.0676     -528.40882     -1379.7524    
    366500   733000         412.39793      259.07124      6837.7212      6439.1583      4424.1784      2014.98        1539.2529      1445.5626      2760.8525      0             -3730.6881      0              0             -130.5731       105487.68      47.249867      47.249867      47.249867      0.79520983     934.65492     -232.06484      74.623638    
    367000   734000         414.87553     -57.471319      6226.6083      6315.0858      4450.7579      1864.328       1473.2278      1485.4797      2647.085       0             -3741.4645      0              0             -130.48163      105561.63      47.260904      47.260904      47.260904      0.79465279    -906.13064      586.58059      147.13609    
    367500   735000         412.47755     -397.77855      5697.6722      6312.8115      4425.0325      1887.7791      1443.8196      1474.6368      2713.4602      0             -3744.1375      0              0             -129.89703      106036.71      47.331698      47.331698      47.331698      0.79109246    -1039.8955     -459.31354      305.87344    
    368000   736000         414.16929     -154.53146      6115.0168      6352.9585      4443.1813      1909.7771      1499.6234      1462.0711      2700.2628      0             -3752.1802      0              0             -130.46012      105579.04      47.263503      47.263503      47.263503      0.79452175    -412.55234     -373.60046      322.55841    
    368500   737000         409.51355      546.51493      7121.204       6284.3991      4393.2349      1891.1641      1456.1085      1450.641       2719.6399      0             -3735.2253      0              0             -131.19254      104989.61      47.175384      47.175384      47.175384      0.79898234     1420.3529      106.14345      113.04846    
    369000   738000         405.18633      287.17744      6696.624       6254.6051      4346.8127      1907.7924      1491.6741      1407.8972      2744.1009      0             -3735.8798      0              0             -130.50912      105539.4       47.257587      47.257587      47.257587      0.79482016     1410.3046     -655.46699      106.69467    
    369500   739000         411.47423      220.05333      6573.9188      6236.4648      4414.269       1822.1959      1499.6399      1407.1914      2641.3639      0             -3725.9994      0              0             -130.99201      105150.33      47.199444      47.199444      47.199444      0.79776107     779.26225      355.75332     -474.85557    
    370000   740000         417.15729     -633.81476      5378.2164      6360.1794      4475.2365      1884.9429      1502.2981      1419.9774      2675.3802      0             -3712.7127      0              0             -129.65777      106232.38      47.360794      47.360794      47.360794      0.78963536    -764.57263     -775.75382     -361.11782    
    370500   741000         401.34534     -291.27538      5732.8873      6178.9872      4305.6069      1873.3803      1446.4017      1511.2309      2684.5595      0             -3768.8119      0              0             -131.16048      105015.27      47.179227      47.179227      47.179227      0.79878709    -706.74304      383.06561     -550.1487     
    371000   742000         406.23255      120.3061       6417.7527      6232.2817      4358.0366      1874.2451      1544.7772      1452.7246      2677.5967      0             -3800.8534      0              0             -130.29954      105709.16      47.28291       47.28291       47.28291       0.79354379    -209.85174     -46.356668      617.12671    
    371500   743000         407.96117      233.86765      6762.6638      6399.7667      4376.5811      2023.1856      1555.2015      1527.3433      2657.2682      0             -3716.6274      0              0             -129.45476      106398.98      47.385538      47.385538      47.385538      0.78839896    -205.93537      604.28603      303.25227    
    372000   744000         418.59059     -47.783251      6138.8513      6211.9983      4490.6128      1721.3855      1443.856       1431.3173      2617.2299      0             -3771.0177      0              0             -131.22312      104965.15      47.17172       47.17172       47.17172       0.79916853    -282.85368     -370.42792      509.93185    
    372500   745000         412.97228     -556.08848      5436.1442      6285.539       4430.3399      1855.1991      1477.0428      1500.2742      2657.3388      0             -3779.4566      0              0             -131.51208      104734.52      47.137145      47.137145      47.137145      0.80092836    -200.65756     -837.32901     -630.27887    
    373000   746000         415.53598     -418.60657      5675.718       6313.9565      4457.8431      1856.1134      1507.6853      1452.354       2665.5526      0             -3769.4785      0              0             -131.75113      104544.48      47.108619      47.108619      47.108619      0.80238423    -116.2818      -125.65908     -1013.8788    
    373500   747000         411.71185     -228.79975      6092.1934      6440.7243      4416.8181      2023.9062      1572.6347      1554.0535      2689.1975      0             -3791.9796      0              0             -131.8699       104450.32      47.094472      47.094472      47.094472      0.80310755    -844.01599      48.779857      108.83688    
    374000   748000         418.2362       111.38988      6500.8744      6330.5529      4486.811       1843.742       1508.3429      1472.9173      2617.5623      0             -3755.0805      0              0             -131.37349      104845.01      47.153715      47.153715      47.153715      0.8000843      727.35562     -19.255153     -373.93084    
    374500   749000         415.33131     -330.99523      5744.0301      6249.2035      4455.6475      1793.5561      1480.7329      1516.053       2590.7425      0             -3793.9724      0              0             -131.61719      104650.88      47.124594      47.124594      47.124594      0.80156847    -1336.0238      324.18465      18.853437    
    375000   750000         406.72681     -350.12575      5570.8801      6107.1138      4363.3389      1743.7749      1434.5482      1459.5303      2641.6359      0             -3791.9395      0              0             -131.15997      105015.68      47.179288      47.179288      47.179288      0.79878396     105.63347     -589.52534     -566.48537    
    375500   751000         416.51558      592.69103      7213.9507      6310.9488      4468.3522      1842.5966      1462.6326      1475.6786      2721.0486      0             -3816.7632      0              0             -131.84724      104468.27      47.097169      47.097169      47.097169      0.80296955     665.36741      701.61855      411.08713    
    376000   752000         408.67325      1118.5848      7846.6391      6150.0176      4384.2202      1765.7974      1502.6261      1473.6723      2627.5784      0             -3838.0793      0              0             -132.43882      104001.63      47.02694       47.02694       47.02694       0.80657235     1360.2334      672.0366       1323.4843    
    376500   753000         405.1791       131.91334      6500.3         6299.1123      4346.7352      1952.3771      1504.3866      1500.8972      2697.0315      0             -3749.9381      0              0             -131.70994      104577.18      47.11353       47.11353       47.11353       0.80213334     608.50618     -20.876934     -191.88922    
    377000   754000         419.23428      634.68197      7301.5768      6331.2399      4497.5182      1833.7217      1459.9781      1429.5513      2732.0946      0             -3787.9023      0              0             -131.39081      104831.19      47.151643      47.151643      47.151643      0.80018979     322.41278      314.92268      1266.7104    
    377500   755000         402.9362      -333.93499      5570.6382      6081.1447      4322.6735      1758.4712      1408.8157      1469.5777      2651.2297      0             -3771.1519      0              0             -131.39899      104824.65      47.150664      47.150664      47.150664      0.80023963    -348.14759      20.719882     -674.37725    
    378000   756000         408.81766     -69.283382      6142.9006      6249.2318      4385.7694      1863.4623      1512.757       1456.1294      2695.6459      0             -3801.0699      0              0             -130.88807      105233.84      47.211936      47.211936      47.211936      0.79712801     334.48967     -272.77608     -269.56373    
    378500   757000         411.37304     -264.91314      5958.4652      6363.0494      4413.1833      1949.866       1486.5473      1463.975       2750.2161      0             -3750.8724      0              0             -131.53036      104719.96      47.134962      47.134962      47.134962      0.80103966    -361.60582     -457.49285      24.359255    
    379000   758000         406.08045     -307.02458      5696.5945      6160.8804      4356.4048      1804.4756      1456.932       1480.2496      2674.1359      0             -3806.8419      0              0             -132.83698      103689.91      46.979908      46.979908      46.979908      0.8089972     -437.21871     -232.96325     -250.89179    
    379500   759000         416.75666      549.3146       7152.5379      6318.5957      4470.9385      1847.6572      1439.0953      1497.1361      2689.5629      0             -3778.1371      0              0             -132.31728      104097.17      47.041335      47.041335      47.041335      0.80583213     1029.9045     -211.73187      829.77115    
    380000   760000         410.66064      245.81698      6660.6829      6283.5686      4405.5408      1878.0279      1445.6326      1492.6294      2728.6222      0             -3788.8564      0              0             -130.93937      105192.61      47.205769      47.205769      47.205769      0.79744047     242.30219      80.432846      414.71589    
    380500   761000         418.24288      22.63629       6438.0397      6402.8932      4486.8826      1916.0107      1508.5748      1463.2608      2657.3349      0             -3713.1599      0              0             -129.37649      106463.34      47.395092      47.395092      47.395092      0.7879223     -277.79795      538.75048     -193.04366    
    381000   762000         407.82672      483.52282      6971.1649      6224.8373      4375.1387      1849.6986      1454.7227      1441.3609      2699.6673      0             -3746.0522      0              0             -130.1424       105836.79      47.301932      47.301932      47.301932      0.79258683     473.103        377.55357      599.91188    
    381500   763000         405.38892     -353.18903      5721.8981      6269.5896      4348.9861      1920.6035      1493.0851      1435.5755      2728.3863      0             -3736.4434      0              0             -129.53959      106329.3       47.375193      47.375193      47.375193      0.78891558    -1923.1682      630.44678      233.15437    
    382000   764000         416.7104      -42.858379      6239.4682      6306.0626      4470.4422      1835.6204      1423.9834      1446.1262      2697.4838      0             -3731.973       0              0             -129.27944      106543.27      47.406949      47.406949      47.406949      0.78733122     290.74335      127.12163     -546.44012    
    382500   765000         405.75345      106.51114      6428.8679      6265.446       4352.8968      1912.5492      1411.9305      1517.5708      2729.2359      0             -3746.188       0              0             -130.92304      105205.73      47.207731      47.207731      47.207731      0.79734103     494.41862     -79.344686     -95.540508    
    383000   766000         411.89612      317.95173      6838.8333      6345.0789      4418.795       1926.2839      1477.5528      1469.7259      2706.1299      0             -3727.1247      0              0             -129.3545       106481.44      47.397777      47.397777      47.397777      0.7877884     -321.00237      735.52571      539.33186    
    383500   767000         406.44732      549.80955      7184.5369      6338.7386      4360.3405      1978.398       1506.9071      1488.2137      2729.6258      0             -3746.3486      0              0             -130.58005      105482.07      47.249029      47.249029      47.249029      0.79525214     498.16207      403.82573      747.44085    
    384000   768000         406.8072       328.34667      6769.5688      6264.1242      4364.2013      1899.9229      1463.9157      1436.5994      2730.1366      0             -3730.7288      0              0             -130.49395      105551.67      47.259418      47.259418      47.259418      0.79472777     151.75683      1156.7197     -323.43648    
    384500   769000         418.20824      420.47744      7034.3255      6394.2058      4486.511       1907.6948      1444.9846      1518.7315      2721.0576      0             -3777.0788      0              0             -131.95106      104386.08      47.084815      47.084815      47.084815      0.80360179     873.15557     -70.731285      459.00802    
    385000   770000         413.22085     -122.14478      6198.3618      6385.1907      4433.0066      1952.1841      1483.5235      1477.8769      2759.5657      0             -3768.782       0              0             -131.32951      104880.12      47.158978      47.158978      47.158978      0.79981645     489.14087     -90.565669     -765.00954    
    385500   771000         409.81676     -481.48323      5540.4273      6275.7691      4396.4877      1879.2814      1470.7391      1443.4589      2737.4857      0             -3772.4024      0              0             -131.52953      104720.62      47.13506       47.13506       47.13506       0.80103464    -931.64039     -686.48566      173.67637    
    386000   772000         409.15887      618.15792      7188.8568      6255.9598      4389.4299      1866.5298      1474.12        1501.1842      2688.5881      0             -3797.3623      0              0             -133.10583      103480.47      46.948256      46.948256      46.948256      0.81063455     409.30292      631.35538      813.81546    
    386500   773000         408.33399      139.39983      6593.4006      6379.2329      4380.5806      1998.6523      1477.5058      1496.2675      2751.7748      0             -3726.8958      0              0             -130.74936      105345.48      47.228624      47.228624      47.228624      0.7962833     -127.87279     -56.324008      602.3963     
    387000   774000         408.4114       542.99391      7217.369       6387.3806      4381.4112      2005.9695      1496.8716      1540.5592      2728.9156      0             -3760.3768      0              0             -131.41784      104809.62      47.14841       47.14841       47.14841       0.8003544      608.4917       818.08036      202.40966    
    387500   775000         401.08975      315.89639      6711.2863      6221.8062      4302.8649      1918.9413      1445.8322      1499.1868      2701.6582      0             -3727.7359      0              0             -129.64059      106246.46      47.362886      47.362886      47.362886      0.78953071     593.89202      32.523136      321.27401    
    388000   776000         410.75571      554.01142      7204.2632      6355.7725      4406.5607      1949.2117      1503.0536      1533.3871      2685.2246      0             -3772.4535      0              0             -131.16048      105015.28      47.179228      47.179228      47.179228      0.79878705     1137.6579      449.07836      75.297969    
    388500   777000         411.4713       264.98456      6731.1512      6320.7294      4414.2375      1906.4918      1471.3336      1470.3346      2681.5083      0             -3716.6846      0              0             -129.69447      106202.32      47.356327      47.356327      47.356327      0.78985883     209.6347       740.72185     -155.40289    
    389000   778000         408.74981     -69.272262      6214.8033      6322.0001      4385.0415      1936.9586      1451.4083      1495.6904      2709.1568      0             -3719.2969      0              0             -129.81012      106107.71      47.342259      47.342259      47.342259      0.79056317    -419.5616      -482.32582      694.07063    
    389500   779000         413.36242      19.477014      6322.5448      6292.6963      4434.5253      1858.171       1458.5993      1483.891       2677.0061      0             -3761.3253      0              0             -131.07847      105080.98      47.189065      47.189065      47.189065      0.7982876      246.16474     -187.4988      -0.23490007   
    390000   780000         408.12277      721.14971      7305.9809      6201.4538      4378.3147      1823.1391      1469.516       1470.9739      2678.9397      0             -3796.2905      0              0             -131.15366      105020.74      47.180045      47.180045      47.180045      0.79874554     753.91646      1625.9537     -216.42106    
    390500   781000         413.05921      166.49107      6520.6433      6267.4923      4431.2725      1836.2198      1469.3649      1482.6324      2665.8138      0             -3781.5913      0              0             -132.11211      104258.83      47.065674      47.065674      47.065674      0.80458265     449.72176      435.5722      -385.82075    
    391000   782000         406.29379      52.740107      6274.1817      6193.9462      4358.6936      1835.2526      1438.8202      1547.0179      2687.7539      0             -3838.3394      0              0             -132.03999      104315.77      47.074241      47.074241      47.074241      0.80414342    -61.198029     -147.94707      367.36542    
    391500   783000         411.0618      -165.82041      6102.043       6353.4518      4409.8444      1943.6073      1460.0755      1577.5679      2726.6411      0             -3820.6772      0              0             -132.49177      103960.07      47.020674      47.020674      47.020674      0.80689483    -310.99438      75.10512      -261.57198    
    392000   784000         410.00606      257.4446       6442.9076      6051.5704      4398.5185      1653.0519      1364.0633      1447.1144      2637.9279      0             -3796.0537      0              0             -132.14906      104229.68      47.061287      47.061287      47.061287      0.80480767     671.80415      151.14341     -50.613766    
    392500   785000         412.5227       126.87125      6544.4004      6349.6322      4425.5168      1924.1154      1477.4542      1513.3885      2720.4838      0             -3787.2111      0              0             -130.85085      105263.77      47.216411      47.216411      47.216411      0.79690139     109.05434      59.495361      212.06406    
    393000   786000         407.6871      -190.37478      6004.883       6297.2197      4373.6409      1923.5788      1479.6831      1511.0424      2695.794       0             -3762.9406      0              0             -130.81496      105292.65      47.220729      47.220729      47.220729      0.79668278     350.15285     -230.31432     -690.96285    
    393500   787000         417.04792     -277.04339      5847.8021      6274.8646      4474.0632      1800.8014      1463.9222      1421.4277      2675.6947      0             -3760.2432      0              0             -130.31302      105698.22      47.28128       47.28128       47.28128       0.79362588     513.30077     -1226.4297     -118.00122    
    394000   788000         416.06418     -230.38232      6000.5888      6353.96        4463.5097      1890.4503      1487.8816      1462.213       2696.3187      0             -3755.9631      0              0             -130.96324      105173.43      47.2029        47.2029        47.2029        0.79758585    -616.49769      233.22363     -307.8729     
    394500   789000         405.35851     -375.57788      5610.0135      6191.0827      4348.6599      1842.4228      1459.6609      1501.2114      2620.6011      0             -3739.0507      0              0             -129.83852      106084.5       47.338807      47.338807      47.338807      0.79073612    -88.59579      -461.87616     -576.26167    
    395000   790000         402.3853      -87.950617      5998.8263      6133.3415      4316.7635      1816.578       1418.812       1506.7469      2658.1416      0             -3767.1225      0              0             -131.34054      104871.31      47.157658      47.157658      47.157658      0.79988364     349.12347     -838.79699      225.82167    
    395500   791000         410.55632      283.39748      6846.0625      6408.8066      4404.4217      2004.3849      1507.4239      1514.4467      2707.777       0             -3725.2627      0              0             -130.1942       105794.68      47.295659      47.295659      47.295659      0.79290227     615.42926      134.83769      99.925481    
    396000   792000         418.19323      228.14446      6631.8122      6281.5825      4486.35        1795.2326      1419.9391      1426.1836      2732.4064      0             -3783.2965      0              0             -130.8544       105260.91      47.215984      47.215984      47.215984      0.79692302    -450.69596      592.83669      542.29265    
    396500   793000         407.34129      249.83775      6552.3264      6163.324       4369.931       1793.393       1464.2748      1421.7811      2626.2596      0             -3718.9225      0              0             -129.01407      106762.42      47.43943       47.43943       47.43943       0.78571512    -1275.9465      1521.5511      503.90866    
    397000   794000         410.42195     -735.98025      5093.8719      6224.0428      4402.9802      1821.0626      1428.0804      1475.2025      2675.2849      0             -3757.5052      0              0             -130.81375      105293.62      47.220874      47.220874      47.220874      0.79667543     129.03027     -946.63483     -1390.3362    
    397500   795000         403.6611      -592.76862      5418.7114      6329.1782      4330.4502      1998.7281      1535.4249      1458.9264      2751.5087      0             -3747.1318      0              0             -130.78335      105318.1       47.224533      47.224533      47.224533      0.79649028    -1127.1569      183.52064     -834.6696     
    398000   796000         418.13005     -186.67103      6064.4365      6347.3086      4485.6722      1861.6364      1452.7278      1509.3241      2691.9331      0             -3792.3486      0              0             -132.56176      103905.18      47.012398      47.012398      47.012398      0.80732108    -437.91921     -402.12591      280.03203    
    398500   797000         399.14848     -810.18868      4769.6567      5995.9337      4282.0391      1713.8945      1387.3796      1474.4421      2690.3982      0             -3838.3254      0              0             -132.71774      103783.07      46.993974      46.993974      46.993974      0.808271      -1261.1884     -357.64933     -811.7283     
    399000   798000         409.25492      123.53375      6386.9967      6199.3847      4390.4604      1808.9243      1470.8945      1495.1152      2650.4072      0             -3807.4926      0              0             -132.26848      104135.57      47.047119      47.047119      47.047119      0.80553497     149.10177     -63.488284      284.98777    
    399500   799000         418.28885      200.5021       6485.4166      6182.2931      4487.3757      1694.9174      1449.2342      1466.381       2618.1096      0             -3838.8074      0              0             -132.87116      103663.23      46.975879      46.975879      46.975879      0.80920537     988.92724     -436.85183      49.430876    
    400000   800000         410.442       -336.94062      5654.9146      6163.6494      4403.1952      1760.4541      1481.1745      1480.1383      2605.7133      0             -3806.572       0              0             -133.0434       103529.03      46.955598      46.955598      46.955598      0.81025434    -480.64614     -222.47537     -307.70033    
    400500   801000         405.54236     -313.01859      5531.3686      6006.6435      4350.6323      1656.0112      1444.8766      1445.3668      2606.5216      0             -3840.7538      0              0             -132.299        104111.55      47.043501      47.043501      47.043501      0.80572085    -539.79183     -156.99214     -242.2718     
    401000   802000         404.8556      -119.69919      6035.6253      6218.5913      4343.2647      1875.3265      1509.2813      1467.1825      2678.4014      0             -3779.5386      0              0             -131.41723      104810.11      47.148483      47.148483      47.148483      0.80035068     498.34362     -296.95385     -560.48735    
    401500   803000         405.9278       308.88165      6549.8837      6084.9924      4354.7672      1730.2252      1458.6696      1426.1264      2696.7779      0             -3851.3487      0              0             -133.46642      103200.89      46.905937      46.905937      46.905937      0.8128306      286.66062      457.14436      182.83997    
    402000   804000         411.92619     -798.12504      5110.7509      6341.0057      4419.1176      1921.8882      1478.5342      1530.514       2666.7882      0             -3753.9482      0              0             -130.31884      105693.5       47.280575      47.280575      47.280575      0.79366136    -1708.2623      27.122647     -713.23546    
    402500   805000         415.98474     -134.07988      6125.7403      6331.2647      4462.6574      1868.6073      1504.3327      1504.6076      2644.299       0             -3784.632       0              0             -131.04835      105105.13      47.192679      47.192679      47.192679      0.7981042     -461.44361     -34.392038      93.596009    
    403000   806000         405.97235     -198.85025      5872.4946      6177.6755      4355.2451      1822.4303      1503.0086      1465.0066      2623.6986      0             -3769.2835      0              0             -130.8881       105233.82      47.211932      47.211932      47.211932      0.79712822    -185.3548       42.437129     -453.63308    
    403500   807000         410.43899      455.14637      6900.2442      6212.5114      4403.1629      1809.3485      1481.0638      1489.7019      2647.2733      0             -3808.6905      0              0             -132.94216      103607.87      46.967515      46.967515      46.967515      0.80963774     659.88731      905.44159     -199.88978    
    404000   808000         411.84575     -59.139775      6221.2569      6311.7376      4418.2546      1893.483       1521.2849      1483.7515      2700.0172      0             -3811.5707      0              0             -131.29716      104905.96      47.162851      47.162851      47.162851      0.79961946     255.09609     -478.3154       45.799984    
    404500   809000         408.90548      125.78721      6437.9784      6244.6609      4386.7116      1857.9494      1441.1095      1517.0916      2654.1111      0             -3754.3628      0              0             -130.70637      105380.13      47.233802      47.233802      47.233802      0.79602147    -311.82888      490.81482      198.37568    
    405000   810000         415.99631      963.67929      7917.268       6437.2708      4462.7815      1974.4893      1523.1971      1544.037       2675.8425      0             -3768.5873      0              0             -130.79857      105305.85      47.222702      47.222702      47.222702      0.79658296     922.65978      1610.7993      357.57877    
    405500   811000         410.57697      12.166542      6413.3553      6394.7555      4404.6432      1990.1123      1513.4252      1501.4401      2738.4798      0             -3763.2328      0              0             -131.39863      104824.94      47.150708      47.150708      47.150708      0.80023742     1202.3161     -530.46742     -635.34908    
    406000   812000         403.63724      1099.8776      7807.8446      6131.907       4330.1943      1801.7127      1465.1599      1424.3295      2731.1274      0             -3818.9042      0              0             -131.83109      104481.08      47.099093      47.099093      47.099093      0.80287117     1548.3872      1352.1269      399.11849    
    406500   813000         407.39058     -469.84443      5581.0034      6302.1224      4370.4598      1931.6626      1496.3449      1509.3745      2690.5073      0             -3764.5642      0              0             -130.88157      105239.06      47.212717      47.212717      47.212717      0.79708847    -627.97498     -652.1112      -129.4471     
    407000   814000         408.87812      7.2152935      6211.452       6200.2864      4386.4181      1813.8683      1457.6601      1418.9701      2671.4513      0             -3734.2132      0              0             -129.80862      106108.93      47.342441      47.342441      47.342441      0.79055405    -576.60491      495.44285      102.80793    
    407500   815000         409.30376     -371.74068      5833.6487      6410.8545      4390.9843      2019.8702      1559.9326      1506.1777      2678.3372      0             -3724.5773      0              0             -129.37214      106466.92      47.395623      47.395623      47.395623      0.78789583     35.841176      167.8425      -1318.9057    
    408000   816000         402.11473     -51.687198      6133.2939      6212.1816      4313.8608      1898.3208      1473.212       1458.2837      2753.7042      0             -3786.8792      0              0             -131.61485      104652.73      47.124873      47.124873      47.124873      0.80155425     444.11644      99.460592     -698.63863    
    408500   817000         415.56984     -430.2478       5739.0884      6400.3476      4458.2064      1942.1412      1537.3494      1496.7222      2651.4277      0             -3743.3581      0              0             -130.70083      105384.6       47.23447       47.23447       47.23447       0.79598771    -427.8806      -206.33173     -656.53107    
    409000   818000         410.55871     -85.573474      6036.7228      6167.2116      4404.4473      1762.7643      1434.3842      1413.0443      2699.5449      0             -3784.2091      0              0             -131.73386      104558.19      47.110678      47.110678      47.110678      0.80227901     21.818369      411.64123     -690.18003    
    409500   819000         408.16106      106.48294      6394.8214      6232.9588      4378.7254      1854.2334      1479.4135      1466.4047      2689.9324      0             -3781.5173      0              0             -132.14927      104229.51      47.061262      47.061262      47.061262      0.80480895    -165.94913      360.52323      124.87471    
    410000   820000         416.49957     -195.92812      6083.5325      6379.5506      4468.1805      1911.3702      1503.9781      1497.3704      2738.0375      0             -3828.0159      0              0             -132.95656      103596.64      46.965819      46.965819      46.965819      0.80972549    -859.97176      315.11815     -42.930754    
    410500   821000         410.00812      157.87554      6565.0457      6321.0054      4398.5406      1922.4648      1525.9628      1417.1484      2715.8187      0             -3736.4651      0              0             -129.95249      105991.46      47.324964      47.324964      47.324964      0.7914302      340.9023      -6.3850587      139.10939    
    411000   822000         418.58319     -87.766001      6423.2318      6557.8258      4490.5334      2067.2924      1560.5606      1534.8293      2724.3378      0             -3752.4353      0              0             -130.98812      105153.46      47.199912      47.199912      47.199912      0.79773738     396.05984     -263.23153     -396.12632    
    411500   823000         400.68633     -597.40799      5423.4826      6347.7185      4298.5371      2049.1815      1511.4018      1524.1627      2731.14        0             -3717.523       0              0             -129.84329      106080.6       47.338227      47.338227      47.338227      0.7907652     -839.03967     -265.14449     -688.03981    
    412000   824000         412.19176      300.66854      6816.9184      6351.6315      4421.9666      1929.6649      1494.6946      1470.9826      2718.5828      0             -3754.595       0              0             -129.80713      106110.15      47.342622      47.342622      47.342622      0.79054499    -212.61503      435.57926      679.04139    
    412500   825000         406.11809      58.376991      6386.0563      6296.1332      4356.8086      1939.3247      1496.8827      1479.3861      2670.4547      0             -3707.3988      0              0             -130.40726      105621.83      47.269887      47.269887      47.269887      0.79419984     389.27731      138.09082     -352.23716    
    413000   826000         410.67811      104.19604      6427.7697      6266.8014      4405.7283      1861.0731      1462.4562      1457.1352      2681.2772      0             -3739.7955      0              0             -130.0296       105928.61      47.315608      47.315608      47.315608      0.79189981     504.74312      990.49022     -1182.6452    
    413500   827000         412.5523      -61.823216      6215.4771      6310.9826      4425.8345      1885.1481      1484.336       1446.0813      2696.1205      0             -3741.3897      0              0             -130.03335      105925.55      47.315153      47.315153      47.315153      0.79192265     555.82818     -365.60075     -375.69708    
    414000   828000         406.528       -449.68749      5724.1495      6420.8681      4361.2061      2059.662       1505.7525      1475.7771      2770.0453      0             -3691.9129      0              0             -129.65365      106235.76      47.361296      47.361296      47.361296      0.78961022    -1771.2883      402.82615      19.39971     
    414500   829000         409.87023      384.85235      6938.5532      6347.8301      4397.0613      1950.7688      1446.031       1456.2948      2785.626       0             -3737.183       0              0             -130.87043      105248.02      47.214056      47.214056      47.214056      0.79702063     367.16328      821.57419     -34.180428    
    415000   830000         410.61321      280.57014      6653.5367      6226.664       4405.0319      1821.632       1462.9687      1422.3928      2704.7051      0             -3768.4346      0              0             -132.03053      104323.25      47.075365      47.075365      47.075365      0.80408581     565.07193     -177.08087      453.71936    
    415500   831000         419.22         447.0766       7161.2922      6470.8665      4497.365       1973.5014      1475.3559      1485.3195      2727.5112      0             -3714.6851      0              0             -130.07575      105891.02      47.31001       47.31001       47.31001       0.7921809      539.35915      409.11564      392.75501    
    416000   832000         405.2292       511.78082      7063.848       6284.8312      4347.2727      1937.5585      1462.5041      1510.2783      2740.5775      0             -3775.8014      0              0             -131.96798      104372.7       47.082802      47.082802      47.082802      0.80370485     336.07083      260.62527      938.64636    
    416500   833000         402.2871       469.83519      7078.9825      6363.7059      4315.7101      2047.9958      1502.6785      1570.0869      2771.496       0             -3796.2655      0              0             -131.94803      104388.48      47.085175      47.085175      47.085175      0.80358336    -304.95839      1306.9344      407.52951    
    417000   834000         400.05354     -1144.0447      4462.5594      6211.9416      4291.7485      1920.1931      1474.0303      1528.1016      2707.4013      0             -3789.3401      0              0             -131.36802      104849.37      47.154369      47.154369      47.154369      0.800051      -1845.4343     -1013.2103     -573.48958    
    417500   835000         418.55373     -399.56013      5732.73        6336.8697      4490.2173      1846.6524      1467.6438      1463.5321      2747.7682      0             -3832.2916      0              0             -132.85445      103676.27      46.977849      46.977849      46.977849      0.80910358    -666.34393      147.84594     -680.1824     
    418000   836000         410.5316      -235.49884      5950.3558      6311.0839      4404.1564      1906.9275      1465.9375      1482.6734      2750.0229      0             -3791.7063      0              0             -131.1415       105030.48      47.181504      47.181504      47.181504      0.79867145    -612.39832     -378.49028      284.39207    
    418500   837000         413.08356     -122.3879       6090.0036      6277.71        4431.5337      1846.1763      1429.4419      1487.9683      2702.9667      0             -3774.2006      0              0             -130.9757       105163.43      47.201404      47.201404      47.201404      0.79766173    -16.42513       159.68887     -510.42745    
    419000   838000         411.57601      668.33053      7400.8987      6376.7991      4415.3608      1961.4383      1467.6621      1497.7276      2744.6384      0             -3748.5898      0              0             -131.0933       105069.09      47.187285      47.187285      47.187285      0.79837792     924.85975     -73.926089      1154.0579    
    419500   839000         410.64586     -452.13309      5521.6462      6209.2247      4405.3823      1803.8424      1463.3365      1446.4484      2724.0288      0             -3829.9713      0              0             -132.09164      104274.98      47.068105      47.068105      47.068105      0.80445798    -432.29541     -173.94043     -750.16345    
    420000   840000         407.39704      29.634242      6350.6622      6305.4782      4370.5291      1934.9491      1498.9411      1463.6617      2779.8024      0             -3807.4561      0              0             -131.7467       104548         47.109147      47.109147      47.109147      0.80235725     45.582041     -442.67453      485.99522    
    420500   841000         408.96618     -115.52909      6128.0502      6305.7525      4387.3627      1918.3898      1554.8914      1423.9475      2679.1007      0             -3739.5499      0              0             -130.59592      105469.26      47.247115      47.247115      47.247115      0.79534878    -843.49295      200.04396      296.86171    
    421000   842000         409.70228     -107.97152      6181.2163      6346.3426      4395.2596      1951.0831      1509.9998      1484.1709      2763.6064      0             -3806.6941      0              0             -131.34825      104865.15      47.156734      47.156734      47.156734      0.79993063     771.77788     -851.79777     -243.89466    
    421500   843000         406.67143     -655.8886       5291.3526      6292.5661      4362.7448      1929.8213      1568.3604      1443.6205      2724.5329      0             -3806.6924      0              0             -131.5936       104669.64      47.12741       47.12741       47.12741       0.80142482    -1034.2847      80.963121     -1014.3442    
    422000   844000         415.2661       218.69567      6608.1322      6273.6493      4454.9479      1818.7014      1472.6375      1456.586       2675.41        0             -3785.9321      0              0             -131.3402       104871.58      47.157699      47.157699      47.157699      0.79988155     139.81027      157.71451      358.56224    
    422500   845000         412.19531      101.18731      6370.8559      6216.6907      4422.0047      1794.686       1532.0572      1404.5597      2662.7353      0             -3804.6662      0              0             -131.84719      104468.32      47.097176      47.097176      47.097176      0.80296921     68.563433      349.98376     -114.98526    
    423000   846000         421.21413      251.89619      6818.5614      6431.7785      4518.758       1913.0206      1509.2136      1469.3617      2666.0941      0             -3731.6489      0              0             -130.82349      105285.79      47.219703      47.219703      47.219703      0.79673475     483.99845      481.99769     -210.30756    
    423500   847000         408.70487     -1044.2883      4598.3307      6222.1839      4384.5594      1837.6245      1455.1496      1441.501       2664.07        0             -3723.0961      0              0             -129.18289      106622.89      47.418756      47.418756      47.418756      0.78674326    -1287.1925     -820.29319     -1025.3792    
    424000   848000         412.24123      405.51565      6905.7841      6289.6795      4422.4973      1867.1822      1510.1096      1457.9256      2699.3249      0             -3800.1778      0              0             -132.21616      104176.78      47.053325      47.053325      47.053325      0.80521629     993.25551     -116.04973      339.34116    
    424500   849000         413.12174     -190.93855      6041.2009      6332.8501      4431.9433      1900.9068      1519.0931      1461.5496      2685.7939      0             -3765.5298      0              0             -131.51163      104734.87      47.137199      47.137199      47.137199      0.80092561    -389.94813     -76.04573      -106.82178    
    425000   850000         398.58061     -240.87293      5790.0872      6159.6072      4275.947       1883.6602      1520.6588      1455.054       2669.6285      0             -3761.6811      0              0             -130.94273      105189.91      47.205365      47.205365      47.205365      0.79746094    -1168.4712      168.60348      277.24894    
    425500   851000         403.39478      306.80333      6671.5665      6199.7487      4327.5931      1872.1556      1461.0223      1484.3441      2679.8347      0             -3753.0455      0              0             -130.62225      105447.99      47.243939      47.243939      47.243939      0.79550916     328.26114      387.4642       204.68465    
    426000   852000         414.36293     -800.69401      5083.3261      6301.1311      4445.2588      1855.8724      1475.5329      1463.4285      2690.114       0             -3773.2031      0              0             -132.07487      104288.23      47.070098      47.070098      47.070098      0.80435581    -1510.2033     -961.02784      69.149093    
    426500   853000         417.49752      40.99894       6491.3477      6428.8084      4478.8864      1949.922       1537.6245      1507.363       2679.4951      0             -3774.5605      0              0             -131.68946      104593.44      47.115972      47.115972      47.115972      0.80200862    -312.65151      492.32159     -56.673255    
    427000   854000         413.01594      37.560983      6356.2846      6298.3156      4430.8083      1867.5073      1424.6155      1418.2772      2753.2097      0             -3728.5951      0              0             -130.15856      105823.65      47.299975      47.299975      47.299975      0.79268521     437.25416     -286.20125     -38.369968    
    427500   855000         409.76114     -223.04604      5916.9515      6258.0279      4395.891       1862.1369      1471.7783      1462.1894      2714.5482      0             -3786.379       0              0             -131.36333      104853.11      47.154931      47.154931      47.154931      0.80002244     143.51253     -339.37036     -473.28028    
    428000   856000         408.52448      118.29675      6569.6378      6388.457       4382.6242      2005.8327      1469.1986      1497.2071      2777.3841      0             -3737.957       0              0             -131.15711      105017.98      47.179632      47.179632      47.179632      0.79876652     90.78113       494.77383     -230.6647     
    428500   857000         405.59045     -8.3720158      6325.7041      6338.5329      4351.1482      1987.3847      1493.3024      1499.4365      2750.6811      0             -3756.0354      0              0             -131.09237      105069.84      47.187397      47.187397      47.187397      0.79837224    -373.222       -682.62636      1030.7323    
    429000   858000         406.28502     -223.1779       5814.1163      6155.8159      4358.5995      1797.2164      1465.7331      1392.5866      2726.7783      0             -3787.8816      0              0             -131.2013       104982.6       47.174334      47.174334      47.174334      0.79903565    -857.64811      143.23261      44.881804    
    429500   859000         414.24776     -717.78971      5237.8119      6343.9267      4444.0232      1899.9035      1460.2235      1445.7185      2710.4341      0             -3716.4726      0              0             -130.3552       105664.01      47.276179      47.276179      47.276179      0.7938828     -218.29336     -1286.425      -648.65076    
    430000   860000         412.74625      233.9157       6722.5556      6367.4487      4427.9151      1939.5336      1523.302       1462.8726      2732.7678      0             -3779.4088      0              0             -132.32188      104093.55      47.040789      47.040789      47.040789      0.80586018    -393.07085      222.30662      872.51133    
    430500   861000         409.90551     -177.47702      6077.2626      6348.8635      4397.4398      1951.4237      1471.2544      1460.4445      2744.3341      0             -3724.6093      0              0             -131.26299      104933.26      47.166943      47.166943      47.166943      0.79941136    -690.27371      123.02072      34.821922    
    431000   862000         412.32806      94.140063      6468.5551      6323.6358      4423.4288      1900.207       1427.8557      1477.5128      2736.4552      0             -3741.6167      0              0             -130.49068      105554.31      47.259812      47.259812      47.259812      0.7947079     -64.025547      258.01371      88.432024    
    431500   863000         411.97288      23.681687      6442.9927      6406.6959      4419.6184      1987.0775      1471.9713      1449.7976      2820.307       0             -3754.9983      0              0             -131.06195      105094.22      47.191047      47.191047      47.191047      0.79818701     226.51239      462.27727     -617.74459    
    432000   864000         411.00882      137.17908      6719.6434      6504.702       4409.2761      2095.4259      1528.9627      1475.3782      2779.9743      0             -3688.8893      0              0             -128.20329      107437.6       47.539225      47.539225      47.539225      0.78077735     54.794293     -40.739615      397.48257    
    432500   865000         406.48576      306.90545      6805.2314      6329.9856      4360.753       1969.2326      1476.8748      1498.6644      2705.8391      0             -3712.1457      0              0             -129.72322      106178.79      47.352828      47.352828      47.352828      0.7900339      429.57116      237.22701      253.91818    
    433000   866000         412.37864      216.82597      6786.8971      6450.6745      4423.9714      2026.703       1537.5807      1421.3587      2768.5728      0             -3700.8092      0              0             -129.54352      106326.08      47.374713      47.374713      47.374713      0.78893953     214.33274      440.58234     -4.4371528    
    433500   867000         409.37665      35.861414      6449.7549      6394.6356      4391.7663      2002.8693      1462.7806      1485.7731      2763.2148      0             -3708.8992      0              0             -130.69389      105390.19      47.235306      47.235306      47.235306      0.79594543     356.23544     -595.05656      346.40536    
    434000   868000         420.05033      268.67968      6708.9771      6299.4966      4506.2728      1793.2238      1443.3073      1405.3372      2745.527       0             -3800.9477      0              0             -131.80533      104501.49      47.102161      47.102161      47.102161      0.80271429     232.45257      11.330118      562.25634    
    434500   869000         406.37659     -235.8725       5881.5108      6244.8838      4359.5818      1885.302       1407.1252      1477.1891      2732.0595      0             -3731.0718      0              0             -130.39351      105632.97      47.271549      47.271549      47.271549      0.79411608     103.70491     -271.78926     -539.53315    
    435000   870000         404.79857     -391.70762      5670.1507      6266.7115      4342.6529      1924.0587      1505.5095      1510.9832      2687.4258      0             -3779.8598      0              0             -131.89814      104427.96      47.091111      47.091111      47.091111      0.80327953    -299.83753      75.114698     -950.40003    
    435500   871000         410.12882     -151.91531      6080.5384      6312.3966      4399.8354      1912.5612      1493.4071      1490.763       2683.5913      0             -3755.2002      0              0             -131.61653      104651.4       47.124673      47.124673      47.124673      0.80156446    -232.39292     -527.19566      303.84263    
    436000   872000         413.54839     -690.72849      5174.4754      6228.7101      4436.5204      1792.1897      1424.7137      1494.0882      2670.2187      0             -3796.8309      0              0             -131.6138       104653.57      47.124999      47.124999      47.124999      0.80154782    -533.57566     -739.0322      -799.57761    
    436500   873000         408.66349      704.95675      7292.9049      6228.0795      4384.1155      1843.9639      1414.4968      1488.8634      2756.1523      0             -3815.5485      0              0             -132.98891      103571.45      46.962011      46.962011      46.962011      0.80992246     492.59997      716.56662      905.70365    
    437000   874000         413.30996     -297.2915       6002.0326      6458.249       4433.9626      2024.2865      1512.1757      1511.0962      2763.5313      0             -3762.5168      0              0             -130.90097      105223.47      47.210384      47.210384      47.210384      0.79720663    -680.3471       509.6486      -721.17598    
    437500   875000         412.32401     -1035.126       4783.6704      6372.0738      4423.3854      1948.6884      1469.5898      1526.794       2715.3685      0             -3763.0639      0              0             -130.90728      105218.4       47.209626      47.209626      47.209626      0.79724502    -595.62493     -1165.3913     -1344.3619    
    438000   876000         411.32845     -342.44194      5790.3059      6313.1365      4412.705       1900.4314      1489.713       1477.8726      2707.2087      0             -3774.3629      0              0             -131.57013      104688.3       47.130211      47.130211      47.130211      0.80128191    -666.25005      515.17025     -876.24602    
    438500   877000         412.49905      102.68378      6513.2116      6356.4527      4425.2631      1931.1896      1494.2656      1485.4043      2746.1366      0             -3794.6169      0              0             -131.58339      104677.76      47.128629      47.128629      47.128629      0.80136264     247.8966      -69.729544      129.88427    
    439000   878000         408.08128     -227.0103       5731.6681      6075.5885      4377.8696      1697.7189      1423.1659      1433.7733      2665.3067      0             -3824.5271      0              0             -132.59251      103881.08      47.008763      47.008763      47.008763      0.80750835     419.60582     -518.70366     -581.93307    
    439500   879000         412.46656      169.27196      6588.6437      6329.8142      4424.9146      1904.8995      1477.451       1475.249       2738.4805      0             -3786.281       0              0             -131.37192      104846.26      47.153903      47.153903      47.153903      0.80007474     145.08779      645.96033     -283.23225    
    440000   880000         415.68933      119.90315      6522.0819      6338.2462      4459.4882      1878.758       1461.8365      1517.9984      2683.0993      0             -3784.1762      0              0             -131.01831      105129.23      47.196286      47.196286      47.196286      0.79792125    -180.30552      266.87152      273.14344    
    440500   881000         400.85225      176.13803      6433.0085      6162.2621      4300.317       1861.9451      1485.4867      1478.6162      2663.1009      0             -3765.2588      0              0             -130.68385      105398.29      47.236515      47.236515      47.236515      0.79588432    -47.004504      71.28224       504.13636    
    441000   882000         403.16421      263.86638      6668.2817      6267.4236      4325.1196      1942.304       1507.7549      1480.9358      2730.0625      0             -3776.4491      0              0             -132.22842      104167.12      47.05187       47.05187       47.05187       0.805291       430.86193     -351.88823      712.62545    
    441500   883000         408.84835     -131.62904      6167.8316      6370.7432      4386.0987      1984.6445      1476.2576      1455.8407      2763.5522      0             -3711.006       0              0             -130.30955      105701.04      47.2817        47.2817        47.2817        0.79360474     557.52809     -955.68293      3.2677216    
    442000   884000         405.73114     -513.24817      5494.6104      6280.5971      4352.6574      1927.9397      1535.7863      1494.1597      2634.1498      0             -3736.1561      0              0             -131.17272      105005.48      47.17776       47.17776       47.17776       0.79886161    -595.57758     -645.87927     -298.28766    
    442500   885000         409.2265      -382.90433      5681.7396      6275.3299      4390.1554      1885.1744      1478.4893      1441.3645      2713.0014      0             -3747.6808      0              0             -129.57909      106296.89      47.370378      47.370378      47.370378      0.78915614    -411.55997     -1142.2285      405.0755     
    443000   886000         416.29235     -127.34618      6240.9813      6435.9349      4465.9575      1969.9775      1507.7391      1516.1985      2718.0632      0             -3772.0233      0              0             -131.21577      104971.02      47.1726        47.1726        47.1726        0.7991238      257.05217     -302.96432     -336.12639    
    443500   887000         412.45166     -23.238502      6356.9111      6392.4094      4424.7548      1967.6546      1516.0799      1475.3155      2733.0479      0             -3756.7887      0              0             -131.502        104742.55      47.13835       47.13835       47.13835       0.80086696    -107.54464      618.73314     -580.90401    
    444000   888000         411.92811     -284.98249      5872.7017      6304.0974      4419.1381      1884.9593      1456.6964      1496.3057      2784.5812      0             -3852.624       0              0             -132.70086      103796.27      46.995966      46.995966      46.995966      0.8081682     -408.15954      231.29151     -678.07943    
    444500   889000         407.88335     -192.77177      6018.1317      6314.0044      4375.7462      1938.2582      1510.8749      1474.2767      2715.2239      0             -3762.1173      0              0             -130.87901      105241.13      47.213025      47.213025      47.213025      0.79707284     54.645453     -389.64394     -243.31682    
    445000   890000         407.90483     -572.76748      5312.0651      6173.2832      4375.9767      1797.3065      1483.5524      1465.0873      2668.3465      0             -3819.6796      0              0             -133.59696      103100.06      46.890655      46.890655      46.890655      0.81362558    -483.50657     -769.27851     -465.51738    
    445500   891000         406.89572     -235.72411      5865.0542      6222.7381      4365.1509      1857.5872      1492.4472      1476.4353      2666.3292      0             -3777.6244      0              0             -132.38412      104044.61      47.033417      47.033417      47.033417      0.80623921     268.64791     -1514.2234      538.40319    
    446000   892000         401.16638      32.01528       6170.4618      6121.9516      4303.687       1818.2646      1517.8263      1486.199       2647.5361      0             -3833.2968      0              0             -132.57313      103896.27      47.011054      47.011054      47.011054      0.80739031     561.92337     -102.03133     -363.8462     
    446500   893000         414.83382      719.68931      7455.3588      6360.975       4450.3104      1910.6647      1474.6207      1519.5306      2676.5859      0             -3760.0725      0              0             -132.10121      104267.43      47.066969      47.066969      47.066969      0.80451623    -133.33655      1177.9703      1114.4342    
    447000   894000         414.0768       243.15813      6712.0597      6341.0343      4442.1892      1898.8451      1541.8034      1436.1305      2707.8943      0             -3786.9831      0              0             -131.64867      104625.85      47.120837      47.120837      47.120837      0.80176023     377.28464      493.05557     -140.8658     
    447500   895000         414.74623     -503.43451      5676.502       6448.5419      4449.3707      1999.1712      1601.8503      1518.0114      2631.3968      0             -3752.0874      0              0             -130.98893      105152.81      47.199814      47.199814      47.199814      0.79774232    -489.24859     -896.49126     -124.56366    
    448000   896000         416.47462     -35.57518       6218.2965      6272.5353      4467.9128      1804.6226      1491.3314      1441.4767      2688.3645      0             -3816.55        0              0             -131.75528      104541.2       47.108125      47.108125      47.108125      0.80240946    -235.81228     -106.83582      235.92256    
    448500   897000         408.84039      401.34275      6905.5587      6290.6491      4386.0133      1904.6358      1464.0815      1494.4655      2710.6532      0             -3764.5644      0              0             -131.1099       105055.79      47.185294      47.185294      47.185294      0.79847903     733.69032      393.52277      76.815157    
    449000   898000         412.8893       480.69476      7018.0052      6285.1032      4429.4497      1855.6535      1500.3731      1427.9022      2737.0881      0             -3809.7098      0              0             -131.75128      104544.37      47.108602      47.108602      47.108602      0.80238511     87.175972      177.3644       1177.5439    
    449500   899000         401.97297      162.47214      6429.6099      6181.2794      4312.34        1868.9394      1504.3392      1414.5317      2743.0403      0             -3792.9719      0              0             -131.42568      104803.37      47.147472      47.147472      47.147472      0.80040217     1121.3231      208.67592     -842.58265    
    450000   900000         416.76052      98.967628      6442.286       6290.4953      4470.98        1819.5154      1492.1336      1408.2508      2694.2971      0             -3775.1661      0              0             -130.97228      105166.17      47.201814      47.201814      47.201814      0.79764091    -336.25875     -83.552038      716.71367    
    450500   901000         410.25305     -159.14135      6174.2758      6417.2476      4401.1682      2016.0794      1498.5397      1563.0281      2716.7365      0             -3762.2249      0              0             -131.57046      104688.04      47.130172      47.130172      47.130172      0.80128392    -459.3208      -145.07774      126.97449    
    451000   902000         408.28932     -136.3666       5963.3087      6170.2761      4380.1014      1790.1747      1453.7565      1474.4449      2664.0481      0             -3802.0748      0              0             -132.35411      104068.2       47.036971      47.036971      47.036971      0.80605643    -378.85808      648.63095     -678.87266    
    451500   903000         417.53795      875.46442      7651.8692      6324.1844      4479.3202      1844.8642      1480.545       1477.0377      2667.5794      0             -3780.2979      0              0             -132.45699      103987.37      47.02479       47.02479       47.02479       0.806683       814.05764      734.16301      1078.1726    
    452000   904000         404.27777     -338.86686      5640.8578      6153.9946      4337.0658      1816.9289      1493.401       1470.062       2684.3518      0             -3830.8858      0              0             -132.6561       103831.29      47.001251      47.001251      47.001251      0.80789561    -495.09343     -500.05052     -21.45662     
    452500   905000         407.74881      96.48432       6346.5229      6200.7457      4374.3029      1826.4428      1501.8588      1446.6117      2705.692       0             -3827.7196      0              0             -132.95312      103599.33      46.966225      46.966225      46.966225      0.80970449    -563.93411      1055.0786     -201.69158    
    453000   906000         414.78095      603.05223      7156.668       6247.6159      4449.7432      1797.8727      1496.6818      1426.235       2701.5204      0             -3826.5646      0              0             -133.2593       103361.3       46.930227      46.930227      46.930227      0.81156918     737.44071     -99.172323      1170.8883    
    453500   907000         407.79849     -128.77616      5950.7906      6146.709       4374.8359      1771.8731      1438.611       1445.6642      2682.7692      0             -3795.1713      0              0             -132.03577      104319.11      47.074743      47.074743      47.074743      0.8041177     -105.21469     -518.8008       237.68699    
    454000   908000         411.99255      197.67114      6580.8897      6279.4794      4419.8294      1859.65        1507.384       1504.8885      2636.5684      0             -3789.1909      0              0             -131.73965      104553.59      47.109987      47.109987      47.109987      0.80231432    -184.58266      640.90834      136.68773    
    454500   909000         403.81366     -552.85931      5232.8821      6082.3899      4332.0868      1750.3031      1451.2663      1448.3774      2656.1383      0             -3805.479       0              0             -130.73101      105360.26      47.230834      47.230834      47.230834      0.79617154    -765.92191     -143.30718     -749.34883    
    455000   910000         409.91636     -586.07582      5358.1876      6257.7532      4397.5563      1860.197       1510.353       1482.9886      2664.4912      0             -3797.6359      0              0             -130.87368      105245.41      47.213665      47.213665      47.213665      0.79704042     95.848237     -856.57026     -997.50542    
    455500   911000         411.82495     -862.04676      4856.7631      6182.0263      4418.0314      1763.9948      1453.9212      1427.7738      2647.9729      0             -3765.6731      0              0             -130.66524      105413.3       47.238758      47.238758      47.238758      0.79577098    -1129.8872     -731.28711     -724.96594    
    456000   912000         405.45815      183.72887      6484.5984      6204.4786      4349.7288      1854.7498      1528.0126      1441.3771      2675.6695      0             -3790.3094      0              0             -131.75434      104541.94      47.108237      47.108237      47.108237      0.80240377    -35.046642      273.09952      313.13373    
    456500   913000         401.23186      45.277956      6178.4553      6109.3084      4304.3895      1804.9189      1491.3299      1413.6595      2664.4891      0             -3764.5596      0              0             -131.53607      104715.41      47.134279      47.134279      47.134279      0.80107447    -109.21365      63.107991      181.93953    
    457000   914000         415.13531      162.83377      6513.4438      6264.7073      4453.5447      1811.1626      1436.8171      1484.2637      2656.782       0             -3766.7002      0              0             -131.5032       104741.59      47.138206      47.138206      47.138206      0.80087427    -394.14362      661.77235      220.87258    
    457500   915000         416.99062     -14.888578      6273.0215      6295.8748      4473.4484      1822.4264      1494.2646      1410.1379      2698.8383      0             -3780.8143      0              0             -130.86848      105249.59      47.214291      47.214291      47.214291      0.79700873     863.41349     -775.48028     -132.59895    
    458000   916000         406.72592      80.801576      6465.0318      6339.1299      4363.3293      1975.8006      1519.5889      1560.8205      2624.3562      0             -3728.965       0              0             -128.91965      106840.61      47.451009      47.451009      47.451009      0.78514006     22.794612      172.14781      47.462307    
    458500   917000         413.19859     -47.224951      6070.2906      6142.8829      4432.7678      1710.1151      1445.8866      1447.6876      2607.1845      0             -3790.6436      0              0             -130.68098      105400.6       47.236861      47.236861      47.236861      0.79586682    -882.24874      425.50309      315.0708     
    459000   918000         414.35153     -442.94606      5720.2846      6403.7698      4445.1365      1958.6333      1510.2198      1552.5793      2661.3728      0             -3765.5385      0              0             -130.18264      105804.07      47.297058      47.297058      47.297058      0.79283189    -495.2049      -535.17897     -298.4543     
    459500   919000         417.85583      605.53812      7196.3368      6270.0438      4482.7303      1787.3135      1467.3756      1451.9375      2679.5247      0             -3811.5244      0              0             -131.31806      104889.26      47.160348      47.160348      47.160348      0.79974677     618.90143      433.52303      764.18992    
    460000   920000         408.10477     -160.29542      6029.7955      6277.1764      4378.1216      1899.0548      1501.7303      1450.5921      2673.9878      0             -3727.2555      0              0             -130.16263      105820.34      47.299482      47.299482      47.299482      0.79271       -201.1          170.85131     -450.63756    
    460500   921000         413.39709      473.12719      6929.9584      6200.1136      4434.8972      1765.2164      1453.6709      1459.4634      2611.0323      0             -3758.9502      0              0             -130.22032      105773.47      47.292497      47.292497      47.292497      0.79306132     882.61316      500.23829      36.530114    
    461000   922000         415.16414      865.2874       7606.7925      6293.0579      4453.854       1839.2039      1480.4642      1502.0992      2641.2542      0             -3784.6137      0              0             -132.3074       104104.94      47.042506      47.042506      47.042506      0.80577195     1004.0617      888.61984      703.18064    
    461500   923000         400.42504      565.21992      7042.7907      6169.17        4295.734       1873.436       1502.1409      1481.942       2619.4868      0             -3730.1337      0              0             -129.96484      105981.39      47.323465      47.323465      47.323465      0.79150543     916.75525      311.11444      467.79008    
    462000   924000         410.78583      249.0735       6614.3918      6234.13        4406.8838      1827.2462      1487.6877      1456.0525      2669.8703      0             -3786.3644      0              0             -131.57585      104683.75      47.129529      47.129529      47.129529      0.80131673     469.034        129.28611      148.9004     
    462500   925000         404.482        44.38559       6110.6804      6042.8784      4339.2568      1703.6216      1421.5939      1436.2256      2618.9149      0             -3773.1129      0              0             -131.50166      104742.82      47.138391      47.138391      47.138391      0.80086487    -349.21099     -754.64712      1237.0149    
    463000   926000         416.05626     -322.94263      5852.6732      6352.5179      4463.4246      1889.0932      1525.031       1449.9596      2647.2863      0             -3733.1837      0              0             -129.78415      106128.94      47.345416      47.345416      47.345416      0.790405      -575.62748     -73.808329     -319.39207    
    463500   927000         400.44535     -359.63925      5636.4918      6192.3726      4295.9518      1896.4207      1500.9402      1465.3846      2671.1382      0             -3741.0422      0              0             -129.96214      105983.59      47.323793      47.323793      47.323793      0.79148896     13.402559     -1107.5759      15.255639    
    464000   928000         407.90718      1316.4087      8237.4127      6220.7818      4376.0019      1844.78        1488.529       1458.3885      2664.704       0             -3766.8415      0              0             -131.12808      105041.22      47.183113      47.183113      47.183113      0.79858975     1367.0425      852.71234      1729.4714    
    464500   929000         408.97804      443.51825      7038.0655      6361.0889      4387.49        1973.5988      1532.7944      1498.4918      2715.279       0             -3772.9664      0              0             -131.60402      104661.34      47.126165      47.126165      47.126165      0.8014883      589.93291     -109.75598      850.37784    
    465000   930000         402.03097     -342.23613      5717.8262      6246.3662      4312.9623      1933.4039      1553.0661      1482.4581      2632.1218      0             -3734.2421      0              0             -130.07068      105895.15      47.310626      47.310626      47.310626      0.79215       -315.42179     -717.26315      5.97656      
    465500   931000         404.23183     -508.91461      5344.7024      6121.6408      4336.5729      1785.0679      1509.959       1447.373       2610.1424      0             -3782.4065      0              0             -131.57994      104680.5       47.12904       47.12904       47.12904       0.80134163    -1057.7171      1.6256967     -470.65242    
    466000   932000         424.64654      241.07231      6803.5395      6436.154       4555.5807      1880.5733      1558.0822      1424.7866      2662.6822      0             -3764.9777      0              0             -131.81251      104495.8       47.101306      47.101306      47.101306      0.80275802     737.20507      164.75333     -178.74146    
    466500   933000         404.87456      297.30068      6758.3002      6305.1604      4343.4681      1961.6923      1549.3486      1491.5261      2695.1049      0             -3774.2873      0              0             -131.79382      104510.62      47.103532      47.103532      47.103532      0.80264421     368.15936     -459.37544      983.11813    
    467000   934000         406.88542      335.42072      6819.7648      6307.1281      4365.0405      1942.0877      1532.0709      1478.8289      2704.1127      0             -3772.9249      0              0             -131.43517      104795.8       47.146337      47.146337      47.146337      0.80045999     387.02373      10.929245      608.30919    
    467500   935000         413.09715      628.47155      7440.7283      6475.8832      4431.6796      2044.2037      1494.2808      1542.8236      2748.4712      0             -3741.372       0              0             -130.84568      105267.93      47.217033      47.217033      47.217033      0.79686987     575.57126      502.05763      807.78576    
    468000   936000         409.42866      402.5697       6855.8671      6238.4806      4392.3242      1846.1564      1469.8093      1444.3536      2679.6027      0             -3747.6091      0              0             -130.98312      105157.47      47.200512      47.200512      47.200512      0.79770692     947.05163     -376.40784      637.0653     
    468500   937000         420.62425     -318.20907      5911.834       6396.3331      4512.4298      1883.9033      1514.0294      1505.0693      2658.6559      0             -3793.8513      0              0             -131.93223      104400.98      47.087054      47.087054      47.087054      0.80348714    -73.472697     -310.49136     -570.66315    
    469000   938000         417.44091     -631.11687      5484.3444      6455.9237      4478.2791      1977.6445      1527.1026      1500.771       2717.451       0             -3767.68        0              0             -130.4857       105558.34      47.260413      47.260413      47.260413      0.79467756    -827.96067     -896.52836     -168.86157    
    469500   939000         415.07082      235.03265      6671.4329      6314.3243      4452.8529      1861.4713      1541.4452      1450.1089      2683.6608      0             -3813.7436      0              0             -132.20845      104182.85      47.054239      47.054239      47.054239      0.80516937    -13.730283      138.94571      579.88252    
    470000   940000         422.22879      433.31852      6920.9024      6265.3341      4529.6432      1735.6909      1515.4933      1387.114       2674.7913      0             -3841.7076      0              0             -132.77633      103737.27      46.98706       46.98706       46.98706       0.80862781     547.51776      260.90312      491.53468    
    470500   941000         396.32703      246.73996      6490.6504      6111.787       4251.7708      1860.0161      1537.2269      1398.1712      2676.9698      0             -3752.3517      0              0             -130.8242       105285.22      47.219617      47.219617      47.219617      0.79673906    -79.421893      983.16527     -163.52351    
    471000   942000         410.05113      623.0916       7228.0021      6275.7835      4399.002       1876.7815      1470.7759      1465.7689      2680.8674      0             -3740.6307      0              0             -131.44575      104787.36      47.145072      47.145072      47.145072      0.80052442    -290.97008      1257.5981      902.6468     
    471500   943000         406.63634     -90.708872      6082.8198      6222.5308      4362.3683      1860.1625      1496.5755      1431.8188      2691.2831      0             -3759.515       0              0             -130.42189      105609.99      47.26812       47.26812       47.26812       0.79428893     452.1362      -570.26371     -153.9991     
    472000   944000         406.7325       604.17814      7368.745       6439.3668      4363.3999      2075.9668      1525.3511      1471.0152      2807.7143      0             -3728.1138      0              0             -130.58819      105475.5       47.248047      47.248047      47.248047      0.79530171     1729.332      -248.30266      331.50512    
    472500   945000         415.6845      -377.63072      5744.5346      6324.6065      4459.4364      1865.1701      1463.7704      1429.7958      2720.0979      0             -3748.494       0              0             -130.77264      105326.73      47.225822      47.225822      47.225822      0.79642505    -273.81319     -52.900357     -806.17861    
    473000   946000         413.26458     -57.178365      6385.8496      6473.4638      4433.4757      2039.9881      1544.3617      1510.4611      2752.3087      0             -3767.1433      0              0             -131.09573      105067.14      47.186993      47.186993      47.186993      0.79839274    -557.79748      120.11901      266.14338    
    473500   947000         410.04946      448.62022      6987.0625      6294.757       4398.9841      1895.7729      1507.6378      1468.9114      2670.613       0             -3751.3893      0              0             -130.17046      105813.98      47.298534      47.298534      47.298534      0.79275767     1198.2695      90.164827      57.426362    
    474000   948000         411.04021     -776.47565      5136.4878      6327.0779      4409.6129      1917.465       1479.625       1445.3739      2751.3822      0             -3758.9161      0              0             -131.00774      105137.72      47.197556      47.197556      47.197556      0.79785682    -384.49933     -1164.9688     -779.95882    
    474500   949000         409.13473     -146.74841      5969.0018      6193.2793      4389.171       1804.1083      1430.7761      1476.0825      2671.5105      0             -3774.2607      0              0             -131.43742      104794.01      47.146069      47.146069      47.146069      0.80047366    -305.42548      406.67572     -541.49546    
    475000   950000         420.3718      -404.75353      5881.5798      6510.8304      4509.7215      2001.1089      1494.5184      1477.9636      2745.9955      0             -3717.3686      0              0             -129.21067      106599.98      47.415358      47.415358      47.415358      0.78691241    -209.41636     -521.82665     -483.01758    
    475500   951000         404.31255     -459.25849      5535.9356      6239.3418      4337.4389      1901.9029      1485.608       1454.5884      2716.9884      0             -3755.2819      0              0             -131.15424      105020.27      47.179975      47.179975      47.179975      0.79874907    -696.01691     -481.28291     -200.47567    
    476000   952000         407.84142     -520.21682      5514.1805      6319.3666      4375.2964      1944.0701      1502.9912      1444.2969      2718.9816      0             -3722.1996      0              0             -129.78351      106129.46      47.345494      47.345494      47.345494      0.7904011     -148.79342     -738.71198     -673.14507    
    476500   953000         404.63277      223.64929      6651.9455      6310.445       4340.8742      1969.5707      1520.6109      1482.723       2716.0871      0             -3749.8503      0              0             -131.55503      104700.32      47.132015      47.132015      47.132015      0.80118994     64.4503       -138.1004       744.59796    
    477000   954000         415.7866       273.74244      6741.4497      6325.4584      4460.5318      1864.9266      1505.2502      1462.4864      2728.0167      0             -3830.8266      0              0             -132.18716      104199.64      47.056765      47.056765      47.056765      0.80503967    -469.1385       900.57604      389.78979    
    477500   955000         411.4342       178.79456      6559.3534      6285.7639      4413.8395      1871.9243      1471.1194      1479.6866      2692.2348      0             -3771.1164      0              0             -131.27625      104922.66      47.165354      47.165354      47.165354      0.79949213    -556.36473     -141.92504      1234.6735    
    478000   956000         414.77427     -55.968843      6194.4978      6280.0163      4449.6716      1830.3447      1497.757       1453.4488      2670.3738      0             -3791.2349      0              0             -131.46733      104770.17      47.142493      47.142493      47.142493      0.80065581    -445.94799     -527.03082      805.07228    
    478500   957000         408.73812     -103.34762      6136.0993      6294.0718      4384.9161      1909.1557      1481.6757      1447.3802      2760.5051      0             -3780.4052      0              0             -131.41663      104810.58      47.148554      47.148554      47.148554      0.80034706     1.9857199     -180.91778     -131.11079    
    479000   958000         410.4872      -494.71536      5530.662       6291.9033      4403.6802      1888.2232      1499.6672      1434.8793      2711.3451      0             -3757.6685      0              0             -130.54626      105509.38      47.253105      47.253105      47.253105      0.79504634    -414.16918     -1170.5307      100.55377    
    479500   959000         412.53547      130.16807      6683.2039      6481.5875      4425.6538      2055.9337      1558.4774      1529.3154      2700.8967      0             -3732.7558      0              0             -129.69104      106205.13      47.356743      47.356743      47.356743      0.78983798    -176.76885      411.18063      156.09244    
    480000   960000         406.84619     -996.78354      4721.9167      6258.3913      4364.6197      1893.7717      1511.4468      1475.7676      2689.8271      0             -3783.2698      0              0             -130.31873      105693.59      47.28059       47.28059       47.28059       0.79366065    -989.10805     -408.97397     -1592.2686    
    480500   961000         423.22261     -306.79998      5927.0106      6396.3574      4540.3048      1856.0527      1466.6875      1426.1765      2736.2085      0             -3773.0197      0              0             -131.30848      104896.91      47.161495      47.161495      47.161495      0.79968842    -330.15002     -127.48293     -462.76699    
    481000   962000         410.23916     -661.80595      5348.3131      6371.7742      4401.0191      1970.7551      1512.5056      1428.2551      2770.096       0             -3740.1016      0              0             -129.89447      106038.8       47.332008      47.332008      47.332008      0.7910769     -488.58675     -659.9609      -836.8702     
    481500   963000         400.3317       660.55052      7177.3804      6161.1386      4294.7326      1866.406       1487.1622      1414.157       2748.5649      0             -3783.4782      0              0             -130.56908      105490.93      47.250352      47.250352      47.250352      0.79518533     981.57886      246.67943      753.39326    
    482000   964000         414.55241     -278.94114      5958.4099      6391.4423      4447.2915      1944.1508      1468.5549      1487.2407      2695.7828      0             -3707.4276      0              0             -129.39681      106446.63      47.392611      47.392611      47.392611      0.78804606    -289.90477     -542.72728     -4.1913658    
    482500   965000         404.06313     -669.15847      5189.2425      6233.6191      4334.7631      1898.856       1500.5564      1419.8242      2674.4676      0             -3695.9922      0              0             -128.70731      107016.88      47.47709       47.47709       47.47709       0.78384687    -583.37943     -802.60271     -621.49329    
    483000   966000         415.64509      115.76409      6485.7703      6308.2259      4459.0136      1849.2123      1503.4108      1443.9451      2663.9836      0             -3762.1272      0              0             -130.97795      105161.62      47.201133      47.201133      47.201133      0.79767544     548.68476      291.57839     -492.97089    
    483500   967000         418.18686     -220.44567      5959.8863      6298.372       4486.2816      1812.0904      1486.2085      1401.4957      2691.4068      0             -3767.0206      0              0             -130.82555      105284.13      47.219455      47.219455      47.219455      0.79674726     138.22354     -159.08342     -640.47713    
    484000   968000         416.87982     -565.67372      5562.4463      6435.2689      4472.2598      1963.0091      1480.7814      1488.2969      2780.2925      0             -3786.3617      0              0             -130.18813      105799.62      47.296394      47.296394      47.296394      0.79286529    -891.39775      454.43741     -1260.0608    
    484500   969000         412.46025      362.91993      6953.5437      6395.7614      4424.8469      1970.9145      1539.3876      1443.9055      2735.0185      0             -3747.3971      0              0             -130.70056      105384.81      47.234502      47.234502      47.234502      0.79598608     1169.0483      139.1439      -219.43243    
    485000   970000         412.53661      365.0665       6942.9105      6379.2308      4425.6661      1953.5647      1489.4188      1438.4377      2734.8455      0             -3709.1373      0              0             -130.09809      105872.84      47.307303      47.307303      47.307303      0.79231694    -97.428222      952.66621      239.9615     
    485500   971000         407.51647      563.26537      7239.6415      6368.7714      4371.8104      1996.961       1454.1179      1514.4594      2744.0137      0             -3715.6301      0              0             -129.92449      106014.3       47.328363      47.328363      47.328363      0.7912597      975.94382      97.584802      616.2675     
    486000   972000         412.17784      357.56884      6948.9482      6405.3437      4421.8172      1983.5266      1522.2171      1493.0927      2730.0939      0             -3761.8771      0              0             -132.132        104243.14      47.063312      47.063312      47.063312      0.80470375     430.50445      225.59803      416.60402    
    486500   973000         412.24137      544.42411      7217.9957      6370.988       4422.4988      1948.4892      1491.3496      1422.7113      2725.146       0             -3690.7177      0              0             -129.11638      106677.82      47.426897      47.426897      47.426897      0.7863382      368.90135      901.48381      362.88717    
    487000   974000         413.17267     -3.6194895      6344.3826      6349.9781      4432.4897      1917.4884      1507.1872      1460.5234      2691.3474      0             -3741.5696      0              0             -129.93972      106001.88      47.326514      47.326514      47.326514      0.79135245     154.99047     -35.407335     -130.44161    
    487500   975000         409.87676      598.26674      7316.001       6399.2746      4397.1314      2002.1433      1513.0021      1487.4571      2738.2328      0             -3736.5487      0              0             -131.09511      105067.64      47.187068      47.187068      47.187068      0.79838894     1085.7898      404.57858      304.43186    
    488000   976000         410.45564      401.86079      6859.4906      6238.9004      4403.3416      1835.5588      1414.7762      1496.8984      2670.8098      0             -3746.9257      0              0             -130.07747      105889.62      47.309802      47.309802      47.309802      0.79219139     354.5449       487.567        363.47045    
    488500   977000         414.26203      34.677512      6489.7254      6435.624       4444.1762      1991.4477      1471.9966      1507.3663      2679.8702      0             -3667.7854      0              0             -128.75691      106975.65      47.470992      47.470992      47.470992      0.78414897    -29.215638      294.29357     -161.0454     
    489000   978000         406.98269     -487.59871      5601.3276      6360.1798      4366.084       1994.0958      1491.9217      1505.8229      2712.9224      0             -3716.5712      0              0             -129.07339      106713.35      47.432162      47.432162      47.432162      0.78607638    -1082.2803     -307.37031     -73.14552     
    489500   979000         402.34934      557.80804      7180.02        6314.7742      4316.3777      1998.3965      1487.9183      1451.3338      2753.504       0             -3694.3596      0              0             -129.50206      106360.12      47.379769      47.379769      47.379769      0.788687       558.1697       879.20102      236.0534     
    490000   980000         416.24097      114.17979      6615.9672      6439.0181      4465.4062      1973.612       1475.5856      1467.0093      2743.8605      0             -3712.8434      0              0             -129.62008      106263.28      47.365384      47.365384      47.365384      0.78940578     324.48386     -161.95702      180.01252    
    490500   981000         407.9479       213.10287      6687.2101      6361.7998      4376.4387      1985.3611      1541.2486      1426.5204      2763.0171      0             -3745.4249      0              0             -131.54955      104704.69      47.13267       47.13267       47.13267       0.80115654     693.39558     -8.9935792     -45.093397    
    491000   982000         411.58801     -73.807969      6295.0954      6409.108       4415.4896      1993.6184      1517.6772      1507.836       2701.6864      0             -3733.5812      0              0             -130.04149      105918.92      47.314165      47.314165      47.314165      0.79197226    -134.84027     -322.03051      235.44687    
    491500   983000         411.24074      597.93024      7244.7719      6328.5131      4411.7641      1916.7491      1509.9363      1493.4495      2671.0351      0             -3757.6718      0              0             -131.08824      105073.15      47.187892      47.187892      47.187892      0.79834713     1395.7994      68.487439      329.50388    
    492000   984000         408.95114      226.3562       6525.7284      6182.9463      4387.2014      1795.7449      1474.14        1478.7691      2653.4358      0             -3810.6         0              0             -132.64949      103836.47      47.002032      47.002032      47.002032      0.80785534     799.55763     -326.64576      206.15673    
    492500   985000         412.53018     -364.85671      5667.3057      6225.1792      4425.5972      1799.582       1474.5403      1468.8268      2638.3263      0             -3782.1114      0              0             -131.3766       104842.52      47.153343      47.153343      47.153343      0.80010326    -676.42093     -46.70607      -371.44314    
    493000   986000         401.82432     -177.07777      5902.1844      6173.8346      4310.7454      1863.0892      1482.7469      1484.3562      2656.3483      0             -3760.3622      0              0             -130.94394      105188.94      47.20522       47.20522       47.20522       0.79746831     596.78743     -254.498       -873.52274    
    493500   987000         424.84181     -132.06159      6166.2164      6367.1158      4557.6754      1809.4404      1478.0637      1425.3745      2682.8658      0             -3776.8636      0              0             -132.04719      104310.09      47.073386      47.073386      47.073386      0.80418726     388.20804     -323.52107     -460.87175    
    494000   988000         409.28353      193.19958      6499.224       6203.6989      4390.7673      1812.9316      1471.9215      1476.7871      2653.7188      0             -3789.4958      0              0             -131.32371      104884.75      47.159672      47.159672      47.159672      0.79978114    -534.64464      625.15008      489.0933     
    494500   989000         408.1214       348.75366      6737.3708      6203.2041      4378.3         1824.9041      1444.6079      1467.3059      2704.9826      0             -3791.9923      0              0             -131.15152      105022.45      47.180302      47.180302      47.180302      0.79873249     1254.2552      117.57713     -325.57137    
    495000   990000         411.34135     -102.38782      6223.557       6379.5884      4412.8434      1966.745       1536.9836      1484.3139      2751.0286      0             -3805.5811      0              0             -131.81585      104493.15      47.100908      47.100908      47.100908      0.80277837    -257.48843     -300.22459      250.54958    
    495500   991000         409.86162      116.15677      6499.5172      6322.7266      4396.969       1925.7576      1528.1233      1476.2989      2723.1639      0             -3801.8285      0              0             -131.98258      104361.15      47.081066      47.081066      47.081066      0.80379377    -381.76099      338.08895      392.14234    
    496000   992000         406.58027      1101.163       7908.4425      6210.7352      4361.7669      1848.9683      1515.9582      1439.6105      2647.5833      0             -3754.1837      0              0             -130.29273      105714.68      47.283734      47.283734      47.283734      0.79350232     1400.9615      1365.0151      537.51254    
    496500   993000         410.28129     -77.921541      6217.1097      6336.5382      4401.4712      1935.067       1489.1056      1521.1251      2659.0799      0             -3734.2436      0              0             -131.06332      105093.13      47.190884      47.190884      47.190884      0.79819531     92.921828     -534.85047      208.16402    
    497000   994000         411.9343      -179.38678      5970.453       6244.7451      4419.2045      1825.5405      1478.803       1483.3875      2666.7159      0             -3803.3659      0              0             -131.37376      104844.79      47.153682      47.153682      47.153682      0.80008598    -1133.3763      445.4321       149.78388    
    497500   995000         395.09064      339.40876      6625.884       6111.0015      4238.5068      1872.4947      1514.5689      1487.4194      2674.2323      0             -3803.726       0              0             -132.41779      104018.16      47.02943       47.02943       47.02943       0.80644424     604.11411     -17.790333      431.90251    
    498000   996000         409.7221       262.33996      6559.8024      6160.989       4395.4722      1765.5168      1428.3358      1490.3383      2643.7779      0             -3796.9352      0              0             -132.13751      104238.79      47.062658      47.062658      47.062658      0.80473734     426.32783     -151.99234      512.68439    
    498500   997000         415.36089      427.98186      6862.0215      6211.5583      4455.9648      1755.5935      1489.2666      1454.2872      2649.8604      0             -3837.8206      0              0             -132.17034      104212.9       47.058762      47.058762      47.058762      0.80493723     699.37728      329.50766      255.06064    
    499000   998000         415.59101     -310.30521      5885.4712      6361.0726      4458.4334      1902.6391      1517.9645      1494.5115      2665.6876      0             -3775.5245      0              0             -131.06216      105094.05      47.191022      47.191022      47.191022      0.7981883     -281.73085     -815.67463      166.48983    
    499500   999000         404.10202      540.05513      7004.7495      6176.1896      4335.1804      1841.0092      1520.2317      1456.751       2645.844       0             -3781.8175      0              0             -130.93192      105198.59      47.206664      47.206664      47.206664      0.79739511     407.12538      1170.2599      42.780131    
    500000   1000000        402.57676     -46.420922      6160.8793      6232.027       4318.8175      1913.2095      1495.3683      1511.951       2668.9229      0             -3763.0327      0              0             -131.06425      105092.38      47.190771      47.190771      47.190771      0.79820102     535.11367      8.8304739     -683.20691    
    500500   1001000        415.33311      188.51517      6605.6278      6319.1421      4455.6668      1863.4753      1506.3408      1451.2385      2702.2682      0             -3796.3723      0              0             -132.18271      104203.15      47.057293      47.057293      47.057293      0.80501257    -710.75444      127.45413      1148.8458    
    501000   1002000        409.62813      310.82386      6678.3013      6204.0002      4394.4642      1809.536       1514.5629      1437.9122      2617.8102      0             -3760.7492      0              0             -131.64112      104631.85      47.121738      47.121738      47.121738      0.80171426     1243.9678     -185.35639     -126.1398     
    501500   1003000        408.13371     -373.7529       5729.5968      6302.3692      4378.432       1923.9372      1542.3883      1485.3153      2691.0009      0             -3794.7673      0              0             -131.07922      105080.38      47.188975      47.188975      47.188975      0.79829217    -115.34532     -32.142377     -973.77099    
    502000   1004000        411.41289      407.25176      6906.9967      6282.5058      4413.6109      1868.8949      1502.408       1474.127       2665.5128      0             -3773.1529      0              0             -130.99908      105144.67      47.198596      47.198596      47.198596      0.79780408     489.71492      67.77774       664.26263    
    502500   1005000        415.71866     -205.40231      5954.795       6269.8049      4459.8029      1810.002       1480.7481      1445.8096      2651.5807      0             -3768.1364      0              0             -130.98229      105158.14      47.200613      47.200613      47.200613      0.79770184    -16.841881     -254.15922     -345.20583    
    503000   1006000        417.66392     -373.5527       5787.4781      6366.6268      4480.6715      1885.9553      1539.8392      1477.6681      2608.1421      0             -3739.6941      0              0             -129.56661      106307.12      47.371898      47.371898      47.371898      0.78908018    -417.55295     -614.67247     -88.432664    
    503500   1007000        413.96599     -248.19564      5976.7474      6357.2965      4441.0004      1916.2961      1517.9013      1495.0305      2702.8826      0             -3799.5182      0              0             -131.01315      105133.37      47.196906      47.196906      47.196906      0.79788982    -223.4876      -261.24089     -259.85843    
    504000   1008000        404.82944      148.13167      6306.7921      6084.0973      4342.9841      1741.1132      1517.803       1432.1759      2650.188       0             -3859.0538      0              0             -133.61933      103082.79      46.888038      46.888038      46.888038      0.81376184     11.85513      -64.663082      497.20297    
    504500   1009000        422.04077      638.65492      7300.6665      6324.6614      4527.6261      1797.0353      1445.9454      1455.1075      2667.1261      0             -3771.1437      0              0             -131.44545      104787.61      47.145109      47.145109      47.145109      0.80052256     760.42374      420.34221      735.19883    
    505000   1010000        417.41823     -94.240729      6184.4745      6328.6265      4478.0358      1850.5907      1529.8341      1448.9683      2654.9384      0             -3783.1501      0              0             -131.32557      104883.26      47.159449      47.159449      47.159449      0.79979249    -883.16646     -281.53049      881.97476    
    505500   1011000        409.54532     -578.05403      5554.5596      6441.6116      4393.5758      2048.0359      1588.6007      1521.4428      2720.031       0             -3782.0386      0              0             -130.90334      105221.56      47.2101        47.2101        47.2101        0.79722103    -289.65222     -201.57659     -1242.9333    
    506000   1012000        401.07433      19.039763      6167.7596      6138.5829      4302.6995      1835.8834      1489.59        1471.8566      2670.5468      0             -3796.11        0              0             -131.08628      105074.72      47.188127      47.188127      47.188127      0.79833518    -136.86649      104.01848      89.967301    
    506500   1013000        409.88203      125.66496      6311.8911      6121.8574      4397.1879      1724.6695      1495.3362      1413.1694      2669.4649      0             -3853.301       0              0             -132.83571      103690.9       46.980058      46.980058      46.980058      0.80898943     488.99149      164.35795     -276.35456    
    507000   1014000        402.13703     -754.81461      5019.7238      6171.1508      4314.1001      1857.0507      1521.2509      1493.3195      2618.3454      0             -3775.865       0              0             -131.68468      104597.24      47.116542      47.116542      47.116542      0.80197952    -848.58317     -863.00559     -552.85506    
    507500   1015000        411.14763     -82.242493      6243.4642      6370.2608      4410.7652      1959.4955      1543.1904      1480.5685      2682.8254      0             -3747.0887      0              0             -130.29272      105714.68      47.283735      47.283735      47.283735      0.79350229    -826.95652      540.28955      39.939485    
    508000   1016000        407.12734     -90.122473      6094.6379      6233.4719      4367.6358      1865.8361      1495.8268      1464.1372      2652.3851      0             -3746.5131      0              0             -130.39734      105629.87      47.271086      47.271086      47.271086      0.79413944     225.72933     -705.8831       209.78636    
    508500   1017000        408.87037      76.807968      6392.7186      6274.8138      4386.335       1888.4788      1523.273       1472.8538      2675.1315      0             -3782.7795      0              0             -130.85982      105256.56      47.215332      47.215332      47.215332      0.796956      -319.05363     -326.77732      876.25485    
    509000   1018000        417.25719      168.66624      6550.6091      6291.8235      4476.3081      1815.5153      1501.2595      1457.1376      2645.6163      0             -3788.498       0              0             -130.92401      105204.95      47.207614      47.207614      47.207614      0.79734695     60.911079     -94.773849      539.86148    
    509500   1019000        406.0131      -200.52673      5905.4631      6213.3099      4355.6823      1857.6276      1542.5383      1453.6131      2618.6226      0             -3757.1464      0              0             -130.84858      105265.6       47.216685      47.216685      47.216685      0.79688753    -290.16682     -255.34599     -56.067394    
    510000   1020000        406.91121     -96.058648      6055.4469      6202.6226      4365.3172      1837.3054      1454.6816      1486.7709      2657.9129      0             -3762.0601      0              0             -131.10882      105056.66      47.185424      47.185424      47.185424      0.79847242     49.829296      18.975735     -356.98097    
    510500   1021000        415.45054     -130.18893      6200.3272      6400.7002      4456.9266      1943.7736      1501.3967      1470.0194      2707.4621      0             -3735.1045      0              0             -130.51676      105533.22      47.256664      47.256664      47.256664      0.79486673    -536.77997      125.85333      20.359855    
    511000   1022000        403.05431     -692.6232       5149.9214      6216.9459      4323.9406      1893.0054      1531.11        1454.5772      2650.6713      0             -3743.3531      0              0             -130.39291      105633.46      47.271621      47.271621      47.271621      0.79411245    -1061.509      -464.57681     -551.78378    
    511500   1023000        404.36145     -424.11127      5427.9804      6069.8018      4337.9635      1731.8383      1498.4284      1473.5713      2608.5349      0             -3848.6962      0              0             -132.73854      103766.81      46.991519      46.991519      46.991519      0.80839765    -182.858       -1194.0671      104.5913     
    512000   1024000        410.67248     -72.321594      6228.4893      6338.7905      4405.6678      1933.1226      1549.7596      1518.5042      2650.783       0             -3785.9242      0              0             -131.71016      104577         47.113503      47.113503      47.113503      0.80213471    -654.14786      200.33661      236.84647    
    512500   1025000        421.28843      483.47668      7052.4385      6314.4278      4519.5551      1794.8727      1472.1943      1473.6496      2645.534       0             -3796.5052      0              0             -131.59646      104667.36      47.127068      47.127068      47.127068      0.80144227     219.40438      724.47468      506.55096    
    513000   1026000        406.02195      267.74755      6585.7438      6180.8819      4355.7772      1825.1047      1503.1547      1453.085       2673.9142      0             -3805.0493      0              0             -132.84644      103682.52      46.978792      46.978792      46.978792      0.80905484    -365.87499      354.2218       814.89585    
    513500   1027000        402.48844     -695.81726      5139.4695      6199.577       4317.87        1881.707       1468.4501      1501.9777      2697.3324      0             -3786.0532      0              0             -131.84894      104466.93      47.096967      47.096967      47.096967      0.80297991    -1097.5187      210.42895     -1200.3621    
    514000   1028000        409.5075      -849.5806       5028.2105      6325.5303      4393.17        1932.3604      1502.9905      1502.6937      2693.253       0             -3766.5769      0              0             -131.5494       104704.8       47.132687      47.132687      47.132687      0.80115565    -469.45027     -697.31989     -1381.9716    
    514500   1029000        406.26632     -156.53056      6081.5903      6320.1757      4358.3988      1961.7769      1540.5016      1524.0312      2692.5277      0             -3795.2835      0              0             -131.79128      104512.64      47.103835      47.103835      47.103835      0.80262872    -657.67049      124.35386      63.724963    
    515000   1030000        413.61011     -760.41509      5196.8156      6348.9262      4437.1826      1911.7436      1488.782       1422.5153      2806.7568      0             -3806.3105      0              0             -132.58302      103888.52      47.009885      47.009885      47.009885      0.80745056    -342.31228     -1043.0556     -895.87734    
    515500   1031000        404.72511     -748.5928       5036.6539      6193.6651      4341.8648      1851.8003      1502.6684      1400.1257      2735.0438      0             -3786.0376      0              0             -129.96889      105978.08      47.322973      47.322973      47.322973      0.79153011    -1600.1211     -744.22373      98.566449    
    516000   1032000        409.49741      567.15963      7183.3358      6325.194       4393.0617      1932.1323      1517.0711      1505.0588      2764.2105      0             -3854.2081      0              0             -132.76317      103747.55      46.988612      46.988612      46.988612      0.8085477      168.19452      1222.5095      310.77491    
    516500   1033000        412.7283       422.5514       6991.0678      6336.803       4427.7225      1909.0805      1486.0987      1420.8232      2748.3363      0             -3746.1778      0              0             -129.73505      106169.1       47.351389      47.351389      47.351389      0.79010597     434.41456      641.9636       191.27603    
    517000   1034000        412.24216     -391.24906      5811.5538      6410.9492      4422.5072      1988.442       1555.2348      1499.9425      2719.0956      0             -3785.8309      0              0             -131.12069      105047.14      47.183999      47.183999      47.183999      0.79854475     225.13        -549.49166     -849.38551    
    517500   1035000        408.18833      245.53763      6680.0682      6302.9137      4379.018       1923.8957      1521.432       1484.2784      2676.4067      0             -3758.2214      0              0             -130.77662      105323.52      47.225343      47.225343      47.225343      0.79644928    -629.81806      970.84944      395.58151    
    518000   1036000        405.57975      11.923364      6255.1925      6236.9564      4351.0333      1885.9231      1541.1631      1468.9422      2642.297       0             -3766.4793      0              0             -131.34016      104871.61      47.157703      47.157703      47.157703      0.79988133    -202.73512      840.16347     -601.65826    
    518500   1037000        417.33221      437.97448      6989.3178      6320.5616      4477.1129      1843.4487      1479.3164      1449.0234      2697.0106      0             -3781.9017      0              0             -131.55651      104699.15      47.131838      47.131838      47.131838      0.80119893    -148.4768       1088.8127      373.5875     
    519000   1038000        409.4783       861.60463      7536.1161      6213.3435      4392.8567      1820.4868      1489.1264      1475.49        2639.9538      0             -3784.0835      0              0             -130.84412      105269.19      47.217221      47.217221      47.217221      0.79686036     1634.4705      620.75103      329.59238    
    519500   1039000        410.05791     -607.58976      5289.9195      6234.6226      4399.0748      1835.5478      1525.3595      1425.6318      2649.0373      0             -3764.4807      0              0             -129.19523      106612.71      47.417246      47.417246      47.417246      0.78681841    -684.56105     -840.6115      -297.59674    
    520000   1040000        418.37585      233.68394      6656.3376      6298.6961      4488.3091      1810.387       1495.8558      1463.585       2665.6373      0             -3814.6911      0              0             -131.25393      104940.51      47.168028      47.168028      47.168028      0.79935619     77.894952      891.89196     -268.73509    
    520500   1041000        406.5833      -34.547412      6146.3597      6198.5882      4361.7993      1836.7888      1521.9363      1412.2169      2694.5734      0             -3791.9378      0              0             -132.87374      103661.22      46.975576      46.975576      46.975576      0.80922104    -331.24097      504.41467     -276.81594    
    521000   1042000        409.34606     -798.59921      5058.8727      6270.0294      4391.4381      1878.5913      1535.2022      1437.6419      2724.3029      0             -3818.5557      0              0             -132.45243      103990.95      47.02533       47.02533       47.02533       0.80665522    -243.49789     -650.42944     -1501.8703    
    521500   1043000        409.35626      463.01466      6943.1054      6239.5102      4391.5475      1847.9627      1522.6418      1460.5712      2653.7118      0             -3788.9621      0              0             -132.19142      104196.28      47.056259      47.056259      47.056259      0.80506566     1016.3003      650.32741     -277.58372    
    522000   1044000        411.53979     -258.52071      5831.9058      6226.3178      4414.9723      1811.3454      1453.0447      1461.9854      2694.1199      0             -3797.8045      0              0             -131.66692      104611.35      47.11866       47.11866       47.11866       0.80187137     289.30438     -299.04347     -765.82305    
    522500   1045000        416.73534     -320.64944      5887.8988      6373.9212      4470.7098      1903.2113      1515.2993      1471.9991      2701.4294      0             -3785.5165      0              0             -132.52738      103932.14      47.016463      47.016463      47.016463      0.8071117     -573.71538     -869.40569      481.17273    
    523000   1046000        416.13089     -235.36016      5920.5332      6277.8879      4464.2253      1813.6626      1456.5111      1467.7787      2736.1716      0             -3846.7987      0              0             -132.3015       104109.58      47.043205      47.043205      47.043205      0.80573604     68.356845     -348.76396     -425.67338    
    523500   1047000        409.63133     -89.25559       6160.959       6297.6167      4394.4984      1903.1182      1510.1914      1485.1206      2682.4872      0             -3774.681       0              0             -131.1997       104983.88      47.174525      47.174525      47.174525      0.79902595    -420.53514      353.43741     -200.66904    
    524000   1048000        403.58411      587.1957       7172.2473      6279.5004      4329.6243      1949.8761      1486.5824      1522.3168      2741.6536      0             -3800.6767      0              0             -132.12526      104248.45      47.064112      47.064112      47.064112      0.80466273     859.33387      512.75615      389.49706    
    524500   1049000        418.23573     -319.51185      5982.4699      6472.9979      4486.8059      1986.1921      1506.8267      1481.1461      2756.8019      0             -3758.5827      0              0             -130.84421      105269.11      47.21721       47.21721       47.21721       0.79686095     74.449206      224.8629      -1257.8477    
    525000   1050000        411.81975      353.48081      6887.1158      6350.0217      4417.9756      1932.0461      1535.8712      1455.5492      2723.3021      0             -3782.6764      0              0             -132.20469      104185.82      47.054685      47.054685      47.054685      0.80514645    -456.34652      1002.0178      514.77119    
    525500   1051000        411.58586     -317.90158      5803.3827      6287.8077      4415.4665      1872.3412      1436.0987      1465.3235      2757.3733      0             -3786.4543      0              0             -131.82491      104485.98      47.099829      47.099829      47.099829      0.80283352    -44.571418     -590.01862     -319.1147     
    526000   1052000        407.97706     -666.58153      5357.1817      6387.3946      4376.7515      2010.6431      1476.0775      1478.3783      2763.8437      0             -3707.6565      0              0             -129.97435      105973.64      47.322311      47.322311      47.322311      0.79156332    -1163.2206     -628.67091     -207.85306    
    526500   1053000        406.29645     -301.26814      5812.34        6273.1861      4358.7221      1914.464       1475.5971      1467.948       2731.7419      0             -3760.823       0              0             -131.31933      104888.25      47.160197      47.160197      47.160197      0.79975447    -395.31349      187.15328     -695.64423    
    527000   1054000        410.68694      379.67876      6965.0362      6379.2098      4405.823       1973.3868      1507.0519      1472.6396      2740.004       0             -3746.3087      0              0             -130.19033      105797.82      47.296127      47.296127      47.296127      0.79287872     230.71623      578.12905      330.191      
    527500   1055000        403.84625      169.4601       6412.3008      6151.5795      4332.4364      1819.143       1438.8631      1490.84        2645.9843      0             -3756.5443      0              0             -130.56363      105495.34      47.251009      47.251009      47.251009      0.79515214     226.05845     -839.04667      1121.3685    
    528000   1056000        401.40047      230.13396      6562.6988      6210.6762      4306.1983      1904.4779      1466.676       1547.3597      2672.1263      0             -3781.6842      0              0             -131.32321      104885.15      47.159732      47.159732      47.159732      0.7997781      790.8618       262.47207     -362.932      
    528500   1057000        418.70218      122.96982      6514.7849      6327.7989      4491.81        1835.9889      1396.6727      1532.5335      2696.159       0             -3789.3762      0              0             -132.10547      104264.07      47.066462      47.066462      47.066462      0.80454221    -70.408545      285.19517      154.12283    
    529000   1058000        411.85612     -642.33075      5266.6972      6252.1716      4418.3658      1833.8059      1440.9573      1499.1537      2690.3402      0             -3796.6453      0              0             -130.93167      105198.8       47.206695      47.206695      47.206695      0.79739355    -700.83031      164.0524      -1390.2143    
    529500   1059000        415.73189      508.52819      7115.9412      6333.0524      4459.9449      1873.1076      1520.3952      1442.5072      2664.7661      0             -3754.5609      0              0             -130.48071      105562.38      47.261016      47.261016      47.261016      0.79464716     569.6507       247.0299       708.90397    
    530000   1060000        403.46405      381.98872      6705.6047      6118.1732      4328.3362      1789.837       1447.2228      1426.9396      2681.1786      0             -3765.504       0              0             -130.62452      105446.16      47.243666      47.243666      47.243666      0.79552296     358.73789      202.03032      585.19796    
    530500   1061000        411.92763     -424.73411      5687.8063      6343.5461      4419.133       1924.4131      1479.9433      1531.4263      2658.3932      0             -3745.3497      0              0             -130.11189      105861.61      47.30563       47.30563       47.30563       0.79240099    -172.32312     -688.23554     -413.64368    
    531000   1062000        404.75252     -69.01826       6089.1734      6195.9346      4342.1589      1853.7757      1443.7008      1483.2516      2688.2335      0             -3761.4102      0              0             -129.862        106065.32      47.335953      47.335953      47.335953      0.79087912     87.668296     -261.86688     -32.856195    
    531500   1063000        420.4081       396.67948      6955.2823      6343.8605      4510.1109      1833.7496      1496.9358      1466.7952      2645.1317      0             -3775.1131      0              0             -130.32574      105687.9       47.279741      47.279741      47.279741      0.79370337     536.21011     -387.88439      1041.7127    
    532000   1064000        406.98242     -111.58692      6155.0641      6328.7254      4366.0811      1962.6444      1509.1022      1438.4956      2726.3218      0             -3711.2753      0              0             -129.07482      106712.17      47.431987      47.431987      47.431987      0.78608506    -831.74322      477.65109      19.331362    
    532500   1065000        415.74493      131.55884      6549.2147      6346.2361      4460.0847      1886.1514      1438.3677      1492.801       2707.9499      0             -3752.9672      0              0             -130.19708      105792.34      47.29531       47.29531       47.29531       0.79291983    -545.02932      887.04862      52.657227    
    533000   1066000        418.24324     -252.07188      6071.1366      6464.32        4486.8864      1977.4335      1521.543       1438.9956      2710.5769      0             -3693.682       0              0             -128.78363      106953.45      47.467709      47.467709      47.467709      0.78431168     464.48473     -190.36746     -1030.3329    
    533500   1067000        411.75309      276.73264      6656.1564      6233.0591      4417.2605      1815.7986      1471.4791      1406.7307      2720.7175      0             -3783.1287      0              0             -131.38673      104834.44      47.152131      47.152131      47.152131      0.80016497     373.22971     -481.56433      938.53254    
    534000   1068000        413.67104      31.203864      6439.7614      6391.7992      4437.8362      1953.963       1490.4419      1537.3454      2653.5123      0             -3727.3365      0              0             -130.68947      105393.75      47.235838      47.235838      47.235838      0.79591856    -147.2638       280.36767     -39.492276    
    534500   1069000        403.30133     -494.22182      5480.381       6243.779       4326.5906      1917.1884      1476.7253      1495.8027      2680.9549      0             -3736.2945      0              0             -130.04758      105913.96      47.313427      47.313427      47.313427      0.79200931    -196.37321     -65.671109     -1220.6212    
    535000   1070000        412.13568      282.65363      6863.3119      6429.3445      4421.3649      2007.9796      1473.5602      1505.6171      2769.4559      0             -3740.6537      0              0             -130.83647      105275.34      47.218141      47.218141      47.218141      0.7968138      299.68351      446.76399      101.51339    
    535500   1071000        417.27162      217.49405      6683.971       6350.3576      4476.4629      1873.8947      1468.7913      1483.1826      2671.4842      0             -3749.5634      0              0             -130.95896      105176.87      47.203415      47.203415      47.203415      0.79755976     115.78006      555.72383     -19.021735    
    536000   1072000        406.23972      25.248385      6391.4448      6353.0211      4358.1134      1994.9077      1535.6518      1505.75        2743.8715      0             -3790.3656      0              0             -131.99766      104349.23      47.079273      47.079273      47.079273      0.80388561     274.95004      130.71005     -329.91493    
    536500   1073000        408.52883      257.62008      6658.2745      6260.7007      4382.6709      1878.0297      1477.6839      1426.708       2691.9675      0             -3718.3297      0              0             -130.16472      105818.64      47.299229      47.299229      47.299229      0.79272276     194.24861      317.94096      260.67066    
    537000   1074000        413.35739     -57.547689      6266.3212      6354.8175      4434.4714      1920.3461      1493.6005      1429.9838      2733.5322      0             -3736.7704      0              0             -130.62738      105443.85      47.243321      47.243321      47.243321      0.79554039     338.22135      9.8438608     -520.70828    
    537500   1075000        411.29822     -10.847179      6335.4146      6352.1672      4412.3807      1939.7865      1497.8829      1448.0163      2711.1255      0             -3717.2382      0              0             -130.06731      105897.89      47.311033      47.311033      47.311033      0.79212952     124.40955     -473.98433      317.03324    
    538000   1076000        411.32069     -659.47767      5250.9993      6273.6647      4412.6218      1861.0429      1436.7506      1401.931       2720.7553      0             -3698.394       0              0             -129.53821      106330.43      47.37536       47.37536       47.37536       0.78890721    -328.36952     -465.84884     -1184.2147    
    538500   1077000        413.29936     -107.0107       6326.9981      6492.362       4433.8489      2058.5131      1580.2795      1475.1214      2752.2209      0             -3749.1086      0              0             -129.99236      105958.95      47.320124      47.320124      47.320124      0.79167306    -106.21206     -94.394974     -120.42507    
    539000   1078000        418.05709     -204.65261      6073.4402      6389.3971      4484.8894      1904.5077      1501.0427      1451.0641      2703.6289      0             -3751.228       0              0             -130.11302      105860.69      47.305493      47.305493      47.305493      0.79240787    -656.024       -93.539527      135.60568    
    539500   1079000        406.9216      -404.37225      5738.1824      6358.5909      4365.4286      1993.1623      1531.2626      1509.1272      2740.1049      0             -3787.3324      0              0             -130.92872      105201.16      47.207049      47.207049      47.207049      0.79737562     60.465958     -952.81656     -320.76614    
    540000   1080000        417.38162     -211.21901      5973.4889      6297.7115      4477.643       1820.0684      1465.1074      1451.4276      2667.1435      0             -3763.6101      0              0             -130.86428      105252.97      47.214796      47.214796      47.214796      0.79698317    -533.55907      146.19718     -246.29515    
    540500   1081000        409.14997     -214.84949      6037.9979      6369.5944      4389.3345      1980.2599      1461.0507      1528.4786      2714.421       0             -3723.6904      0              0             -130.15348      105827.78      47.300591      47.300591      47.300591      0.79265428    -268.34303      63.524071     -439.72952    
    541000   1082000        415.95419      75.541528      6455.6694      6339.6932      4462.3297      1877.3636      1478.9688      1417.0468      2735.454       0             -3754.1061      0              0             -130.84236      105270.6       47.217432      47.217432      47.217432      0.79684967     765.0422       26.190936     -564.60855    
    541500   1083000        410.09884     -245.9773       5914.883       6294.12        4399.5138      1894.6062      1446.9136      1478.7778      2689.7863      0             -3720.8716      0              0             -130.2914       105715.76      47.283895      47.283895      47.283895      0.7934942     -402.64751     -302.95582     -32.328574    
    542000   1084000        407.75802      541.53167      7157.4201      6324.7593      4374.4016      1950.3577      1458.6684      1489.2372      2741.5972      0             -3739.1451      0              0             -130.6433       105431         47.241402      47.241402      47.241402      0.79563735     337.1559       712.69541      574.74371    
    542500   1085000        419.59232      119.46669      6619.5331      6436.8295      4501.3592      1935.4702      1506.3016      1462.2748      2743.1658      0             -3776.2719      0              0             -131.3503       104863.51      47.15649       47.15649       47.15649       0.7999431      11.355253      285.73424      61.310591    
    543000   1086000        414.74175     -10.357211      6333.974       6349.92        4449.3227      1900.5973      1476.6456      1448.1595      2721.2189      0             -3745.4268      0              0             -130.47407      105567.75      47.261818      47.261818      47.261818      0.79460672     954.64162     -324.65205     -661.0612     
    543500   1087000        415.40084     -706.74216      5405.6507      6495.1632      4456.3934      2038.7698      1541.5201      1498.8373      2753.6825      0             -3755.2701      0              0             -130.30472      105704.95      47.282283      47.282283      47.282283      0.79357535    -520.53938     -1976.1899      376.50285    
    544000   1088000        412.19        -223.04919      6050.4792      6401.2938      4421.9476      1979.3461      1483.4461      1471.0186      2706.2205      0             -3681.3391      0              0             -127.71868      107845.26      47.599276      47.599276      47.599276      0.77782599    -617.03764      347.7559      -399.86582    
    544500   1089000        407.33633     -56.590025      6281.6502      6368.8009      4369.8778      1998.9231      1550.5108      1500.5306      2695.9429      0             -3748.0612      0              0             -130.43681      105597.91      47.266318      47.266318      47.266318      0.79437979     496.21138      145.304       -811.28546    
    545000   1090000        409.87659     -514.26469      5498.679       6295.1813      4397.1295      1898.0518      1495.0751      1444.1236      2674.9119      0             -3716.0589      0              0             -129.69732      106199.99      47.355979      47.355979      47.355979      0.78987621    -693.38566     -393.05492     -456.3535     
    545500   1091000        408.17432      118.62398      6393.1819      6211.9781      4378.8678      1833.1104      1454.3969      1455.1389      2680.9856      0             -3757.411       0              0             -131.5033       104741.51      47.138195      47.138195      47.138195      0.80087487     61.360509      608.9763      -314.46488    
    546000   1092000        407.84505     -128.86371      6100.2862      6299.4901      4375.3353      1924.1548      1476.7263      1471.8589      2714.6566      0             -3739.087       0              0             -129.9464       105996.42      47.325703      47.325703      47.325703      0.79139316    -400.42461     -169.70229      183.53577    
    546500   1093000        404.94671     -595.4851       5320.5921      6230.7558      4344.2422      1886.5136      1441.6833      1524.3507      2709.445       0             -3788.9654      0              0             -131.42645      104802.76      47.147381      47.147381      47.147381      0.80040684    -628.24686     -1018.0331     -140.17535    
    547000   1094000        420.86314      132.3342       6570.725       6369.1316      4514.9926      1854.1391      1434.2425      1480.9016      2735.4924      0             -3796.4973      0              0             -131.86428      104454.78      47.095141      47.095141      47.095141      0.80307332     454.45955      155.85014     -213.3071     
    547500   1095000        403.70607     -151.10677      6053.9931      6286.9258      4330.9326      1955.9932      1485.2811      1500.8237      2725.2935      0             -3755.4051      0              0             -130.3121       105698.97      47.281391      47.281391      47.281391      0.79362028     185.81142     -534.8935      -104.23822    
    548000   1096000        413.60022      536.13192      7194.7919      6369.8486      4437.0765      1932.7721      1467.8165      1495.3215      2730.7484      0             -3761.1143      0              0             -130.55062      105505.85      47.252579      47.252579      47.252579      0.79507292     868.90811      363.75952      375.72814    
    548500   1097000        405.43206      290.31835      6714.103       6264.6668      4349.4489      1915.2179      1401.6123      1541.8816      2681.9363      0             -3710.2123      0              0             -129.75911      106149.42      47.348461      47.348461      47.348461      0.79025251     788.02514     -491.76698      574.69688    
    549000   1098000        402.85532     -329.92287      5597.5477      6103.8535      4321.8058      1782.0477      1423.673       1489.0761      2664.0417      0             -3794.7431      0              0             -130.89734      105226.38      47.210821      47.210821      47.210821      0.79718451    -488.98048     -72.483601     -428.30454    
    549500   1099000        413.48126      58.346629      6372.213       6282.4371      4435.8003      1846.6368      1488.1959      1435.314       2664.0202      0             -3740.8932      0              0             -130.55315      105503.8       47.252273      47.252273      47.252273      0.79508834    -712.21257      403.85168      483.40078    
    550000   1100000        406.12065     -113.93523      5925.0166      6097.7035      4356.836       1740.8675      1427.1523      1448.304       2680.3991      0             -3814.988       0              0             -132.53484      103926.29      47.015581      47.015581      47.015581      0.80715709    -29.148638      676.52504     -989.18208    
    550500   1101000        409.28484     -116.47654      6055.8788      6232.8365      4390.7814      1842.0551      1423.9426      1518.6941      2706.8447      0             -3807.4263      0              0             -132.22098      104172.99      47.052753      47.052753      47.052753      0.80524564    -328.94595      440.40885     -460.89252    
    551000   1102000        418.05904     -383.05438      5723.7933      6312.992       4484.9103      1828.0817      1445.3489      1452.5338      2705.3228      0             -3775.1238      0              0             -130.59604      105469.15      47.2471        47.2471        47.2471        0.79534955    -70.508214     -1232.8458      154.19093    
    551500   1103000        407.96728     -67.627348      6303.8098      6407.0546      4376.6466      2030.408       1567.5863      1540.6292      2716.5075      0             -3794.3149      0              0             -131.57859      104681.58      47.129202      47.129202      47.129202      0.8013334      116.26709      556.56024     -875.70937    
    552000   1104000        402.36824     -501.61112      5361.5523      6124.9794      4316.5805      1808.3989      1458.9225      1450.0065      2705.64        0             -3806.1701      0              0             -131.98692      104357.72      47.08055       47.08055       47.08055       0.80382022    -464.07602     -694.90508     -345.85227    
    552500   1105000        401.91327     -411.86763      5609.1306      6239.6         4311.6995      1927.9005      1481.834       1524.7354      2713.0986      0             -3791.7676      0              0             -131.22755      104961.6       47.171188      47.171188      47.171188      0.79919553    -703.34342      529.26491     -1061.5244    
    553000   1106000        404.01606      9.848879       6119.3783      6104.4528      4334.2582      1770.1946      1434.2199      1486.0067      2655.6811      0             -3805.7131      0              0             -132.55297      103912.08      47.013438      47.013438      47.013438      0.80726751     326.17823     -259.55741     -37.074183    
    553500   1107000        423.08508      239.71249      6821.7493      6459.5379      4538.8294      1920.7084      1524.571       1498.4845      2721.9273      0             -3824.2743      0              0             -132.94128      103608.56      46.967618      46.967618      46.967618      0.8096324      506.55563      181.54093      31.040925    
    554000   1108000        413.12385     -185.99834      5969.4905      6252.4757      4431.966       1820.5098      1448.5291      1489.8873      2684.7351      0             -3802.6418      0              0             -132.03122      104322.7       47.075284      47.075284      47.075284      0.80409001    -431.14743     -464.39648      337.5489     
    554500   1109000        414.12297     -181.23238      6058.473       6335.4156      4442.6844      1892.7311      1526.5246      1490.3456      2677.3341      0             -3801.4731      0              0             -131.4551       104779.91      47.143954      47.143954      47.143954      0.80058136    -295.62349     -245.30767     -2.7659719    
    555000   1110000        413.97222      587.60543      7255.3525      6354.5737      4441.0672      1913.5065      1477.89        1535.5922      2681.7877      0             -3781.7634      0              0             -131.03854      105113         47.193857      47.193857      47.193857      0.79804443     631.34752      872.66288      258.8059     
    555500   1111000        402.13741     -609.75512      5195.7819      6134.8676      4314.1041      1820.7635      1448.3126      1423.886       2693.1451      0             -3744.5802      0              0             -130.43123      105602.42      47.266991      47.266991      47.266991      0.79434582    -461.23647     -695.82059     -672.2083     
    556000   1112000        414.82946      643.64215      7285.5906      6299.4989      4450.2637      1849.2352      1451.2318      1429.048       2724.6406      0             -3755.6852      0              0             -131.11686      105050.22      47.184459      47.184459      47.184459      0.79852139     592.08389      1037.6579      301.18462    
    556500   1113000        415.50272     -319.33944      6076.3487      6565.888       4457.4863      2108.4016      1560.3771      1545.49        2788.2077      0             -3785.6731      0              0             -131.03775      105113.63      47.193952      47.193952      47.193952      0.79803963     408.06474     -1411.0591      44.975995    
    557000   1114000        410.35234      561.24544      7143.9788      6294.8219      4402.2334      1892.5884      1481.4391      1445.1996      2788.6987      0             -3822.749       0              0             -132.76885      103743.11      46.987942      46.987942      46.987942      0.80858228     861.14938      525.01026      297.57666    
    557500   1115000        411.16304     -466.58521      5714.564       6431.4637      4410.9305      2020.5331      1509.827       1516.7455      2741.742       0             -3747.7813      0              0             -130.73864      105354.11      47.229915      47.229915      47.229915      0.79621801    -554.17844     -634.8495      -210.72769    
    558000   1116000        406.72371      244.16853      6727.7743      6354.6162      4363.3057      1991.3104      1527.1718      1489.3454      2757.8749      0             -3783.0816      0              0             -131.44019      104791.8       47.145738      47.145738      47.145738      0.80049053     799.30042     -301.8085       235.01368    
    558500   1117000        400.45277      166.09402      6571.2156      6317.4951      4296.0314      2021.4637      1567.2228      1509.7376      2736.7099      0             -3792.2066      0              0             -131.50125      104743.14      47.138439      47.138439      47.138439      0.80086239     568.57862      686.91285     -757.2094     
    559000   1118000        419.20236     -141.73476      6114.3253      6330.2803      4497.1759      1833.1045      1474.029       1465.4115      2684.2515      0             -3790.5875      0              0             -131.83916      104474.68      47.098132      47.098132      47.098132      0.80292034    -190.70431     -30.975868     -203.5241     
    559500   1119000        396.27429      272.25409      6497.2283      6081.8192      4251.2049      1830.6142      1489.3409      1497.7782      2634.1275      0             -3790.6324      0              0             -131.65269      104622.65      47.120357      47.120357      47.120357      0.80178472     452.21891      492.55406     -128.0107     
    560000   1120000        411.29231     -218.68142      5988.0279      6325.1028      4412.3173      1912.7855      1499.235       1514.1184      2652.9732      0             -3753.5411      0              0             -130.32175      105691.14      47.280224      47.280224      47.280224      0.79367906    -111.92705     -469.77562     -74.341578    
    560500   1121000        412.31142     -162.35113      6057.8303      6307.4637      4423.2503      1884.2134      1450.1372      1464.248       2724.4151      0             -3754.587       0              0             -130.64237      105431.75      47.241514      47.241514      47.241514      0.79563171    -515.27092     -15.067798      43.285317    
    561000   1122000        408.59192      476.80912      6986.6435      6259.7382      4383.3477      1876.3905      1492.8085      1457.9549      2702.7071      0             -3777.08        0              0             -131.7644       104533.96      47.107038      47.107038      47.107038      0.80246503     1000.1795      44.025516      386.22235    
    561500   1123000        407.65523     -260.83909      5883.4514      6283.7208      4373.299       1910.4218      1439.0739      1527.6692      2720.0461      0             -3776.3673      0              0             -130.90361      105221.35      47.210067      47.210067      47.210067      0.79722268     27.71513       195.03942     -1005.2718    
    562000   1124000        402.78659     -469.10018      5536.4154      6258.8556      4321.0685      1937.7871      1522.894       1453.3958      2706.4959      0             -3744.9986      0              0             -130.43527      105599.15      47.266504      47.266504      47.266504      0.79437042    -759.76988      112.69814     -760.2288     
    562500   1125000        417.95915      277.25168      6869.0833      6446.0926      4483.8388      1962.2538      1493.3335      1530.0514      2725.9625      0             -3787.0936      0              0             -131.66632      104611.83      47.118732      47.118732      47.118732      0.80186769     522.65508      757.55718     -448.45723    
    563000   1126000        407.43052      226.80399      6531.8506      6188.6992      4370.8882      1817.8109      1444.8929      1441.0077      2729.2761      0             -3797.3658      0              0             -132.76885      103743.11      46.987942      46.987942      46.987942      0.8085823      316.46261     -317.84193      681.79128    
    563500   1127000        405.19867      163.68282      6368.7819      6119.2289      4346.9451      1772.2838      1452.1107      1437.2463      2689.3051      0             -3806.3782      0              0             -131.75642      104540.28      47.107988      47.107988      47.107988      0.80241644    -87.668911      362.01644      216.70094    
    564000   1128000        406.4991       437.71403      6860.4089      6192.869       4360.8961      1831.9729      1449.357       1524.3121      2622.8447      0             -3764.5409      0              0             -131.71785      104570.9       47.112587      47.112587      47.112587      0.8021815      2047.9404     -199.80345     -534.99483    
    564500   1129000        412.37329     -487.35266      5527.2518      6268.3329      4423.914       1844.4189      1488.8894      1486.3888      2678.9969      0             -3809.8563      0              0             -132.10186      104266.92      47.066891      47.066891      47.066891      0.80452022    -917.45436     -489.13493     -55.46868     
    565000   1130000        409.17736     -366.86886      5727.527       6290.0287      4389.6283      1900.4005      1564.2477      1450.7908      2679.4717      0             -3794.1097      0              0             -131.0142       105132.53      47.19678       47.19678       47.19678       0.79789618    -538.20353     -139.71212     -422.69093    
    565500   1131000        413.48303      76.993114      6336.0529      6218.1155      4435.8192      1782.2962      1521.9057      1411.8406      2634.8013      0             -3786.2513      0              0             -131.13885      105032.6       47.181822      47.181822      47.181822      0.7986553      146.8522      -237.50423      321.63137    
    566000   1132000        417.34018     -238.55621      6019.8884      6386.0606      4477.1985      1908.8621      1560.7833      1458.0673      2643.7412      0             -3753.7296      0              0             -130.86899      105249.18      47.21423       47.21423       47.21423       0.79701182    -561.69222     -9.3603571     -144.61606    
    566500   1133000        405.72128     -352.86654      5698.297       6239.5274      4352.5517      1886.9757      1527.8922      1448.7982      2689.3834      0             -3779.098       0              0             -130.96634      105170.94      47.202528      47.202528      47.202528      0.79760474    -606.17161     -46.484166     -405.94385    
    567000   1134000        413.03759      474.5543       7003.9367      6284.0659      4431.0406      1853.0252      1519.6207      1473.6559      2664.1144      0             -3804.3657      0              0             -132.42278      104014.24      47.02884       47.02884       47.02884       0.80647463     809.13562      352.31872      262.20856    
    567500   1135000        412.05012      266.88324      6643.824       6235.1274      4420.4471      1814.6803      1489.5267      1500.8924      2609.6952      0             -3785.4339      0              0             -131.17518      105003.51      47.177465      47.177465      47.177465      0.79887657     363.23361     -294.20573      731.62183    
    568000   1136000        416.46204      640.06159      7316.6726      6338.309       4467.7778      1870.5311      1552.2902      1448.2856      2670.3742      0             -3800.4189      0              0             -131.41739      104809.98      47.148463      47.148463      47.148463      0.8003517      544.55259      1174.1801      201.45211    
    568500   1137000        404.9558       516.38423      6969.8967      6187.0284      4344.3396      1842.6888      1507.5637      1479.0792      2689.8794      0             -3833.8335      0              0             -132.49992      103953.68      47.019711      47.019711      47.019711      0.80694446    -203.86042      813.66431      939.34879    
    569000   1138000        407.58782      230.86187      6595.8737      6244.3974      4372.5758      1871.8217      1538.1328      1468.4403      2663.4543      0             -3798.2058      0              0             -131.94337      104392.16      47.085729      47.085729      47.085729      0.80355501    -277.06486      837.71228      131.93818    
    569500   1139000        430.61358     -269.34376      6013.7262      6425.4495      4619.5947      1805.8548      1474.9769      1446.0368      2672.6506      0             -3787.8094      0              0             -131.41134      104814.8       47.149187      47.149187      47.149187      0.80031485     85.78383      -359.77074     -534.04438    
    570000   1140000        418.15239     -220.38849      5939.8847      6277.2964      4485.9119      1791.3845      1487.302       1404.7444      2695.1718      0             -3795.8337      0              0             -131.20795      104977.29      47.173538      47.173538      47.173538      0.79907614    -412.85639     -678.4544       430.1453     
    570500   1141000        408.40167      109.24376      6457.961       6288.4616      4381.3067      1907.1549      1498.8093      1458.3605      2687.8723      0             -3737.8871      0              0             -129.46721      106388.74      47.384019      47.384019      47.384019      0.78847481     4.073715       465.38901     -141.73144    
    571000   1142000        413.45034      61.532505      6578.779       6483.5477      4435.4685      2048.0792      1515.1157      1510.9609      2763.0782      0             -3741.0756      0              0             -129.79444      106120.53      47.344165      47.344165      47.344165      0.79046766    -544.01122      354.92684      373.68189    
    571500   1143000        404.58458      670.64235      7239.2674      6206.1748      4340.3572      1865.8176      1493.0909      1431.2409      2729.2303      0             -3787.7444      0              0             -130.40166      105626.37      47.270564      47.270564      47.270564      0.79416575     1122.5242      630.60763      258.79524    
    572000   1144000        413.40351     -352.34168      5776.7717      6316.9909      4434.9661      1882.0248      1506.0225      1404.7703      2733.7638      0             -3762.5318      0              0             -131.01631      105130.84      47.196527      47.196527      47.196527      0.79790901    -361.0982      -1027.5545      331.62764    
    572500   1145000        414.65973      774.34707      7453.5639      6270.8252      4448.4428      1822.3824      1504.0511      1454.8863      2626.1498      0             -3762.7047      0              0             -131.51589      104731.48      47.13669       47.13669       47.13669       0.80095156     566.9586       1392.3782      363.70442    
    573000   1146000        413.86773      903.03827      7693.9031      6315.5893      4439.9462      1875.6431      1481.8093      1451.4269      2741.638       0             -3799.2311      0              0             -131.61016      104656.46      47.125433      47.125433      47.125433      0.80152568     1779.8305      535.22945      394.05483    
    573500   1147000        406.77078     -671.49633      5162.0953      6190.0906      4363.8107      1826.2799      1406.2395      1514.6588      2680.9148      0             -3775.5332      0              0             -131.21512      104971.54      47.172678      47.172678      47.172678      0.79911984    -1591.2107      81.974074     -505.25234    
    574000   1148000        404.5145      -292.97039      5710.4382      6162.4371      4339.6054      1822.8316      1438.9138      1465.8718      2668.6561      0             -3750.61        0              0             -130.20202      105788.32      47.294711      47.294711      47.294711      0.79294992    -477.83583     -195.1895      -205.88585    
    574500   1149000        409.26553     -126.37556      6076.9646      6271.4681      4390.5741      1880.894       1496.8251      1463.842       2663.3191      0             -3743.0923      0              0             -130.51699      105533.03      47.256637      47.256637      47.256637      0.79486811     585.55152     -47.254938     -917.42324    
    575000   1150000        414.34924     -547.13995      5652.0076      6503.5147      4445.1118      2058.4028      1563.2105      1512.4199      2677.9064      0             -3695.134       0              0             -129.07483      106712.16      47.431986      47.431986      47.431986      0.78608513     34.552273     -1527.5392     -148.43288    
    575500   1151000        405.53041     -222.92263      5832.9287      6174.2437      4350.5041      1823.7396      1411.7503      1492.3004      2659.8154      0             -3740.1265      0              0             -131.19888      104984.54      47.174625      47.174625      47.174625      0.7990209     -560.95964      156.34329     -264.15156    
    576000   1152000        410.1463       24.922999      6322.1143      6283.7256      4400.023       1883.7026      1481.979       1421.8827      2729.1306      0             -3749.2897      0              0             -130.41508      105615.5       47.268943      47.268943      47.268943      0.79424745    -499.95149      445.63963      129.08086    
    576500   1153000        405.86436      308.43324      6538.3026      6064.7743      4354.0866      1710.6876      1413.5864      1438.0593      2656.8765      0             -3797.8346      0              0             -130.84182      105271.04      47.217498      47.217498      47.217498      0.79684637     401.79371     -157.116        680.62199    
    577000   1154000        418.34279     -453.92644      5696.6065      6385.7515      4487.9544      1897.7971      1475.438       1442.628       2765.0686      0             -3785.3374      0              0             -132.31413      104099.64      47.041708      47.041708      47.041708      0.80581298    -605.62531     -622.91531     -133.2387     
    577500   1155000        407.79521      781.83153      7379.1788      6202.4168      4374.8006      1827.6161      1447.0824      1483.8667      2732.3554      0             -3835.6884      0              0             -133.46147      103204.72      46.906518      46.906518      46.906518      0.81280042     1370.0527      996.59839     -21.156474    
    578000   1156000        404.38861     -408.40621      5522.8679      6143.0175      4338.2548      1804.7627      1434.0614      1482.8061      2698.9853      0             -3811.0902      0              0             -132.29008      104118.57      47.044559      47.044559      47.044559      0.80566647    -633.44775     -541.35806     -50.412805    
    578500   1157000        406.91777      326.04402      6856.5871      6356.1824      4365.3876      1990.7949      1485.8119      1497.1538      2752.1814      0             -3744.3522      0              0             -130.8839       105237.19      47.212437      47.212437      47.212437      0.79710262     168.3034      -165.71073      975.53938    
    579000   1158000        404.56884      311.85274      6838.0048      6358.4099      4340.1884      2018.2215      1524.7664      1494.2546      2728.609       0             -3729.4085      0              0             -130.619        105450.62      47.244331      47.244331      47.244331      0.79548937    -343.21394      912.77155      366.00061    
    579500   1159000        411.49577     -419.14406      5670.4519      6314.8453      4414.5         1900.3453      1481.6597      1467.3691      2707.203       0             -3755.8865      0              0             -130.66029      105417.29      47.239354      47.239354      47.239354      0.79574085    -520.66094     -72.114592     -664.65665    
    580000   1160000        404.5605       104.9624       6305.9615      6147.1808      4340.0989      1807.0819      1468.0974      1514.0208      2642.6018      0             -3817.6381      0              0             -132.79066      103726.08      46.98537       46.98537       46.98537       0.80871508     324.52771      397.78815     -407.42865    
    580500   1161000        413.23406     -561.28348      5400.1822      6261.8229      4433.1483      1828.6746      1495.3394      1432.0847      2674.6734      0             -3773.4229      0              0             -130.85412      105261.15      47.216019      47.216019      47.216019      0.79692125    -811.84964     -738.81148     -133.18932    
    581000   1162000        410.75658     -207.62132      6022.8833      6340.344       4406.5701      1933.774       1508.5724      1548.8177      2668.733       0             -3792.3491      0              0             -131.37519      104843.64      47.153511      47.153511      47.153511      0.8000947      435.81238     -280.33071     -778.34563    
    581500   1163000        411.26786     -356.73943      5680.4066      6225.8037      4412.055       1813.7488      1450.6919      1420.9401      2724.9234      0             -3782.8067      0              0             -131.3922       104830.07      47.151476      47.151476      47.151476      0.80019828    -218.64855     -135.7003      -715.86943    
    582000   1164000        406.11539     -746.95498      5111.5865      6265.0923      4356.7797      1908.3126      1500.8396      1464.5924      2681.4286      0             -3738.548       0              0             -130.07864      105888.67      47.30966       47.30966       47.30966       0.79219851    -593.95891     -230.91859     -1415.9875    
    582500   1165000        423.91436      45.190464      6421.889       6353.1342      4547.7259      1805.4083      1468.6038      1457.0094      2713.7916      0             -3833.9965      0              0             -132.03074      104323.08      47.075341      47.075341      47.075341      0.80408708     29.637414      98.600965      7.333012     
    583000   1166000        411.05817     -446.12852      5650.0572      6327.4168      4409.8055      1917.6114      1532.7632      1521.2046      2687.264       0             -3823.6205      0              0             -132.30372      104107.83      47.042942      47.042942      47.042942      0.80574958    -313.32063     -590.48126     -434.58367    
    583500   1167000        414.1071       426.09364      6917.6438      6270.2249      4442.5142      1827.7107      1490.897       1439.6652      2722.0196      0             -3824.871       0              0             -132.20596      104184.82      47.054534      47.054534      47.054534      0.80515421     584.48869      461.34479      232.44745    
    584000   1168000        403.42365      353.16662      6636.1439      6102.3687      4327.9028      1774.4659      1445.1227      1451.0314      2706.0888      0             -3827.7769      0              0             -132.90846      103634.14      46.971484      46.971484      46.971484      0.80943253    -259.59667      925.11379      393.98274    
    584500   1169000        411.50842     -201.95152      6059.7694      6366.4744      4414.6357      1951.8387      1506.8463      1512.7222      2712.6149      0             -3780.3448      0              0             -132.26886      104135.27      47.047074      47.047074      47.047074      0.80553726    -597.3991       791.32372     -799.7792     
    585000   1170000        415.93404      250.45236      6746.7916      6363.0969      4462.1135      1900.9833      1508.6043      1437.9211      2707.4551      0             -3752.9973      0              0             -131.12051      105047.29      47.184021      47.184021      47.184021      0.79854362     205.84435      777.87737     -232.36464    
    585500   1171000        417.34094      70.79593       6369.4201      6262.4651      4477.2066      1785.2585      1431.6208      1504.3691      2680.878       0             -3831.6094      0              0             -132.96536      103589.8       46.964784      46.964784      46.964784      0.80977903     42.807956     -14.388088      183.96792    
    586000   1172000        403.02472      380.72099      6733.3809      6154.7587      4323.6231      1831.1356      1478.6446      1452.4317      2698.5848      0             -3798.5255      0              0             -132.17311      104210.71      47.058432      47.058432      47.058432      0.80495413     836.98243      358.59416     -53.413635    
    586500   1173000        423.84102      442.01209      7021.2925      6353.3825      4546.939       1806.4434      1396.2034      1488.2993      2739.7102      0             -3817.7694      0              0             -132.93751      103611.49      46.968062      46.968062      46.968062      0.80960946     528.29338      377.36217      420.38072    
    587000   1174000        403.23257     -299.11472      5791.8359      6251.4027      4325.853       1925.5497      1474.3961      1477.8947      2737.8822      0             -3764.6232      0              0             -130.74362      105350.1       47.229316      47.229316      47.229316      0.79624834    -739.92141      414.37083     -571.79357    
    587500   1175000        411.48958     -85.930341      6102.5202      6233.3946      4414.4336      1818.961       1504.3426      1472.3009      2617.6208      0             -3775.3033      0              0             -131.8934       104431.71      47.091674      47.091674      47.091674      0.80325068     505.82342      400.56985     -1164.1843    
    588000   1176000        413.29861      33.631325      6370.4044      6318.7387      4433.8407      1884.8979      1477.8919      1464.9806      2698.551       0             -3756.5256      0              0             -130.7595       105337.31      47.227403      47.227403      47.227403      0.79634506    -406.1599      -167.53587      674.58975    
    588500   1177000        407.55548      347.94939      6805.5106      6272.4478      4372.2289      1900.219       1545.3356      1397.9066      2716.775       0             -3759.7983      0              0             -131.12004      105047.66      47.184077      47.184077      47.184077      0.79854078     343.37352      804.68519     -104.21055    
    589000   1178000        408.50162     -263.34079      5852.1939      6259.6932      4382.3789      1877.3143      1489.8163      1371.9452      2746.8341      0             -3731.2814      0              0             -129.81433      106104.27      47.341747      47.341747      47.341747      0.79058878    -222.32588      145.00618     -712.70266    
    589500   1179000        408.25441      339.4991       6877.5219      6355.5707      4379.7269      1975.8437      1501.2974      1469.4866      2754.6757      0             -3749.616       0              0             -130.65921      105418.16      47.239484      47.239484      47.239484      0.79573425     430.5233      -77.769523      665.74353    
    590000   1180000        414.21033      21.986597      6312.8035      6279.4543      4443.6216      1835.8326      1498.3021      1438.0184      2712.7629      0             -3813.2508      0              0             -132.43546      104004.28      47.027339      47.027339      47.027339      0.80655186     62.821088     -317.13269      320.2714     
    590500   1181000        408.20738     -70.829079      6306.7408      6416.6714      4379.2224      2037.449       1521.1765      1468.2572      2761.8941      0             -3713.8788      0              0             -129.42692      106421.86      47.388936      47.388936      47.388936      0.78822941    -518.30425      27.510504      278.30651    
    591000   1182000        402.51584      304.1271       6671.6482      6205.0381      4318.1639      1886.8742      1479.7251      1477.8098      2694.1394      0             -3764.8001      0              0             -130.92796      105201.78      47.20714       47.20714       47.20714       0.79737098     268.35835      573.78459      70.238356    
    591500   1183000        411.42768      660.31881      7209.4421      6189.6111      4413.7696      1775.8415      1405.7753      1427.421       2671.0407      0             -3728.3956      0              0             -130.06392      105900.66      47.311446      47.311446      47.311446      0.79210882     810.77686      963.65016      206.52941    
    592000   1184000        406.65745     -42.548132      6154.8086      6220.3974      4362.5948      1857.8026      1472.3377      1465.2795      2680.1432      0             -3759.9579      0              0             -130.31124      105699.66      47.281495      47.281495      47.281495      0.79361508     115.05973     -175.2962      -67.407916    
    592500   1185000        411.41689     -483.32667      5570.4153      6321.986       4413.6538      1908.3322      1478.8902      1459.2956      2674.8161      0             -3704.6697      0              0             -129.18208      106623.57      47.418855      47.418855      47.418855      0.78673831    -350.99272     -425.62956     -673.35774    
    593000   1186000        418.32632      1057.1616      7959.6878      6336.6587      4487.7777      1848.881       1470.1661      1437.0453      2695.8153      0             -3754.1457      0              0             -130.84177      105271.07      47.217503      47.217503      47.217503      0.79684609     1081.9408      987.91751      1101.6264    
    593500   1187000        410.18981      547.85519      7096.7246      6258.4679      4400.4898      1857.9782      1506.0324      1453.4847      2667.2703      0             -3768.8092      0              0             -131.28651      104914.47      47.164126      47.164126      47.164126      0.79955459     1335.4747      417.47478     -109.38386    
    594000   1188000        414.33792      557.7368       7224.6684      6377.0278      4444.9905      1932.0373      1538.9732      1464.0847      2704.7611      0             -3775.7816      0              0             -132.17487      104209.32      47.058223      47.058223      47.058223      0.80496485     547.65259      976.1764       149.3814     
    594500   1189000        416.91403     -388.7859       5819.5344      6424.9484      4472.6268      1952.3216      1494.7454      1452.2259      2721.0921      0             -3715.7418      0              0             -128.99992      106774.13      47.441165      47.441165      47.441165      0.78562893    -891.91423     -380.03008      105.58661    
    595000   1190000        410.20659      125.10263      6553.1642      6361.4838      4400.6698      1960.814       1504.2835      1480.7246      2750.2345      0             -3774.4287      0              0             -131.10524      105059.52      47.185853      47.185853      47.185853      0.79845065    -194.54442      1590.9676     -1021.1153    
    595500   1191000        401.28234      94.020019      6362.9238      6218.5978      4304.931       1913.6667      1540.3846      1397.8742      2745.2299      0             -3769.8219      0              0             -130.86003      105256.39      47.215307      47.215307      47.215307      0.79695726     804.9391      -91.55488      -431.32416    
    596000   1192000        404.09552      247.76377      6688.5301      6311.21        4335.1106      1976.0995      1542.1162      1460.2106      2745.6788      0             -3771.9061      0              0             -131.90439      104423.01      47.090367      47.090367      47.090367      0.80331759     429.57878     -19.2436        332.95612    
    596500   1193000        421.80654      390.85452      7010.7328      6414.4525      4525.1133      1889.3392      1433.2157      1504.2243      2753.4613      0             -3801.5621      0              0             -131.67278      104606.69      47.117961      47.117961      47.117961      0.80190704     604.59543      110.78087      457.18725    
    597000   1194000        413.16608     -92.403222      6144.2072      6286.6727      4432.419       1854.2538      1456.2835      1407.248       2743.2331      0             -3752.5109      0              0             -130.28926      105717.49      47.284153      47.284153      47.284153      0.79348121    -366.05739     -654.6085       743.45622    
    597500   1195000        406.28153     -152.98392      6057.4925      6291.8565      4358.562       1933.2945      1491.2191      1487.4542      2712.4527      0             -3757.8315      0              0             -131.12522      105043.51      47.183456      47.183456      47.183456      0.79857235    -675.17487     -511.65981      727.88292    
    598000   1196000        413.91984     -330.52876      5830.6255      6330.5615      4440.5053      1890.0562      1507.1471      1455.254       2745.398       0             -3817.7429      0              0             -132.80861      103712.06      46.983253      46.983253      46.983253      0.80882441     353.22456     -995.41047     -349.40037    
    598500   1197000        416.52478     -47.763996      6231.3589      6303.7285      4468.4509      1835.2776      1489.7857      1419.2924      2730.7899      0             -3804.5904      0              0             -132.57938      103891.37      47.010315      47.010315      47.010315      0.80742838     556.87854      250.00983     -950.18036    
    599000   1198000        407.09038      283.44611      6672.6485      6240.0612      4367.2393      1872.822       1516.3547      1424.6232      2725.157       0             -3793.3129      0              0             -131.62191      104647.12      47.124031      47.124031      47.124031      0.80159723     674.7416       614.10271     -438.50599    
    599500   1199000        402.32521     -483.70851      5513.0709      6253.5155      4316.1189      1937.3966      1529.6201      1464.1115      2710.9624      0             -3767.2974      0              0             -131.2268       104962.2       47.171279      47.171279      47.171279      0.79919095    -95.572142     -813.43864     -542.11475    
    600000   1200000        401.51319      480.25467      7058.6947      6315.0415      4307.4075      2007.634       1565.5358      1518.4034      2665.8717      0             -3742.1769      0              0             -129.72765      106175.16      47.352289      47.352289      47.352289      0.79006091     368.81547      428.28781      643.66073    
    600500   1201000        420.38051      403.5471       7064.4969      6450.0474      4509.815       1940.2324      1502.907       1483.9749      2732.8805      0             -3779.5299      0              0             -131.92873      104403.75      47.087471      47.087471      47.087471      0.80346583     561.02317      175.67489      473.94324    
    601000   1202000        417.7814      -530.22361      5528.0779      6339.237       4481.9319      1857.3052      1469.3475      1484.3056      2673.0381      0             -3769.3861      0              0             -131.30594      104898.94      47.1618        47.1618        47.1618        0.79967291    -1136.3607     -1038.1009      583.79079    
    601500   1203000        400.10595      476.56609      6890.5017      6157.2024      4292.3108      1864.8916      1481.5109      1431.3233      2682.827       0             -3730.7695      0              0             -130.54891      105507.23      47.252785      47.252785      47.252785      0.79506248     331.20046      494.15772      604.34008    
    602000   1204000        410.16277      976.37445      7699.8534      6219.6547      4400.1997      1819.455       1453.7498      1468.9747      2689.1901      0             -3792.4596      0              0             -132.50363      103950.77      47.019272      47.019272      47.019272      0.80696702     719.82982      690.27981      1519.0137    
    602500   1205000        401.69036     -583.43816      5283.5904      6185.4998      4309.3082      1876.1916      1499.3914      1459.2763      2642.0549      0             -3724.5309      0              0             -129.94611      105996.66      47.325738      47.325738      47.325738      0.79139137    -422.2124      -816.79297     -511.30912    
    603000   1206000        413.44481     -22.529754      6202.7301      6237.1364      4435.4093      1801.7272      1465.0309      1454.5005      2689.6924      0             -3807.4966      0              0             -131.53738      104714.37      47.134122      47.134122      47.134122      0.80108246    -1224.436       139.91647      1016.9303    
    603500   1207000        421.34612      334.44251      6925.8919      6414.8679      4520.174       1894.694       1492.397       1426.4023      2720.0775      0             -3744.1829      0              0             -131.46544      104771.67      47.142718      47.142718      47.142718      0.80064433     86.66954       586.56633      330.09166    
    604000   1208000        415.41645     -658.56378      5314.137       6331.7236      4456.5609      1875.1627      1486.056       1461.1111      2682.9842      0             -3754.9886      0              0             -130.00434      105949.18      47.318671      47.318671      47.318671      0.79174601    -395.41569     -863.86824     -716.40741    
    604500   1209000        394.08876     -90.313151      5980.4611      6118.693       4227.7587      1890.9343      1487.2449      1466.6632      2686.8142      0             -3749.788       0              0             -131.24233      104949.78      47.169418      47.169418      47.169418      0.79928554     394.27758      232.76343     -897.98046    
    605000   1210000        420.01702      438.36087      7017.2466      6359.5095      4505.9155      1853.594       1469.4922      1495.5595      2739.3391      0             -3850.7968      0              0             -133.87849      102883.25      46.857763      46.857763      46.857763      0.81534018     373.64591      197.13853      744.29817    
    605500   1211000        410.15659      592.80136      7100.0139      6195.1825      4400.1334      1795.0491      1463.6178      1483.1352      2603.2032      0             -3754.907       0              0             -131.60515      104660.45      47.126031      47.126031      47.126031      0.80149516     1191.3592     -50.772975      637.81786    
    606000   1212000        407.01984     -163.23471      5996.2756      6244.3237      4366.4825      1877.8412      1476.397       1522.3578      2661.6559      0             -3782.5695      0              0             -132.19284      104195.16      47.056091      47.056091      47.056091      0.80507429    -395.53114     -342.54843      248.37545    
    606500   1213000        403.85516      341.25036      6631.8145      6109.5788      4332.5321      1777.0467      1432.9507      1431.5858      2668.2286      0             -3755.7185      0              0             -131.26168      104934.31      47.1671        47.1671        47.1671        0.79940338     334.16833      302.74156      386.8412     
    607000   1214000        408.39427      299.40161      6816.1155      6359.4954      4381.2274      1978.268       1546.4688      1457.6158      2756.3857      0             -3782.2024      0              0             -131.71354      104574.32      47.1131        47.1131        47.1131        0.80215529     911.52079      81.767576     -95.083527    
    607500   1215000        403.67821     -438.36289      5603.3905      6269.5301      4330.6338      1938.8963      1435.3283      1577.5269      2729.6502      0             -3803.609       0              0             -132.1904       104197.08      47.056381      47.056381      47.056381      0.80505942    -1258.7905     -136.13928      79.841123    
    608000   1216000        416.70841     -102.66175      6170.2931      6327.9351      4470.4209      1857.5142      1429.0977      1482.5726      2703.6485      0             -3757.8045      0              0             -130.81822      105290.03      47.220337      47.220337      47.220337      0.79670264    -691.73488     -370.28956      754.03919    
    608500   1217000        414.49108      361.11317      6751.1607      6203.6051      4446.6335      1756.9716      1391.0666      1497.7839      2691.7302      0             -3823.6091      0              0             -132.47883      103970.23      47.022205      47.022205      47.022205      0.80681602     584.39033      285.44597      213.50321    
    609000   1218000        406.67771     -375.51391      5610.1822      6173.9086      4362.8121      1811.0965      1441.1477      1497.8629      2723.3424      0             -3851.2565      0              0             -133.81015      102935.8       46.86574       46.86574       46.86574       0.81492393    -851.17986      33.305177     -308.66704    
    609500   1219000        418.21254      69.504687      6446.3053      6340.9417      4486.5571      1854.3846      1417.1567      1513.8985      2712.1505      0             -3788.821       0              0             -132.51192      103944.27      47.018292      47.018292      47.018292      0.80701751    -163.79778      671.86323     -299.5514     
    610000   1220000        410.1579       163.55508      6639.3142      6388.8744      4400.1474      1988.7269      1462.7727      1514.4012      2768.934       0             -3757.3809      0              0             -131.18735      104993.77      47.176006      47.176006      47.176006      0.7989507      438.94538     -1021.5626      1073.2824    
    610500   1221000        408.68284     -49.681975      6162.4978      6238.1893      4384.3231      1853.8662      1453.2924      1476.5981      2739.7599      0             -3815.7842      0              0             -131.85092      104465.36      47.096731      47.096731      47.096731      0.80299196    -260.2528      -162.33589      273.54277    
    611000   1222000        406.39216     -201.74586      5898.1957      6204.2248      4359.7488      1844.476       1472.0008      1443.2376      2723.23        0             -3793.9925      0              0             -132.426        104011.7       47.028458      47.028458      47.028458      0.80649427    -716.57415      57.760129      53.57644     
    611500   1223000        414.24678     -56.064481      6309.7515      6396.0504      4444.0127      1952.0377      1527.3143      1508.1931      2648.9257      0             -3732.3955      0              0             -130.50099      105545.97      47.258568      47.258568      47.258568      0.79477066    -383.76635     -643.49312      859.06603    
    612000   1224000        414.3623      -973.40978      4832.1229      6324.7778      4445.2519      1879.5259      1445.6949      1492.906       2683.7816      0             -3742.8566      0              0             -130.99891      105144.8       47.198617      47.198617      47.198617      0.79780304    -839.8521      -1015.0559     -1065.3214    
    612500   1225000        412.13252      354.95292      6880.3729      6331.5993      4421.331       1910.2683      1472.5095      1498.2078      2702.4802      0             -3762.9292      0              0             -129.92985      106009.93      47.327713      47.327713      47.327713      0.79129232     1213.7653      195.4579      -344.36448    
    613000   1226000        410.04105      153.12834      6500.5113      6266.0286      4398.8939      1867.1347      1478.0267      1429.4998      2709.8845      0             -3750.2763      0              0             -131.18254      104997.61      47.176583      47.176583      47.176583      0.79892142    -86.028994      256.51751      288.89651    
    613500   1227000        409.58526      322.28338      6853.8087      6361.3624      4394.0042      1967.3582      1439.4224      1534.7905      2735.7507      0             -3742.6054      0              0             -131.46508      104771.96      47.142762      47.142762      47.142762      0.80064211     301.36096      145.47479      520.01439    
    614000   1228000        406.48117      716.1596       7507.0009      6413.1329      4360.7037      2052.4292      1515.3683      1494.5624      2780.0449      0             -3737.5464      0              0             -131.5153       104731.95      47.13676       47.13676       47.13676       0.80094797     802.20443      799.41674      546.85763    
    614500   1229000        411.74018     -341.26027      5687.6431      6214.2965      4417.122       1797.1745      1454.1166      1405.6093      2669.0703      0             -3731.6216      0              0             -130.1644       105818.9       47.299267      47.299267      47.299267      0.7927208     -185.20137     -303.85425     -534.72519    
    615000   1230000        419.44666     -322.88785      5954.534       6453.5761      4499.7966      1953.7795      1500.5298      1419.3622      2781.1121      0             -3747.2246      0              0             -129.97084      105976.5       47.322737      47.322737      47.322737      0.79154196    -345.11145     -303.05151     -320.5006     
    615500   1231000        404.17277     -448.12813      5542.2287      6228.4256      4335.9394      1892.4863      1462.975       1469.5956      2722.8018      0             -3762.8862      0              0             -131.18519      104995.49      47.176265      47.176265      47.176265      0.79893757    -115.41674     -232.73102     -996.23662    
    616000   1232000        404.35568     -558.21169      5419.8366      6277.5325      4337.9016      1939.6309      1488.589       1492.7367      2730.5642      0             -3772.259       0              0             -130.73653      105355.81      47.230169      47.230169      47.230169      0.79620516    -410.35262     -1375.6058      111.32336    
    616500   1233000        416.24965     -369.92921      5720.576       6285.7194      4465.4994      1820.22        1462.729       1463.4474      2680.592       0             -3786.5483      0              0             -131.48956      104752.45      47.139836      47.139836      47.139836      0.80079123    -714.70583     -340.89641     -54.185374    
    617000   1234000        403.67046      233.77079      6680.264       6320.1046      4330.5506      1989.554       1472.4205      1506.4992      2725.7608      0             -3715.1265      0              0             -130.38478      105640.05      47.272604      47.272604      47.272604      0.7940629     -16.810515      935.43217     -217.30927    
    617500   1235000        414.99274     -88.638827      6273.2868      6408.9888      4452.0153      1956.9735      1534.8789      1466.3596      2714.689       0             -3758.9539      0              0             -131.2106       104975.17      47.17322       47.17322       47.17322       0.79909227    -477.39283      78.693014      132.78333    
    618000   1236000        404.18075      6.2950958      6210.1026      6200.3565      4336.025       1864.3315      1500.5691      1408.0351      2680.1075      0             -3724.3802      0              0             -129.74826      106158.29      47.349781      47.349781      47.349781      0.79018646     331.08553     -658.0937       345.89346    
    618500   1237000        412.67704      366.13552      6964.9721      6396.2684      4427.1726      1969.0958      1514.6559      1452.5985      2702.7842      0             -3700.9428      0              0             -129.32641      106504.57      47.401209      47.401209      47.401209      0.7876173      183.72009      998.24277     -83.556303    
    619000   1238000        426.11338     -73.298838      6345.216       6458.8897      4571.3169      1887.5729      1468.368       1425.575       2705.6524      0             -3712.0226      0              0             -129.52942      106337.65      47.376433      47.376433      47.376433      0.78885364     314.34436      297.95235     -832.19322    
    619500   1239000        410.96511     -794.73998      4982.4773      6223.332       4408.8072      1814.5248      1454.0848      1454.431       2606.26        0             -3700.2509      0              0             -128.65762      107058.21      47.483201      47.483201      47.483201      0.78354424    -1720.7841      48.759986     -712.19585    
    620000   1240000        421.88275      21.950704      6458.4546      6424.6546      4525.9309      1898.7237      1487.2385      1476.3113      2667.3597      0             -3732.1857      0              0             -130.45576      105582.56      47.264028      47.264028      47.264028      0.79449523    -491.1056      -269.75056      826.70828    
    620500   1241000        415.48592      439.21488      7075.0273      6399.042       4457.3061      1941.7359      1480.0591      1536.6575      2639.2156      0             -3714.1963      0              0             -130.51822      105532.04      47.256489      47.256489      47.256489      0.79487557    -40.069459      518.084        839.63011    
    621000   1242000        407.30627     -772.00568      5038.9816      6241.2372      4369.5554      1871.6818      1476.9992      1427.8031      2668.7532      0             -3701.8738      0              0             -128.9897       106782.58      47.442417      47.442417      47.442417      0.78556671    -1333.6019     -412.06823     -570.34695    
    621500   1243000        414.60122      147.18416      6549.9467      6322.4392      4447.8151      1874.6241      1518.406       1468.9036      2612.6268      0             -3725.3124      0              0             -129.95607      105988.54      47.32453       47.32453       47.32453       0.79145199     352.74156     -364.58589      453.39681    
    622000   1244000        413.82655      803.65499      7549.7523      6304.1485      4439.5045      1864.644       1454.8933      1440.2683      2683.1899      0             -3713.7075      0              0             -129.60481      106275.79      47.367244      47.367244      47.367244      0.78931279     822.07798      608.65879      980.22821    
    622500   1245000        405.80746      569.48823      7025.889       6149.1525      4353.4762      1795.6764      1487.6889      1438.4443      2605.1869      0             -3735.6437      0              0             -130.48093      105562.2       47.260989      47.260989      47.260989      0.7946485      807.87471      831.81978      68.770209    
    623000   1246000        412.83673      305.93491      6776.6346      6312.7446      4428.8858      1883.8588      1488.226       1473.228       2696.0587      0             -3773.654       0              0             -132.47848      103970.5       47.022247      47.022247      47.022247      0.80681387     279.1088       418.19447      220.50146    
    623500   1247000        412.19566     -1.9826838      6363.0415      6366.0808      4422.0084      1944.0724      1470.1344      1533.9708      2700.7887      0             -3760.8215      0              0             -131.04298      105109.44      47.193325      47.193325      47.193325      0.79807144     420.76365     -571.43081      144.71911    
    624000   1248000        417.12284      118.75563      6350.7492      6169.1786      4474.8669      1694.3117      1441.5182      1465.3274      2571.1563      0             -3783.6901      0              0             -131.38325      104837.21      47.152547      47.152547      47.152547      0.80014379     312.94179      283.99074     -240.66564    
    624500   1249000        407.84576     -352.27885      5786.8867      6326.6276      4375.3429      1951.2847      1522.248       1479.1512      2698.7961      0             -3748.9105      0              0             -131.10901      105056.5       47.1854        47.1854        47.1854        0.79847362    -360.67171     -647.4814      -48.683456    
    625000   1250000        412.94855      499.39786      7072.9526      6305.9862      4430.0853      1875.9009      1502.7678      1448.1072      2676.0977      0             -3751.0718      0              0             -130.79819      105306.15      47.222747      47.222747      47.222747      0.79658068     255.25005      1086.6577      156.28583    
    625500   1251000        401.78716     -102.07439      5936.1393      6092.6263      4310.3467      1782.2796      1439.0293      1430.7977      2682.1691      0             -3769.7166      0              0             -131.02975      105120.05      47.194913      47.194913      47.194913      0.79799087    -293.98343      91.601295     -103.84105    
    626000   1252000        400.44856     -42.603104      6167.6764      6232.995       4295.9863      1937.0087      1498.9583      1470.2308      2753.5621      0             -3785.7424      0              0             -131.01942      105128.34      47.196152      47.196152      47.196152      0.79792801     390.91341     -380.35254     -138.37018    
    626500   1253000        410.44383     -476.17594      5618.5589      6350.2982      4403.2148      1947.0833      1462.3151      1534.6786      2700.133       0             -3750.0434      0              0             -130.72012      105369.04      47.232146      47.232146      47.232146      0.79610519    -236.29635     -310.51696     -881.7145     
    627000   1254000        417.04543      843.59997      7646.065       6364.1554      4474.0364      1890.119       1467.5552      1523.9938      2691.6802      0             -3793.1103      0              0             -132.19363      104194.53      47.055997      47.055997      47.055997      0.80507912     1423.6404      826.86452      280.29496    
    627500   1255000        416.94484      316.15298      6725.6925      6243.8866      4472.9573      1770.9293      1464.5909      1485.8926      2613.6434      0             -3793.1976      0              0             -131.8125       104495.81      47.101308      47.101308      47.101308      0.80275793     295.15225      569.35858      83.948131    
    628000   1256000        409.35544     -463.05628      5573.0426      6287.675       4391.5387      1896.1363      1487.4032      1465.8865      2665.8967      0             -3723.0502      0              0             -130.16147      105821.28      47.299622      47.299622      47.299622      0.79270297    -1068.396      -614.87951      294.10664    
    628500   1257000        421.45406      210.05309      6796.079       6476.1161      4521.3319      1954.7842      1514.2266      1503.8281      2710.6163      0             -3773.8868      0              0             -131.87451      104446.67      47.093923      47.093923      47.093923      0.80313561     845.10826     -40.883905     -174.06507    
    629000   1258000        406.53923     -109.1096       6138.3941      6305.8424      4361.3266      1944.5158      1509.3905      1515.6756      2694.2285      0             -3774.7788      0              0             -130.89219      105230.53      47.211441      47.211441      47.211441      0.7971531      735.54439     -345.75223     -717.12097    
    629500   1259000        413.536       -524.34523      5525.9603      6320.5882      4436.3874      1884.2007      1439.3687      1523.7664      2736.7318      0             -3815.6662      0              0             -132.55158      103913.16      47.013602      47.013602      47.013602      0.80725907    -677.42063     -503.93353     -391.68153    
    630000   1260000        411.21666     -247.8005       5949.5959      6331.6524      4411.5057      1920.1467      1441.3112      1524.1016      2727.1349      0             -3772.4011      0              0             -130.28846      105718.15      47.284251      47.284251      47.284251      0.79347631     552.06172     -708.23002     -587.23319    
    630500   1261000        407.34588     -703.01554      5061.2255      6143.3349      4369.9803      1773.3546      1455.5551      1418.2823      2683.178       0             -3783.6607      0              0             -130.50439      105543.23      47.258158      47.258158      47.258158      0.79479134    -667.22726     -594.01777     -847.80159    
    631000   1262000        400.79713     -31.867026      6158.7058      6207.993       4299.7258      1908.2672      1524.6746      1493.4324      2637.46        0             -3747.2998      0              0             -129.87906      106051.39      47.333881      47.333881      47.333881      0.790983      -310.76651      442.84821     -227.68279    
    631500   1263000        405.11101     -553.39806      5270.7428      6123.3567      4346.0048      1777.352       1462.0161      1429.7974      2658.9437      0             -3773.4052      0              0             -130.38168      105642.56      47.272979      47.272979      47.272979      0.79404404    -1147.6948     -63.605802     -448.89354    
    632000   1264000        403.79898     -223.20466      5968.3676      6314.5135      4331.9293      1982.5842      1520.8514      1527.6948      2635.5162      0             -3701.4782      0              0             -129.53151      106335.93      47.376177      47.376177      47.376177      0.78886638    -110.60428     -233.18172     -325.828      
    632500   1265000        406.95474      128.67891      6413.916       6215.2656      4365.7842      1849.4815      1402.9032      1509.0245      2672.8167      0             -3735.2629      0              0             -130.12158      105853.73      47.304456      47.304456      47.304456      0.79246        948.96586     -198.34848     -364.58066    
    633000   1266000        409.80106     -192.90642      6062.5187      6361.4076      4396.3193      1965.0883      1504.337       1502.516       2674.7097      0             -3716.4745      0              0             -129.64875      106239.78      47.361893      47.361893      47.361893      0.78958039    -499.65257     -21.372314     -57.694377    
    633500   1267000        405.17984     -355.18605      5678.3221      6229.4546      4346.7431      1882.7115      1487.1189      1470.1053      2651.6094      0             -3726.1222      0              0             -129.45871      106395.73      47.385056      47.385056      47.385056      0.78842306     285.55262     -357.63263     -993.47814    
    634000   1268000        420.16338     -165.93213      6251.9874      6510.865       4507.4856      2003.3794      1493.2509      1458.9867      2744.0699      0             -3692.9281      0              0             -128.75596      106976.44      47.471109      47.471109      47.471109      0.78414318    -102.88703      257.88295     -652.7923     
    634500   1269000        419.39149      211.91516      6665.9196      6340.6173      4499.2048      1841.4125      1483.8228      1460.5898      2668.9358      0             -3771.9359      0              0             -130.85982      105256.56      47.215332      47.215332      47.215332      0.796956       707.85723      624.83525     -696.94701    
    635000   1270000        412.26263      410.46293      6904.9754      6276.2594      4422.7268      1853.5326      1442.2266      1461.5601      2747.3226      0             -3797.5767      0              0             -131.14472      105027.9       47.181118      47.181118      47.181118      0.79869106     798.63849      198.71755      234.03275    
    635500   1271000        413.70737      507.98787      7114.0108      6332.1209      4438.2259      1893.8949      1484.075       1474.5865      2674.3826      0             -3739.1492      0              0             -130.50859      105539.83      47.257651      47.257651      47.257651      0.79481693     461.66932      457.24695      605.04736    
    636000   1272000        410.04856     -138.54238      6131.8997      6346.0326      4398.9744      1947.0582      1508.2322      1500.0865      2668.785       0             -3730.0455      0              0             -129.96623      105980.26      47.323296      47.323296      47.323296      0.79151389    -706.41573     -178.72718      469.51577    
    636500   1273000        409.76095     -438.29407      5575.1158      6249.12        4395.889       1853.231       1452.6917      1469.2992      2677.9027      0             -3746.6625      0              0             -130.62744      105443.8       47.243314      47.243314      47.243314      0.79554076    -302.05531      145.40271     -1158.2296    
    637000   1274000        410.98711     -124.31783      6012.8419      6203.047       4409.0431      1794.0039      1389.0515      1477.0183      2698.6832      0             -3770.7492      0              0             -131.29328      104909.05      47.163315      47.163315      47.163315      0.79959586     114.29286     -526.6364       39.390039    
    637500   1275000        420.71889     -109.36663      6212.1057      6380.5566      4513.4451      1867.1115      1454.0583      1464.136       2697.492       0             -3748.5748      0              0             -130.41956      105611.87      47.268402      47.268402      47.268402      0.79427474     364.83552     -551.28453     -141.6509     
    638000   1276000        413.14529      215.67432      6567.3658      6240.7066      4432.196       1808.5106      1441.8815      1487.0072      2674.9407      0             -3795.3187      0              0             -132.62789      103853.37      47.004583      47.004583      47.004583      0.80772382     121.68538      676.30698     -150.96941    
    638500   1277000        408.80724      596.27699      7083.81        6184.4105      4385.6577      1798.7529      1440.6001      1504.488       2681.8308      0             -3828.166       0              0             -133.17625      103425.75      46.939979      46.939979      46.939979      0.81106343     552.71749      860.81506      375.29843    
    639000   1278000        411.48079      683.45816      7226.8411      6187.6235      4414.3393      1773.2842      1446.4617      1481.8328      2660.5511      0             -3815.5615      0              0             -132.11033      104260.24      47.065886      47.065886      47.065886      0.80457177    -555.86844      1735.8725      870.37041    
    639500   1279000        411.78481      839.50943      7549.0974      6278.9519      4417.6008      1861.3511      1446.2839      1487.5205      2737.0007      0             -3809.454       0              0             -132.77108      103741.37      46.98768       46.98768       46.98768       0.80859584     693.38436      382.1548       1442.9891    
    640000   1280000        414.89288     -660.69496      5349.8662      6357.9792      4450.944       1907.0353      1469.4098      1463.9804      2732.8891      0             -3759.244       0              0             -131.65068      104624.25      47.120598      47.120598      47.120598      0.80177245    -476.52258     -685.88517     -819.67711    
    640500   1281000        419.40854     -293.32005      6039.559       6488.9265      4499.3877      1989.5388      1514.5779      1516.0907      2724.619       0             -3765.7489      0              0             -131.12078      105047.07      47.183989      47.183989      47.183989      0.79854526    -657.83066      103.64658     -325.77607    
    641000   1282000        409.11432      368.39015      6797.308       6229.2384      4388.952       1840.2864      1428.9271      1494.7091      2656.9499      0             -3740.2997      0              0             -130.26803      105734.72      47.286722      47.286722      47.286722      0.79335192    -192.46728      320.398        977.23972    
    641500   1283000        408.07259      310.76361      6635.127       6161.3377      4377.7764      1783.5613      1428.2896      1445.0104      2690.2737      0             -3780.0124      0              0             -131.75779      104539.2       47.107826      47.107826      47.107826      0.80242477     295.57214      743.66902     -106.95034    
    642000   1284000        413.11189      550.09096      7136.9887      6295.2654      4431.8377      1863.4277      1450.6398      1451.1801      2747.7979      0             -3786.1901      0              0             -131.27938      104920.16      47.164979      47.164979      47.164979      0.7995112      520.84457      714.54836      414.87996    
    642500   1285000        406.14084     -351.95856      5771.8252      6310.8786      4357.0527      1953.826       1520.097       1445.1177      2737.7076      0             -3749.0964      0              0             -131.15689      105018.15      47.179658      47.179658      47.179658      0.79876522    -519.10271     -919.65956      382.88658    
    643000   1286000        410.80159      182.1455       6656.9337      6376.1462      4407.0529      1969.0933      1482.6122      1488.465       2734.841       0             -3736.8248      0              0             -130.30829      105702.06      47.281852      47.281852      47.281852      0.79359709    -193.2861      -509.89114      1249.6137    
    643500   1287000        408.80679     -54.778792      6145.654       6229.9698      4385.6528      1844.317       1416.0584      1472.3778      2703.759       0             -3747.8782      0              0             -130.50731      105540.86      47.257805      47.257805      47.257805      0.79480916    -501.55671     -922.51114      1259.7315    
    644000   1288000        417.82851     -168.40202      6172.9489      6432.258       4482.4373      1949.8207      1470.4138      1508.1107      2691.0696      0             -3719.7734      0              0             -130.45508      105583.12      47.264111      47.264111      47.264111      0.79449105    -107.75296     -494.66098      97.207873    
    644500   1289000        398.47064     -359.10299      5639.2873      6191.6217      4274.7672      1916.8545      1471.7516      1463.1322      2714.4458      0             -3732.4751      0              0             -130.60154      105464.72      47.246437      47.246437      47.246437      0.79538301    -195.5115      -851.36738     -30.430081    
    645000   1290000        407.4205       108.96857      6444.954       6277.7148      4370.7808      1906.934       1456.2282      1518.421       2695.9424      0             -3763.6575      0              0             -130.88642      105235.16      47.212134      47.212134      47.212134      0.797118      -399.12676      446.46681      279.56565    
    645500   1291000        408.87682     -313.86955      5888.9244      6369.2877      4386.4041      1982.8836      1469.6545      1499.9006      2758.8123      0             -3745.4838      0              0             -131.25344      104940.9       47.168087      47.168087      47.168087      0.79935319    -547.26134      704.15428     -1098.5016    
    646000   1292000        408.69451     -653.07653      5228.559       6236.9392      4384.4482      1852.4909      1439.8324      1451.2734      2705.0215      0             -3743.6363      0              0             -130.09815      105872.79      47.307295      47.307295      47.307295      0.79231734    -1371.8403     -554.14296     -33.246358    
    646500   1293000        415.73351     -90.879391      6277.9074      6416.345       4459.9622      1956.3828      1455.7776      1515.8216      2752.6532      0             -3767.8696      0              0             -131.86902      104451.02      47.094577      47.094577      47.094577      0.80310217     389.10197     -122.3455      -539.39465    
    647000   1294000        412.49159     -709.76786      5268.8677      6361.1349      4425.1832      1935.9517      1502.856       1461.6639      2686.6343      0             -3715.2024      0              0             -130.53254      105520.46      47.25476       47.25476       47.25476       0.79496281    -31.802985     -669.59957     -1427.901     
    647500   1295000        414.29425      198.98457      6635.1637      6331.7337      4444.522       1887.2118      1471.569       1467.0155      2750.539       0             -3801.9117      0              0             -131.73232      104559.41      47.110862      47.110862      47.110862      0.80226964    -522.537        527.6541       591.83662    
    648000   1296000        412.61002      156.61305      6553.6232      6313.5008      4426.4537      1887.0471      1450.7231      1469.1588      2739.0501      0             -3771.8848      0              0             -131.01671      105130.52      47.196479      47.196479      47.196479      0.79791146     276.0652       73.258985      120.51496    
    648500   1297000        407.09908      154.55003      6502.1518      6263.8144      4367.3326      1896.4818      1465.7625      1431.5899      2746.7255      0             -3747.5961      0              0             -130.25912      105741.96      47.2878        47.2878        47.2878        0.79329764     181.18144      824.80559     -542.33693    
    649000   1298000        419.73032      33.51944       6468.6922      6417.4052      4502.8397      1914.5655      1478.2993      1457.3575      2729.8533      0             -3750.9446      0              0             -131.28663      104914.37      47.164112      47.164112      47.164112      0.79955533     316.03979     -570.0909       354.60944    
    649500   1299000        411.10665      366.38569      6938.1203      6380.6214      4410.3256      1970.2958      1478.652       1508.7096      2789.0293      0             -3806.0951      0              0             -132.01579      104334.9       47.077118      47.077118      47.077118      0.80399603     421.2236       977.84895     -299.91549    
    650000   1300000        407.67566     -594.69382      5307.0601      6219.9188      4373.5181      1846.4007      1450.1008      1426.3178      2712.2323      0             -3742.2502      0              0             -130.86431      105252.95      47.214793      47.214793      47.214793      0.79698333    -827.54303     -482.66144     -473.877      
    650500   1301000        414.9392       53.733634      6424.5472      6342.9167      4451.4409      1891.4758      1468.1752      1549.595       2702.4214      0             -3828.7159      0              0             -132.22846      104167.09      47.051866      47.051866      47.051866      0.8052912     -256.13377      684.76273     -267.42806    
    651000   1302000        416.96658      113.90709      6711.3902      6537.1764      4473.1905      2063.9859      1546.0767      1548.1074      2775.2841      0             -3805.4823      0              0             -131.34074      104871.15      47.157634      47.157634      47.157634      0.79988487     1101.9195      91.830596     -852.02879    
    651500   1303000        412.85951      643.96321      7279.3817      6293.7389      4429.1302      1864.6087      1446.7779      1467.5823      2744.7507      0             -3794.5022      0              0             -131.242        104950.05      47.169458      47.169458      47.169458      0.79928351     210.1377       1048.993       672.75893    
    652000   1304000        408.31836      499.31712      7166.2675      6402.194       4380.4129      2021.781       1477.3144      1519.2585      2770.7388      0             -3745.5307      0              0             -131.27217      104925.93      47.165844      47.165844      47.165844      0.79946724     624.76323      378.82389      494.36425    
    652500   1305000        414.79621     -98.185134      6288.0255      6439.2103      4449.9069      1989.3033      1498.2095      1476.1017      2754.0319      0             -3739.0398      0              0             -130.45752      105581.15      47.263817      47.263817      47.263817      0.7945059      587.01579     -11.683634     -869.88756    
    653000   1306000        399.86777     -352.87503      5587.6528      6123.1629      4289.7556      1833.4073      1467.8743      1442.6542      2721.4245      0             -3798.5457      0              0             -132.36849      104056.89      47.035268      47.035268      47.035268      0.80614403    -227.57258     -646.66161     -184.3909     
    653500   1307000        403.17031     -653.85526      5251.2518      6266.2632      4325.1851      1941.0782      1465.6532      1483.239       2713.9057      0             -3721.7198      0              0             -129.40232      106442.1       47.391939      47.391939      47.391939      0.78807957    -79.653545     -928.51975     -953.39248    
    654000   1308000        416.58213      102.00471      6469.3477      6312.6978      4469.0662      1843.6316      1448.9355      1456.4895      2686.9223      0             -3748.7157      0              0             -130.80419      105301.32      47.222025      47.222025      47.222025      0.7966172      76.441839      315.03593     -85.463645    
    654500   1309000        421.09284      379.177        6875.6354      6293.7721      4517.4568      1776.3153      1437.1387      1460.8717      2643.2521      0             -3764.9471      0              0             -130.90384      105221.16      47.210039      47.210039      47.210039      0.79722408     872.25122     -41.956989      307.23677    
    655000   1310000        410.8229       76.517366      6354.8624      6236.2787      4407.2815      1828.9972      1466.7215      1413.2884      2683.5143      0             -3734.527       0              0             -129.61825      106264.77      47.365606      47.365606      47.365606      0.78939468    -194.74797      423.04654      1.2535326    
    655500   1311000        408.89783      89.75359       6304.8101      6168.4958      4386.6295      1781.8663      1424.3324      1480.4827      2658.8919      0             -3781.8408      0              0             -132.26407      104139.04      47.047642      47.047642      47.047642      0.80550811     77.410163      269.25157     -77.400962    
    656000   1312000        402.00321     -106.36043      6012.4511      6176.0209      4312.6645      1863.3564      1439.0307      1469.7288      2703.8357      0             -3749.2388      0              0             -130.61959      105450.14      47.24426       47.24426       47.24426       0.79549298     595.38251     -786.69246     -127.77135    
    656500   1313000        407.47261      413.48718      6892.4745      6262.1642      4371.3398      1890.8243      1454.7301      1509.3792      2701.0785      0             -3774.3635      0              0             -131.7768       104524.12      47.10556       47.10556       47.10556       0.80254053     511.71513      906.25088     -177.50448    
    657000   1314000        410.58518     -206.93949      6060.8421      6380.1185      4404.7313      1975.3873      1448.2066      1526.1077      2745.8266      0             -3744.7537      0              0             -130.19908      105790.71      47.295067      47.295067      47.295067      0.79293201    -250.63795     -338.05925     -32.121276    
    657500   1315000        414.51966      56.496962      6411.2045      6323.9235      4446.9401      1876.9835      1457.9068      1475.7041      2669.4327      0             -3726.0601      0              0             -130.02807      105929.85      47.315793      47.315793      47.315793      0.79189051     546.68951     -150.02479     -227.17384    
    658000   1316000        417.85356      281.68293      6805.161       6368.8658      4482.706       1886.1598      1455.8172      1466.0501      2646.9629      0             -3682.6703      0              0             -129.69149      106204.76      47.356689      47.356689      47.356689      0.78984072     239.25241      334.52534      271.27104    
    658500   1317000        404.31617     -525.17276      5491.3351      6301.0916      4337.4777      1963.6139      1473.6311      1509.6918      2702.0524      0             -3721.7614      0              0             -130.28042      105724.67      47.285223      47.285223      47.285223      0.79342735    -354.9897      -654.92055     -565.60803    
    659000   1318000        405.14125      232.32815      6585.9592      6227.3518      4346.3292      1881.0226      1420.6191      1469.8769      2701.5452      0             -3711.0186      0              0             -130.14097      105837.96      47.302106      47.302106      47.302106      0.79257808     298.9845      -510.09225      908.0922     
    659500   1319000        412.12829     -1014.5373      4819.3874      6404.5669      4421.2857      1983.2813      1464.9053      1467.8664      2731.9483      0             -3681.4387      0              0             -128.56445      107135.79      47.494668      47.494668      47.494668      0.78297686    -939.39698     -706.16491     -1398.0499    
    660000   1320000        406.86591      107.48328      6370.9078      6206.4964      4364.8312      1841.6652      1451.1064      1472.0583      2672.0766      0             -3753.5761      0              0             -131.32286      104885.43      47.159774      47.159774      47.159774      0.79977597    -367.39127      485.1265       204.71461    
    660500   1321000        414.71983      251.55989      6808.0945      6416.7092      4449.0875      1967.6217      1393.4381      1561.1964      2737.9469      0             -3724.9597      0              0             -129.11251      106681.02      47.427371      47.427371      47.427371      0.78631459    -344.47265      623.8925       475.25981    
    661000   1322000        425.76438     -610.67806      5545.6667      6490.6652      4567.5727      1923.0925      1475.1941      1441.7072      2733.4006      0             -3727.2094      0              0             -129.81131      106106.73      47.342114      47.342114      47.342114      0.79057043    -1098.0185     -686.97853     -47.037142    
    661500   1323000        409.32098     -678.28986      5330.6526      6375.9718      4391.1691      1984.8027      1445.2894      1499.9004      2780.5705      0             -3740.9576      0              0             -130.34602      105671.46      47.277289      47.277289      47.277289      0.79382687    -1107.7699     -370.20445     -556.89519    
    662000   1324000        409.09902     -57.585425      6314.0596      6402.0208      4388.7878      2013.233       1476.2887      1516.265       2785.9943      0             -3765.315       0              0             -131.50821      104737.6       47.137608      47.137608      47.137608      0.80090477    -3.0934969     -317.31058      147.64781    
    662500   1325000        403.02507     -222.07863      5882.5695      6222.8144      4323.627       1899.1874      1470.0538      1471.8909      2705.8416      0             -3748.5989      0              0             -131.11323      105053.12      47.184894      47.184894      47.184894      0.79849933    -257.2804      -120.13765     -288.81783    
    663000   1326000        416.85677      24.305615      6455.4272      6418.0557      4472.0124      1946.0433      1495.4193      1489.6028      2684.3527      0             -3723.3315      0              0             -130.6463       105428.58      47.24104       47.24104       47.24104       0.79565565     36.352377     -4.237196       40.801664    
    663500   1327000        402.05869      218.83439      6616.4941      6275.7234      4313.2597      1962.4637      1472.8697      1481.9971      2723.4059      0             -3715.8089      0              0             -128.99851      106775.29      47.441337      47.441337      47.441337      0.78562036    -130.63363      237.19727      549.93953    
    664000   1328000        408.31571      413.9366       6809.0746      6167.4106      4380.3845      1787.0261      1433.1446      1446.2794      2641.6956      0             -3734.0935      0              0             -129.58585      106291.34      47.369554      47.369554      47.369554      0.78919732     173.86313      367.57369      700.37299    
    664500   1329000        416.07551      570.67243      7325.7705      6446.3705      4463.6311      1982.7394      1487.7509      1444.6397      2754.6884      0             -3704.3395      0              0             -130.35624      105663.17      47.276054      47.276054      47.276054      0.79388912     648.6666       412.91692      650.43376    
    665000   1330000        414.45128     -835.15741      5019.26        6312.2875      4446.2065      1866.0809      1447.4165      1446.8322      2708.8277      0             -3736.9954      0              0             -129.74539      106160.64      47.35013       47.35013       47.35013       0.79016897    -382.64661     -570.16241     -1552.6632    
    665500   1331000        412.95471     -151.45577      6145.1078      6380.981       4430.1514      1950.8296      1474.8913      1465.8796      2699.9229      0             -3689.8642      0              0             -128.98483      106786.62      47.443014      47.443014      47.443014      0.78553705    -554.4965      -255.47368      355.60288    
    666000   1332000        402.46555      3.2002976      6268.6056      6263.7075      4317.6245      1946.0831      1482.5719      1475.8586      2767.5335      0             -3779.8809      0              0             -131.24975      104943.85      47.168528      47.168528      47.168528      0.79933075     365.77355     -367.88834      11.715681    
    666500   1333000        408.45961     -505.77879      5490.7106      6267.5107      4381.9283      1885.5824      1493.5437      1433.7921      2712.9836      0             -3754.737       0              0             -130.79246      105310.76      47.223436      47.223436      47.223436      0.79654578    -2407.3022      805.82832      84.137504    
    667000   1334000        405.6491      -296.13303      5849.1497      6304.6392      4351.7773      1952.8619      1465.0067      1514.7067      2702.4245      0             -3729.276       0              0             -130.59899      105466.77      47.246744      47.246744      47.246744      0.7953675     -574.54736     -131.23336     -182.61836    
    667500   1335000        408.97692     -320.0237       5848.5304      6338.1616      4387.478       1950.6837      1466.8267      1517.0026      2716.3381      0             -3749.4838      0              0             -131.29386      104908.59      47.163245      47.163245      47.163245      0.79959939     126.4149      -661.45835     -425.02766    
    668000   1336000        401.88294      377.25473      6829.0464      6247.5585      4311.3742      1936.1843      1444.7658      1482.4157      2739.377       0             -3730.3742      0              0             -130.3243       105689.07      47.279916      47.279916      47.279916      0.79369458     821.00109      414.66881     -103.90571    
    668500   1337000        403.61541      657.10643      7259.7574      6248.9611      4329.9601      1919.0011      1503.8364      1459.3936      2677.2795      0             -3721.5085      0              0             -130.58806      105475.6       47.248062      47.248062      47.248062      0.79530094     911.45773      828.6472       231.21435    
    669000   1338000        409.7002      -157.84454      6046.6583      6287.6079      4395.2373      1892.3706      1430.0643      1475.6325      2766.7831      0             -3780.1094      0              0             -131.5936       104669.64      47.12741       47.12741       47.12741       0.8014248     -431.41129     -396.452        354.32966    
    669500   1339000        408.51458      116.70956      6472.205       6293.0533      4382.518       1910.5353      1434.8874      1502.9492      2713.9446      0             -3741.2459      0              0             -130.86297      105254.02      47.214954      47.214954      47.214954      0.79697518    -1067.3218      928.1551       489.29542    
    670000   1340000        407.65176     -141.64799      6056.6033      6274.4824      4373.2617      1901.2207      1471.474       1484.1397      2732.5118      0             -3786.9048      0              0             -130.59489      105470.09      47.247239      47.247239      47.247239      0.79534251     40.569212     -617.31842      151.80523    
    670500   1341000        404.99362      1148.7358      7925.0348      6188.8603      4344.7454      1844.1149      1511.0195      1479.5865      2677.5738      0             -3824.065       0              0             -132.91015      103632.82      46.971285      46.971285      46.971285      0.80944284     957.28679      1322.4259      1166.4947    
    671000   1342000        422.47444      45.012642      6583.3627      6514.4631      4532.2785      1982.1846      1480.9101      1595.4163      2702.9055      0             -3797.0473      0              0             -131.23489      104955.73      47.170309      47.170309      47.170309      0.79924022    -160.19594     -65.231547      360.46541    
    671500   1343000        412.68259      134.55293      6583.5095      6377.6693      4427.2322      1950.4372      1473.6301      1485.3623      2746.2051      0             -3754.7603      0              0             -131.30899      104896.5       47.161434      47.161434      47.161434      0.79969154    -722.54024      1436.1404     -309.9414     
    672000   1344000        408.67583     -334.03511      5720.2697      6235.7426      4384.2479      1851.4947      1476.026       1431.9833      2698.0811      0             -3754.5958      0              0             -130.17201      105812.72      47.298346      47.298346      47.298346      0.79276714    -200.01442      13.63443      -815.72533    
    672500   1345000        404.67024     -453.01649      5660.2382      6356.1777      4341.2761      2014.9016      1473.5928      1500.1042      2764.7178      0             -3723.5133      0              0             -130.75967      105337.17      47.227383      47.227383      47.227383      0.7963461     -707.29564     -575.34753     -76.406302    
    673000   1346000        401.83094     -442.78892      5605.4678      6280.1618      4310.8163      1969.3455      1476.6259      1521.9953      2756.4944      0             -3785.7701      0              0             -131.83213      104480.25      47.09897       47.09897       47.09897       0.80287749    -828.01277     -712.38259      212.02859    
    673500   1347000        410.47944     -109.39737      6246.3471      6417.5451      4403.5969      2013.9482      1524.1284      1546.7339      2664.6778      0             -3721.5919      0              0             -128.36286      107304.04      47.519518      47.519518      47.519518      0.78174916    -200.74023     -403.92782      276.47595    
    674000   1348000        401.18054      219.19173      6740.6988      6401.5176      4303.8389      2097.6786      1579.3418      1474.5829      2750.1739      0             -3706.42        0              0             -129.81466      106103.99      47.341707      47.341707      47.341707      0.79059082    -234.56458      285.99278      606.14699    
    674500   1349000        409.12367     -251.66904      5903.8275      6295.4223      4389.0522      1906.3701      1498.7624      1445.687       2701.4607      0             -3739.54        0              0             -129.0994       106691.86      47.428977      47.428977      47.428977      0.78623474    -355.63205     -462.66013      63.285061    
    675000   1350000        409.01515      601.30929      7347.8002      6414.252       4387.8881      2026.3639      1518.7968      1479.0424      2718.8269      0             -3690.3022      0              0             -129.38756      106454.23      47.39374       47.39374       47.39374       0.78798973     1207.0258     -21.807529      618.70964    
    675500   1351000        406.01134      235.43274      6694.4446      6334.7669      4355.6634      1979.1035      1537.0984      1435.323       2788.0726      0             -3781.3906      0              0             -131.48756      104754.05      47.140075      47.140075      47.140075      0.80077904     118.49096      330.78703      257.02025    
    676000   1352000        408.464       -986.04879      4750.837       6249.4171      4381.9754      1867.4416      1473.1955      1462.0866      2739.8825      0             -3807.7229      0              0             -132.17515      104209.11      47.058191      47.058191      47.058191      0.80496653    -803.10302     -1134.9505     -1020.0929    
    676500   1353000        397.19387      273.24573      6539.6231      6123.5877      4261.0702      1862.5175      1466.0184      1429.9946      2772.0632      0             -3805.5587      0              0             -131.93331      104400.12      47.086926      47.086926      47.086926      0.80349371     870.11436      372.26321     -422.64037    
    677000   1354000        417.59166      108.64803      6583.6489      6415.5719      4479.8963      1935.6756      1476.6912      1476.3759      2694.3453      0             -3711.7368      0              0             -129.85091      106074.37      47.337301      47.337301      47.337301      0.79081158    -315.01314      114.43365      526.52359    
    677500   1355000        397.82566     -83.899197      6147.4635      6277.1035      4267.848       2009.2555      1518.3604      1442.7591      2780.4302      0             -3732.2943      0              0             -130.00207      105951.04      47.318947      47.318947      47.318947      0.79173217    -896.95374      86.641871      558.61428    
    678000   1356000        410.6915       33.073034      6353.4532      6302.7558      4405.8719      1896.8839      1507.1922      1489.3852      2684.6376      0             -3784.331       0              0             -131.04488      105107.92      47.193097      47.193097      47.193097      0.79808303     61.73994      -425.51568      462.99484    
    678500   1357000        407.38336     -233.36946      5897.0461      6255.784       4370.3824      1885.4017      1475.8429      1441.0308      2737.8356      0             -3769.3076      0              0             -130.67667      105404.08      47.23738       47.23738       47.23738       0.79584059    -692.30486     -532.6918       524.88828    
    679000   1358000        414.7287      -123.11588      6183.6977      6374.4849      4449.1827      1925.3022      1465.1653      1439.1969      2734.4753      0             -3713.5353      0              0             -129.62718      106257.45      47.364519      47.364519      47.364519      0.78944902    -136.58319     -477.88446      245.12       
    679500   1359000        418.86396      214.0628       6840.5522      6507.9002      4493.5455      2014.3547      1487.2982      1509.7112      2725.6092      0             -3708.2639      0              0             -129.26542      106554.82      47.408663      47.408663      47.408663      0.78724586     474.02599      67.00071       101.16171    
    680000   1360000        408.67281     -768.58587      5139.9823      6333.9843      4384.2155      1949.7688      1525.0025      1463.7403      2687.8329      0             -3726.8068      0              0             -129.30601      106521.38      47.403702      47.403702      47.403702      0.78749303    -1202.8581     -689.77525     -413.12425    
    680500   1361000        413.58654      470.44161      7160.1418      6434.8279      4436.9297      1997.8982      1488.743       1459.5993      2751.2969      0             -3701.7409      0              0             -130.29         105716.89      47.284064      47.284064      47.284064      0.79348571     1364.8397     -448.972        495.45709    
    681000   1362000        411.91371      913.54068      7662.9507      6269.1601      4418.9836      1850.1764      1451.3357      1440.6007      2709.5755      0             -3751.3355      0              0             -131.66238      104614.96      47.119202      47.119202      47.119202      0.8018437      344.38557      795.57026      1600.6662    
    681500   1363000        418.93818     -64.398587      6274.4813      6373.4171      4494.3418      1879.0754      1513.7326      1443.008       2680.9346      0             -3758.5998      0              0             -130.75367      105342.01      47.228106      47.228106      47.228106      0.79630951    -771.60973      417.93402      160.47995    
    682000   1364000        411.93053      444.51285      6951.6999      6271.3423      4419.164       1852.1782      1500.5803      1484.9575      2648.1483      0             -3781.5078      0              0             -131.24369      104948.69      47.169255      47.169255      47.169255      0.79929382     471.24748      573.24196      289.04911    
    682500   1365000        402.51617      204.35658      6527.1025      6212.1339      4318.1674      1893.9665      1511.2241      1431.6166      2696.3796      0             -3745.2538      0              0             -130.33251      105682.42      47.278923      47.278923      47.278923      0.79374457     644.00479     -251.26472      220.32966    
    683000   1366000        406.70351     -143.87424      6215.451       6438.3408      4363.0889      2075.2519      1502.7147      1501.5149      2803.4798      0             -3732.4576      0              0             -129.66544      106226.1       47.35986       47.35986       47.35986       0.78968206    -109.53808      298.97292     -621.05755    
    683500   1367000        414.072        515.33203      7113.4914      6324.6928      4442.1377      1882.5552      1472.8207      1439.6573      2741.4615      0             -3771.3842      0              0             -131.23583      104954.98      47.170196      47.170196      47.170196      0.79924595     219.46155      1136.5311      190.00347    
    684000   1368000        408.86659      162.29166      6510.04        6262.736       4386.2944      1876.4417      1539.8921      1464.9993      2670.2399      0             -3798.6896      0              0             -131.82462      104486.21      47.099864      47.099864      47.099864      0.80283175    -232.7006       278.87652      440.69906    
    684500   1369000        408.58101      235.10251      6573.6136      6211.3781      4383.2307      1828.1475      1513.168       1392.3227      2690.0273      0             -3767.3706      0              0             -130.37601      105647.15      47.273664      47.273664      47.273664      0.79400949    -100.15244      951.26856     -145.80859    
    685000   1370000        412.4999       75.863658      6587.1163      6469.6182      4425.2722      2044.3459      1499.5093      1539.3618      2752.0875      0             -3746.6127      0              0             -129.69831      106199.18      47.355859      47.355859      47.355859      0.78988224     76.003999     -541.10094      692.68792    
    685500   1371000        418.03734      521.38768      7051.9789      6259.8318      4484.6775      1775.1543      1504.9996      1411.5101      2676.6598      0             -3818.0153      0              0             -132.2167       104176.36      47.053261      47.053261      47.053261      0.80521957     1389.7516     -101.28467      275.69606    
    686000   1372000        409.91557     -916.12515      4829.3413      6228.9785      4397.5478      1831.4308      1470.7648      1447.7862      2679.5051      0             -3766.6253      0              0             -131.48333      104757.42      47.140581      47.140581      47.140581      0.80075326    -637.60749     -904.63289     -1206.1351    
    686500   1373000        408.04231     -63.646791      6086.6198      6183.9671      4377.4515      1806.5156      1437.289       1485.2656      2680.3025      0             -3796.3415      0              0             -131.33605      104874.89      47.158195      47.158195      47.158195      0.79985634     446.99864     -572.09554     -65.843472    
    687000   1374000        410.58357      308.72983      6645.6989      6168.5275      4404.714       1763.8135      1448.9714      1429.9074      2657.181       0             -3772.2463      0              0             -129.96773      105979.03      47.323114      47.323114      47.323114      0.79152302     947.85135      620.27831     -641.94017    
    687500   1375000        408.434        89.923191      6405.263       6268.5991      4381.6536      1886.9455      1483.7545      1452.6762      2739.5995      0             -3789.0848      0              0             -132.17496      104209.25      47.058213      47.058213      47.058213      0.8049654      5.518286       936.74963     -672.49834    
    688000   1376000        406.47768     -200.53346      5959.927       6268.2192      4360.6662      1907.553       1477.5612      1517.3459      2664.6199      0             -3751.974       0              0             -130.6639       105414.38      47.238919      47.238919      47.238919      0.79576284    -490.62209     -588.28624      477.30795    
    688500   1377000        416.49687     -91.579139      6242.4463      6383.3316      4468.1515      1915.1802      1467.7741      1482.6239      2685.8204      0             -3721.0382      0              0             -130.57563      105485.64      47.249561      47.249561      47.249561      0.79522524     738.86935     -312.03733     -701.56944    
    689000   1378000        410.55257      499.71359      7113.3216      6351.1704      4404.3815      1946.7889      1503.0818      1481.981       2729.8558      0             -3768.1297      0              0             -131.70777      104578.9       47.113788      47.113788      47.113788      0.80212014     1557.5084     -200.89145      142.52387    
    689500   1379000        409.25648     -413.63215      5650.4745      6286.7092      4390.477       1896.2321      1435.1945      1402.3642      2807.3559      0             -3748.6825      0              0             -130.59554      105469.56      47.24716       47.24716       47.24716       0.79534651    -455.95195     -391.80423     -393.14027    
    690000   1380000        411.96041      715.36405      7455.8704      6349.3852      4419.4846      1929.9005      1450.612       1545.7634      2671.4651      0             -3737.94        0              0             -129.8712       106057.8       47.334836      47.334836      47.334836      0.79093516     1129.4723      692.92889      323.69094    
    690500   1381000        397.8466      -521.73494      5511.3999      6322.8533      4268.0726      2054.7807      1510.9773      1466.9283      2743.3296      0             -3666.4545      0              0             -129.15691      106644.34      47.421935      47.421935      47.421935      0.78658504    -193.70098     -783.88904     -587.61479    
    691000   1382000        409.84647     -49.336369      6271.6188      6348.2183      4396.8065      1951.4118      1426.9144      1510.9278      2733.237       0             -3719.6673      0              0             -129.38169      106459.06      47.394457      47.394457      47.394457      0.78795398    -493.38383      342.3633       3.0114269    
    691500   1383000        414.18076      351.54483      6894.7432      6352.6217      4443.3045      1909.3172      1490.7227      1400.045       2756.6946      0             -3738.1451      0              0             -130.26131      105740.18      47.287536      47.287536      47.287536      0.79331095     692.02626      557.46865     -194.86042    
    692000   1384000        408.45215      4.1039404      6333.4613      6327.1069      4381.8482      1945.2586      1482.1641      1430.3889      2756.1125      0             -3723.4068      0              0             -129.73493      106169.2       47.351403      47.351403      47.351403      0.79010526    -897.61843      266.72483      643.20542    
    692500   1385000        414.17866     -203.2878       6118.2406      6431.102       4443.2819      1987.82        1507.5392      1491.4174      2753.9373      0             -3765.0739      0              0             -130.52413      105527.26      47.255774      47.255774      47.255774      0.79491162    -914.64004     -4.8229529      309.59959    
    693000   1386000        409.84454     -31.238272      6315.7553      6363.6995      4396.7857      1966.9138      1478.7471      1497.9225      2728.4162      0             -3738.172       0              0             -130.88279      105238.08      47.21257       47.21257       47.21257       0.79709589    -112.35803      865.32886     -846.68565    
    693500   1387000        419.13497      330.18672      6942.9459      6429.1759      4496.4529      1932.723       1482.5415      1440.1083      2714.6529      0             -3704.5798      0              0             -129.09879      106692.35      47.429051      47.429051      47.429051      0.78623107     350.89356     -11.423764      651.09034    
    694000   1388000        399.2335       14.071221      6143.9263      6122.0731      4282.9512      1839.1219      1445.3773      1428.4917      2672.0659      0             -3706.8129      0              0             -129.34413      106489.98      47.399044      47.399044      47.399044      0.78772524    -260.56498      292.70189      10.076749    
    694500   1389000        409.15021      713.97837      7478.5282      6382.0778      4389.337       1992.7407      1519.7044      1514.1024      2714.6725      0             -3755.7385      0              0             -130.80592      105299.92      47.221816      47.221816      47.221816      0.79662776     316.77441      545.86329      1279.2974    
    695000   1390000        407.81878      99.351991      6382.2127      6228.4534      4375.0535      1853.3999      1419.4933      1450.4798      2714.177       0             -3730.7503      0              0             -129.79755      106117.98      47.343786      47.343786      47.343786      0.79048664    -104.81507      385.39469      17.47635     
    695500   1391000        415.25844     -623.24444      5354.2263      6307.939       4454.8657      1853.0733      1474.211       1408.9495      2713.4624      0             -3743.5496      0              0             -131.27203      104926.04      47.16586       47.16586       47.16586       0.79946643    -751.53835     -859.38669     -258.80827    
    696000   1392000        402.30666      391.30902      6831.7094      6232.1149      4315.9198      1916.1951      1550.2782      1420.1051      2674.273       0             -3728.4612      0              0             -131.09727      105065.91      47.186809      47.186809      47.186809      0.7984021      509.00423      566.83786      98.084966    
    696500   1393000        411.82104     -134.77306      6096.1127      6303.3445      4417.9896      1885.3549      1495.0267      1443.6982      2684.0446      0             -3737.4146      0              0             -130.64061      105433.17      47.241726      47.241726      47.241726      0.79562096     234.14113     -495.15939     -143.30092    
    697000   1394000        412.30368      52.321987      6448.5268      6368.5275      4423.1672      1945.3603      1484.8538      1480.4239      2756.9238      0             -3776.8412      0              0             -131.38007      104839.75      47.152927      47.152927      47.152927      0.80012442    -1009.2735      1080.4983      85.741109    
    697500   1395000        407.42464      61.667032      6390.2609      6296.4802      4370.8252      1925.6551      1513.3809      1506.7135      2689.996       0             -3784.4353      0              0             -132.09036      104276         47.068257      47.068257      47.068257      0.80445019     389.69243      134.84679     -339.53813    
    698000   1396000        410.4369       413.23562      6988.0134      6358.1262      4403.1405      1954.9857      1495.8311      1500.6513      2715.5799      0             -3757.0766      0              0             -131.7851       104517.53      47.104571      47.104571      47.104571      0.80259111     835.33142      285.73884      118.63659    
    698500   1397000        414.46641      36.16259       6305.522       6250.2454      4446.3689      1803.8765      1433.5321      1461.0004      2689.5123      0             -3780.1683      0              0             -131.41639      104810.78      47.148584      47.148584      47.148584      0.80034557    -189.51733      224.53052      73.474589    
    699000   1398000        404.95983     -280.04656      5917.458       6351.44        4344.3829      2007.0571      1556.3742      1496.1784      2677.2061      0             -3722.7015      0              0             -129.62532      106258.98      47.364746      47.364746      47.364746      0.7894377     -585.79755     -411.89895      157.55682    
    699500   1399000        421.22154     -367.60126      5765.1724      6333.8662      4518.8375      1815.0287      1447.6174      1427.9412      2695.9518      0             -3756.4817      0              0             -129.84638      106078.08      47.337852      47.337852      47.337852      0.79078399    -634.35987     -142.3908      -326.05311    
    700000   1400000        411.07183      169.43893      6589.8684      6328.2629      4409.9521      1918.3108      1473.1605      1461.585       2720.7121      0             -3737.1468      0              0             -130.10609      105866.33      47.306333      47.306333      47.306333      0.79236568    -243.77583      177.71637      574.37625    
    700500   1401000        412.53355      94.500584      6488.7394      6340.3063      4425.6333      1914.673       1503.4052      1405.9134      2686.0738      0             -3680.7195      0              0             -127.8895       107701.21      47.578074      47.578074      47.578074      0.77886631     137.2923       760.2723      -614.06285    
    701000   1402000        416.66179     -9.7086191      6551.3493      6566.5632      4469.9207      2096.6425      1508.326       1494.8204      2761.1889      0             -3667.6929      0              0             -128.18815      107450.29      47.541097      47.541097      47.541097      0.78068514    -227.37193     -158.1027       356.34877    
    701500   1403000        403.00125      1242.7687      8177.9867      6265.6605      4323.3714      1942.289       1456.5497      1487.8284      2703.852       0             -3705.9411      0              0             -130.54483      105510.53      47.253277      47.253277      47.253277      0.79503767     2253.3964      1160.5217      314.38802    
    702000   1404000        410.30134      1036.6485      8117.3159      6517.9456      4401.6863      2116.2594      1542.0541      1473.0388      2836.3547      0             -3735.1882      0              0             -130.20087      105789.27      47.294852      47.294852      47.294852      0.79294287     207.09546      1804.6247      1098.2255    
    702500   1405000        410.45124     -573.01907      5478.0841      6368.714       4403.2944      1965.4196      1489.9415      1437.4727      2732.9602      0             -3694.9548      0              0             -129.24184      106574.27      47.411546      47.411546      47.411546      0.78710224    -1162.0373     -547.94199     -9.0779173    
    703000   1406000        411.40774     -298.69976      5840.3113      6298.0314      4413.5556      1884.4758      1436.4047      1507.0495      2695.8893      0             -3754.8678      0              0             -131.08901      105072.53      47.1878        47.1878        47.1878        0.79835179    -705.02105      603.21274     -794.29098    
    703500   1407000        410.85345      85.97275       6390.2073      6257.3619      4407.6093      1849.7526      1425.2176      1426.0304      2721.036       0             -3722.5315      0              0             -130.00066      105952.18      47.319118      47.319118      47.319118      0.7917236     -112.82389      648.7966      -278.05447    
    704000   1408000        408.0356       198.95197      6590.4711      6280.597       4377.3796      1903.2174      1407.8664      1491.3699      2694.7567      0             -3690.7756      0              0             -128.97168      106797.5       47.444627      47.444627      47.444627      0.78545696     781.66887     -249.32303      64.510075    
    704500   1409000        410.68883     -603.15283      5516.1303      6458.0798      4405.8433      2052.2365      1508.777       1512.5385      2738.3879      0             -3707.4668      0              0             -128.6267       107083.94      47.487006      47.487006      47.487006      0.78335593    -1146.8534     -811.74804      149.14292    
    705000   1410000        412.85696      213.19977      6595.6941      6268.5507      4429.1028      1839.4479      1436.8843      1471.2051      2677.4718      0             -3746.1133      0              0             -130.91214      105214.49      47.209041      47.209041      47.209041      0.79727465    -441.37225      434.5483       646.42327    
    705500   1411000        420.41482      327.76746      6983.0117      6483.2566      4510.183       1973.0737      1540.0025      1492.6836      2694.7028      0             -3754.3152      0              0             -131.74678      104547.94      47.109138      47.109138      47.109138      0.8023577      416.77161      573.23999     -6.7092145    
    706000   1412000        401.54913      214.22014      6490.2844      6157.1823      4307.7931      1849.3892      1440.7808      1457.0571      2672.238       0             -3720.6867      0              0             -129.18567      106620.6       47.418416      47.418416      47.418416      0.78676017    -270.43109      273.67244      639.41907    
    706500   1413000        405.60624      534.24163      7167.2081      6347.9451      4351.3175      1996.6276      1502.6071      1506.701       2728.8487      0             -3741.5292      0              0             -130.9923       105150.11      47.19941       47.19941       47.19941       0.79776281     305.38168      626.91094      670.43228    
    707000   1414000        404.15841      244.5994       6572.1926      6194.4606      4335.7853      1858.6753      1439.7176      1425.5596      2703.6524      0             -3710.2543      0              0             -130.07774      105889.4       47.309769      47.309769      47.309769      0.79219302     68.811833      243.96464      421.02173    
    707500   1415000        420.61683     -393.0679       5813.1352      6421.5824      4512.3502      1909.2323      1459.3551      1484.46        2697.4269      0             -3732.0097      0              0             -129.7705       106140.1       47.347076      47.347076      47.347076      0.79032189    -761.95305     -93.084431     -324.16621    
    708000   1416000        409.47388      370.77626      6921.5027      6347.9876      4392.8094      1955.1782      1496.9685      1482.9494      2677.8711      0             -3702.6108      0              0             -129.86689      106061.32      47.335359      47.335359      47.335359      0.79090892     506.83872      1123.3761     -517.88603    
    708500   1417000        416.35759     -19.771471      6297.454       6328.0109      4466.6573      1861.3536      1474.7044      1432.0621      2678.7573      0             -3724.1702      0              0             -129.97514      105972.99      47.322214      47.322214      47.322214      0.79156818     608.67389     -548.96267     -119.02564    
    709000   1418000        415.89512     -405.53534      5782.7585      6404.1601      4461.696       1942.4641      1505.9032      1452.0944      2727.534       0             -3743.0675      0              0             -131.09548      105067.35      47.187024      47.187024      47.187024      0.79839117    -1567.937       330.10907      21.221885    
    709500   1419000        414.51515      232.13521      6711.3749      6351.2481      4446.8917      1904.3564      1480.8948      1456.6708      2669.6446      0             -3702.8537      0              0             -129.48426      106374.73      47.381939      47.381939      47.381939      0.78857865     97.642599     -19.440205      618.20324    
    710000   1420000        422.5105       77.543961      6579.0847      6461.4078      4532.6653      1928.7425      1525.807       1423.5132      2778.237       0             -3798.8147      0              0             -132.3695       104056.1       47.035148      47.035148      47.035148      0.8061502      768.75446     -262.7058      -273.41678    
    710500   1421000        415.07085      518.93714      7115.1592      6317.761       4452.8533      1864.9078      1491.787       1432.113       2684.8307      0             -3743.823       0              0             -130.72868      105362.14      47.231115      47.231115      47.231115      0.79615736     410.97749      917.33782      228.49611    
    711000   1422000        404.47444     -40.944056      6198.2735      6261.4274      4339.1757      1922.2518      1452.7842      1519.9788      2706.3141      0             -3756.8253      0              0             -130.23314      105763.05      47.290944      47.290944      47.290944      0.79313944    -131.57172     -57.656007      66.395557    
    711500   1423000        412.89995      96.452104      6492.7708      6343.5703      4429.564       1914.0063      1461.9191      1540.708       2649.6707      0             -3738.2915      0              0             -129.85928      106067.54      47.336284      47.336284      47.336284      0.79086254     389.58831     -10.835353     -89.396646    
    712000   1424000        408.89498     -112.16235      6119.3969      6292.7812      4386.599       1906.1822      1496.7002      1472.5071      2711.6358      0             -3774.6609      0              0             -129.94776      105995.31      47.325537      47.325537      47.325537      0.79140144     73.417291     -29.760701     -380.14364    
    712500   1425000        395.97013      1048.2281      7715.8808      6106.6061      4247.942       1858.6641      1450.5635      1475.1266      2699.0446      0             -3766.0705      0              0             -130.84496      105268.51      47.21712       47.21712       47.21712       0.79686548     820.65163      1059.7125      1264.3202    
    713000   1426000        408.57812     -666.56719      5320.2122      6361.0677      4383.1996      1977.8681      1440.082       1530.3671      2697.5629      0             -3690.144       0              0             -128.64261      107070.7       47.485047      47.485047      47.485047      0.78345287    -1121.526      -361.08225     -517.0933     
    713500   1427000        416.54744     -230.55179      6060.875       6418.2474      4468.694       1949.5534      1461.6374      1472.9986      2732.9559      0             -3718.0385      0              0             -129.59219      106286.14      47.368782      47.368782      47.368782      0.78923593     292.27184     -365.78847     -618.13873    
    714000   1428000        401.17706     -463.41355      5521.6675      6229.9158      4303.8015      1926.1143      1471.5754      1498.16        2745.6467      0             -3789.2677      0              0             -131.43605      104795.1       47.146232      47.146232      47.146232      0.80046532    -65.513625     -790.53238     -534.19464    
    714500   1429000        414.25742      195.17128      6727.4896      6425.621       4444.1268      1981.4941      1490.8482      1467.4051      2740.3744      0             -3717.1336      0              0             -129.87611      106053.79      47.334239      47.334239      47.334239      0.79096508     90.635048      80.133657      414.74514    
    715000   1430000        413.97045      158.69639      6519.9364      6276.0708      4441.0482      1835.0226      1466.6723      1442.5766      2685.2135      0             -3759.4398      0              0             -130.72174      105367.74      47.231951      47.231951      47.231951      0.79611509     408.70776     -15.558452      82.939858    
    715500   1431000        410.40942     -305.46998      5871.6203      6341.8068      4402.8457      1938.9611      1494.5961      1425.3043      2757.5968      0             -3738.5361      0              0             -130.50576      105542.11      47.257992      47.257992      47.257992      0.79479974    -453.17959     -512.88105      49.650706    
    716000   1432000        416.37457      411.36167      7090.4407      6459.7195      4466.8395      1992.88        1547.0146      1410.7683      2796.5792      0             -3761.482       0              0             -131.01402      105132.67      47.196801      47.196801      47.196801      0.7978951      701.9444       443.77481      88.365804    
    716500   1433000        411.05508     -415.45135      5665.9846      6305.9919      4409.7723      1896.2196      1415.5021      1475.5753      2768.337       0             -3763.1948      0              0             -130.39671      105630.38      47.271162      47.271162      47.271162      0.79413559    -35.241384      328.03432     -1539.147     
    717000   1434000        407.45551      207.72034      6572.0916      6253.834       4371.1564      1882.6776      1490.5768      1476.3601      2692.7796      0             -3777.039       0              0             -131.10875      105056.71      47.185432      47.185432      47.185432      0.79847199     98.837139      188.64666      335.67724    
    717500   1435000        415.73366     -273.65469      6037.2932      6464.0868      4459.9639      2004.1229      1458.1558      1436.7723      2793.6923      0             -3684.4975      0              0             -128.80016      106939.73      47.465678      47.465678      47.465678      0.78441234     454.25961      165.94626     -1441.17      
    718000   1436000        405.83847      344.4548       6900.0621      6369.9386      4353.8089      2016.1298      1485.2548      1530.4483      2713.5265      0             -3713.0999      0              0             -130.52287      105528.28      47.255927      47.255927      47.255927      0.79490391     709.98395      287.79606      35.5844      
    718500   1437000        414.65065     -294.78165      5998.9863      6449.9788      4448.3453      2001.6335      1493.363       1500.4629      2786.3123      0             -3778.5048      0              0             -131.29934      104904.21      47.16259       47.16259       47.16259       0.79963273     330.00735     -162.2125      -1052.1398    
    719000   1438000        409.27263     -755.71341      5164.9016      6329.5497      4390.6503      1938.8994      1488.0851      1483.7334      2703.0536      0             -3735.9726      0              0             -130.34482      105672.43      47.277434      47.277434      47.277434      0.79381959    -1303.3558     -799.99801     -163.78642    
    719500   1439000        418.24558      41.596826      6511.903       6447.9318      4486.9116      1961.0202      1522.5291      1475.3456      2690.2879      0             -3727.1423      0              0             -130.61927      105450.4       47.244298      47.244298      47.244298      0.79549103     699.53302     -510.63275     -64.109796    
    720000   1440000        404.6396      -556.68235      5366.5446      6227.5138      4340.9474      1886.5663      1485.3924      1447.3573      2668.3925      0             -3714.5758      0              0             -129.88267      106048.44      47.333442      47.333442      47.333442      0.79100501    -1329.2853     -64.659437     -276.10229    
    720500   1441000        413.25589      318.50508      6857.6907      6370.1521      4433.3825      1936.7696      1530.8698      1455.6805      2678.9073      0             -3728.688       0              0             -131.23169      104958.29      47.170693      47.170693      47.170693      0.79922072    -26.93524       327.88601      654.56449    
    721000   1442000        409.30123      409.49621      6953.7072      6323.9877      4390.9571      1933.0306      1515.2214      1496.6543      2693.071       0             -3771.9162      0              0             -130.62734      105443.88      47.243326      47.243326      47.243326      0.79554017    -144.67814      430.56833      942.59843    
    721500   1443000        411.23388     -333.96597      5775.1008      6286.5051      4411.6905      1874.8146      1443.2996      1452.6345      2726.0985      0             -3747.218       0              0             -131.18047      104999.27      47.176831      47.176831      47.176831      0.79890882     207.29951     -772.40021     -436.79719    
    722000   1444000        404.26854     -760.8762       5199.9994      6374.6932      4336.9668      2037.7264      1533.9732      1475.794       2763.1679      0             -3735.2087      0              0             -130.113        105860.7       47.305495      47.305495      47.305495      0.79240775    -816.0897      -1014.3353     -452.20366    
    722500   1445000        412.83656     -210.65314      5970.5         6294.525       4428.8839      1865.6411      1512.8811      1458.9687      2637.0086      0             -3743.2174      0              0             -130.59328      105471.38      47.247432      47.247432      47.247432      0.79533274    -12.394829     -525.28524     -94.279348    
    723000   1446000        407.70812     -297.13651      5817.432       6270.2175      4373.8663      1896.3511      1527.4534      1448.6967      2705.4988      0             -3785.2977      0              0             -131.82414      104486.58      47.099921      47.099921      47.099921      0.80282885     206.86326     -813.31781     -284.95497    
    723500   1447000        401.24942      176.81883      6486.8509      6214.351       4304.5779      1909.7732      1500.3308      1444.0375      2733.7344      0             -3768.3295      0              0             -130.34478      105672.47      47.27744       47.27744       47.27744       0.7938193     -109.25707      789.53892     -149.82537    
    724000   1448000        411.04772      202.25859      6604.5052      6292.1553      4409.6933      1882.462       1484.5407      1474.051       2669.0813      0             -3745.2109      0              0             -130.07597      105890.84      47.309984      47.309984      47.309984      0.79218222    -491.59902      331.2638       767.11098    
    724500   1449000        416.2761       256.4638       6807.7632      6413.3049      4465.7831      1947.5218      1543.4216      1426.3413      2706.6119      0             -3728.853       0              0             -130.60394      105462.77      47.246147      47.246147      47.246147      0.79539766     440.42407      114.22463      214.7427     
    725000   1450000        409.94959      9.865074       6351.1589      6336.0286      4397.9127      1938.1159      1522.5025      1483.772       2687.5713      0             -3755.7298      0              0             -130.97355      105165.16      47.201662      47.201662      47.201662      0.79764864    -308.63466      333.09108      5.1387985    
    725500   1451000        407.99154      103.61653      6369.3628      6209.5349      4376.9069      1832.628       1483.8896      1424.4706      2689.3884      0             -3765.1205      0              0             -130.22907      105766.36      47.291438      47.291438      47.291438      0.79311461     169.86765     -117.95067      258.93261    
    726000   1452000        408.72998      184.11447      6545.8603      6266.6914      4384.8288      1881.8626      1510.0391      1475.4434      2687.6289      0             -3791.2488      0              0             -132.48058      103968.86      47.021999      47.021999      47.021999      0.80682665    -81.526976      881.87253     -248.00213    
    726500   1453000        403.1961       148.72367      6504.3512      6278.4869      4325.4618      1953.0251      1521.2866      1483.0412      2713.6443      0             -3764.947       0              0             -132.27077      104133.77      47.046848      47.046848      47.046848      0.80554887    -386.5596       511.44071      321.2899     
    727000   1454000        402.32764      286.96135      6573.0462      6137.8647      4316.1449      1821.7198      1489.557       1436.2384      2676.6005      0             -3780.6762      0              0             -132.45989      103985.1       47.024447      47.024447      47.024447      0.80670064     437.93702     -143.31021      566.25723    
    727500   1455000        411.36334     -204.74415      6017.484       6334.5441      4413.0793      1921.4648      1493.4124      1491.6755      2667.8661      0             -3731.4892      0              0             -129.7183       106182.81      47.353426      47.353426      47.353426      0.79000399     112.94263     -301.57522     -425.59986    
    728000   1456000        414.38377      662.25133      7398.2728      6385.0605      4445.4824      1939.5781      1547.274       1458.1647      2685.8366      0             -3751.6971      0              0             -131.29667      104906.34      47.162909      47.162909      47.162909      0.7996165      147.18077      1246.9612      592.61198    
    728500   1457000        403.15668      8.2340176      6268.6717      6255.9176      4325.0388      1930.8788      1497.2743      1525.04        2646.4963      0             -3737.9317      0              0             -129.68543      106209.73      47.357427      47.357427      47.357427      0.78980376    -86.412268     -128.93395      240.04827    
    729000   1458000        401.81068      111.25259      6269.3176      6099.7368      4310.599       1789.1378      1462.5971      1486.8611      2643.7432      0             -3804.0635      0              0             -131.78464      104517.9       47.104626      47.104626      47.104626      0.80258826     577.95636      243.20591     -487.40449    
    729500   1459000        400.09164      390.6759       6822.8791      6231.1348      4292.1572      1938.9775      1516.2153      1495.1643      2711.972       0             -3784.374       0              0             -132.62149      103858.39      47.00534       47.00534       47.00534       0.80768481     439.15715      145.06032      587.81021    
    730000   1460000        410.10492      415.00636      6974.3155      6339.6211      4399.5791      1940.042       1518.6122      1479.1144      2717.6513      0             -3775.3359      0              0             -131.34739      104865.84      47.156838      47.156838      47.156838      0.79992535     662.92746      798.00627     -215.91465    
    730500   1461000        410.24868     -574.68457      5576.4913      6457.6024      4401.1213      2056.4811      1549.5029      1510.6376      2752.6588      0             -3756.3182      0              0             -131.01778      105129.66      47.19635       47.19635       47.19635       0.79791797    -767.62215     -375.96893     -580.46264    
    731000   1462000        409.78256     -115.78561      6162.0965      6341.1419      4396.1208      1945.0211      1516.9346      1423.2132      2732.2728      0             -3727.3995      0              0             -129.90407      106030.97      47.330843      47.330843      47.330843      0.79113534    -1086.0073      82.829904      655.8206     
    731500   1463000        413.11976     -625.9733       5449.2704      6407.4223      4431.9221      1975.5002      1553.7523      1457.5537      2725.0865      0             -3760.8922      0              0             -131.23594      104954.89      47.170183      47.170183      47.170183      0.79924665    -674.37091     -601.13946     -602.40953    
    732000   1464000        419.16834      473.73726      7043.3394      6323.1623      4496.8109      1826.3515      1505.1671      1491.3168      2640.7156      0             -3810.8481      0              0             -132.13857      104237.95      47.062532      47.062532      47.062532      0.80474378     100.63873      661.80179      658.77126    
    732500   1465000        411.00889     -664.00847      5411.1368      6427.7095      4409.2768      2018.4327      1518.7072      1530.0263      2720.217       0             -3750.5178      0              0             -131.20988      104975.74      47.173306      47.173306      47.173306      0.7990879     -186.75535     -556.25113     -1249.0189    
    733000   1466000        412.38079      40.519722      6317.3913      6254.8939      4423.9945      1830.8994      1482.5521      1414.6964      2690.5473      0             -3756.8964      0              0             -130.2375       105759.51      47.290416      47.290416      47.290416      0.79316599     27.684449     -174.17017      268.04489    
    733500   1467000        408.93634     -874.97726      4957.0551      6301.1844      4387.0426      1914.1418      1474.9311      1489.6413      2682.2787      0             -3732.7093      0              0             -130.76366      105333.96      47.226903      47.226903      47.226903      0.79637039    -677.58668     -1184.8995     -762.44565    
    734000   1468000        410.19337     -323.95547      5735.8315      6234.9572      4400.5279      1834.4292      1481.7576      1412.1591      2696.9316      0             -3756.419       0              0             -130.37874      105644.94      47.273334      47.273334      47.273334      0.79402613     330.85796     -140.53805     -1162.1863    
    734500   1469000        412.94674      48.622627      6368.2688      6293.6903      4430.066       1863.6243      1485.9818      1453.9623      2645.761       0             -3722.0808      0              0             -130.96532      105171.76      47.202651      47.202651      47.202651      0.79759852     405.66649     -403.89604      144.09743    
    735000   1470000        411.92037     -257.00948      5919.7782      6310.9372      4419.0551      1891.882       1479.4028      1496.5191      2683.6432      0             -3767.6831      0              0             -131.98581      104358.6       47.080682      47.080682      47.080682      0.80381345     605.01636     -493.34889     -882.69592    
    735500   1471000        412.1727      -291.50687      5843.1092      6290.5749      4421.7621      1868.8128      1494.5744      1483.8941      2650.899       0             -3760.5547      0              0             -130.86406      105253.14      47.214822      47.214822      47.214822      0.79698183    -372.58469     -413.27114     -88.664771    
    736000   1472000        410.18091     -235.89954      5871.0198      6235.0111      4400.3943      1834.6168      1460.619       1480.0696      2633.0988      0             -3739.1707      0              0             -130.18696      105800.57      47.296536      47.296536      47.296536      0.79285815    -1049.5418      284.23351      57.609689    
    736500   1473000        423.3801      -213.03874      5993.7909      6321.923       4541.9943      1779.9287      1429.4421      1482.7069      2647.3803      0             -3779.6007      0              0             -130.41911      105612.23      47.268455      47.268455      47.268455      0.79427204    -359.57436      4.9232312     -284.46508    
    737000   1474000        408.59034      32.231752      6121.2362      6071.6733      4383.3307      1688.3426      1404.9314      1458.9674      2613.2694      0             -3788.8256      0              0             -130.63489      105437.79      47.242415      47.242415      47.242415      0.79558616     425.62567     -917.31769      588.38728    
    737500   1475000        409.89714      103.91047      6428.6426      6270.2732      4397.35        1872.9232      1501.6334      1451.3559      2706.4911      0             -3786.5572      0              0             -131.80118      104504.79      47.102656      47.102656      47.102656      0.80268901    -189.05105     -160.41983      661.20231    
    738000   1476000        408.4135      -534.32288      5452.9078      6263.0654      4381.4336      1881.6318      1513.9959      1491.6646      2664.3982      0             -3788.427       0              0             -132.48467      103965.65      47.021515      47.021515      47.021515      0.80685157    -884.38833     -738.18388      19.603557    
    738500   1477000        408.6138      -584.27012      5347.0973      6248.543       4383.5825      1864.9605      1476.3859      1428.5575      2690.7392      0             -3730.7222      0              0             -130.19835      105791.31      47.295156      47.295156      47.295156      0.79292755    -61.804021     -502.12662     -1188.8797    
    739000   1478000        421.26717      721.30294      7554.4408      6454.0896      4519.327       1934.7626      1499.0411      1475.7143      2715.0666      0             -3755.0594      0              0             -131.67936      104601.46      47.117176      47.117176      47.117176      0.80194713     734.66243      1011.7488      417.49757    
    739500   1479000        412.07088      879.40715      7676.4932      6336.3708      4420.6697      1915.7011      1515.3068      1475.5364      2709.4577      0             -3784.5999      0              0             -131.81867      104490.92      47.100573      47.100573      47.100573      0.80279551     1071.9873      268.15416      1298.08      
    740000   1480000        403.45075      80.032667      6421.5128      6298.15        4328.1936      1969.9564      1516.9402      1489.5288      2722.4326      0             -3758.9452      0              0             -130.32103      105691.72      47.280311      47.280311      47.280311      0.79367468    -34.411295      790.64039     -516.1311     
    740500   1481000        409.98358      127.44767      6614.3647      6417.7261      4398.2773      2019.4488      1529.6617      1462.085       2768.1722      0             -3740.47        0              0             -130.19509      105793.96      47.295551      47.295551      47.295551      0.79290771     653.04296     -342.18465      71.484686    
    741000   1482000        410.53602     -150.53284      6051.9244      6284.5658      4404.2039      1880.3619      1545.9644      1379.4452      2715.3238      0             -3760.3714      0              0             -129.9797       105969.27      47.321661      47.321661      47.321661      0.79159593     745.2681      -128.12418     -1068.7424    
    741500   1483000        407.70533      270.92229      6764.6284      6348.639       4373.8364      1974.8026      1500.4271      1494.3934      2721.5545      0             -3741.5724      0              0             -130.82592      105283.83      47.21941       47.21941       47.21941       0.79674953    -35.138046      178.7028       669.20212    
    742000   1484000        412.46546      363.21913      6966.9593      6413.394       4424.9028      1988.4912      1514.9773      1522.0834      2726.6749      0             -3775.2444      0              0             -131.80482      104501.9       47.102222      47.102222      47.102222      0.80271116     476.31044      1160.2436     -546.89663    
    742500   1485000        406.64714     -330.52536      5760.0779      6275.3644      4362.4842      1912.8802      1516.8868      1444.6583      2663.8734      0             -3712.5383      0              0             -128.85088      106897.63      47.45945       47.45945       47.45945       0.78472124    -222.13082     -747.3002      -22.145053    
    743000   1486000        421.4231       401.3145       7134.5865      6511.319       4520.9998      1990.3192      1493.9814      1476.6061      2735.9487      0             -3716.217       0              0             -129.34265      106491.2       47.399225      47.399225      47.399225      0.78771618     67.146982      968.33332      168.4632     
    743500   1487000        406.14174      319.34239      6796.2404      6299.2305      4357.0624      1942.1682      1464.79        1446.5695      2753.9731      0             -3723.1644      0              0             -129.06928      106716.75      47.432666      47.432666      47.432666      0.78605131     798.41176      319.40518     -159.78976    
    744000   1488000        409.6997      -425.44541      5701.0554      6360.4891      4395.2319      1965.2573      1491.0517      1457.3278      2741.0468      0             -3724.169       0              0             -129.5997       106279.98      47.367866      47.367866      47.367866      0.7892817     -367.33155      9.3966425     -918.40133    
    744500   1489000        423.44172      569.2292       7384.4364      6504.779       4542.6554      1962.1236      1544.3594      1417.2283      2730.092       0             -3729.5561      0              0             -129.98851      105962.09      47.320593      47.320593      47.320593      0.79164956     303.8648       1110.1596      293.6632     
    745000   1490000        406.00058      371.52296      6955.5929      6379.2685      4355.5479      2023.7206      1544.0809      1457.317       2738.5399      0             -3716.2172      0              0             -129.49411      106366.64      47.380738      47.380738      47.380738      0.78863863     104.36459     -173.7234       1183.9277    
    745500   1491000        407.72827      377.04045      6975.0448      6396.3002      4374.0825      2022.2177      1479.4246      1542.2892      2748.051       0             -3747.5471      0              0             -130.86766      105250.25      47.21439       47.21439       47.21439       0.79700375     369.82773      265.70518      495.58845    
    746000   1492000        406.02818     -764.89698      5058.9199      6237.7366      4355.844       1881.8926      1495.0573      1442.7958      2703.4692      0             -3759.4296      0              0             -130.3431       105673.83      47.277642      47.277642      47.277642      0.79380908    -720.58211     -1121.0936     -453.01525    
    746500   1493000        402.34277     -697.34562      5163.9136      6237.1594      4316.3072      1920.8522      1503.066       1436.8562      2740.9669      0             -3760.0368      0              0             -130.52096      105529.83      47.256158      47.256158      47.256158      0.79489226    -1288.878      -693.43831     -109.72056    
    747000   1494000        412.33377      106.73522      6501.5397      6339.7389      4423.4901      1916.2488      1481.6284      1446.0118      2768.1007      0             -3779.492       0              0             -132.51301      103943.41      47.018163      47.018163      47.018163      0.80702416    -36.782912     -336.17448      693.16305    
    747500   1495000        402.82747      238.03969      6584.5556      6221.6469      4321.5071      1900.1399      1491.7719      1450.616       2731.6781      0             -3773.9262      0              0             -131.75994      104537.49      47.107569      47.107569      47.107569      0.80243788     1034.7462     -52.37488      -268.25228    
    748000   1496000        402.43704     -607.14544      5410.9526      6340.1473      4317.3185      2022.8288      1527.7194      1490.6611      2765.5351      0             -3761.0868      0              0             -131.25546      104939.28      47.167845      47.167845      47.167845      0.7993655     -774.95776     -437.92408     -608.55448    
    748500   1497000        406.7354       465.78794      6969.4172      6253.0234      4363.4311      1889.5923      1500.8699      1428.402       2713.2456      0             -3752.9252      0              0             -130.6074       105459.98      47.24573       47.24573       47.24573       0.79541873     513.40332      887.62238     -3.6618841    
    749000   1498000        410.28293      295.53184      6806.2454      6357.9393      4401.4887      1956.4506      1512.9362      1499.8904      2726.9244      0             -3783.3005      0              0             -132.42228      104014.63      47.028898      47.028898      47.028898      0.80647161    -194.648        1170.5876     -89.344036    
    749500   1499000        410.81254      429.98548      6761.76        6103.4536      4407.1703      1696.2833      1410.8104      1443.1019      2639.5922      0             -3797.2212      0              0             -131.20702      104978.03      47.173649      47.173649      47.173649      0.79907049     93.842429      712.34874      483.76528    
    750000   1500000        414.10665     -102.50625      6184.2316      6342.5771      4442.5093      1900.0678      1505.9033      1496.3937      2655.9988      0             -3758.228       0              0             -130.03969      105920.38      47.314383      47.314383      47.314383      0.79196129    -514.71287     -6.9473565      214.14147    
    750500   1501000        414.00519      346.16144      6882.6537      6353.4478      4441.4209      1912.0269      1477.1881      1465.4259      2737.9184      0             -3768.5054      0              0             -131.39697      104826.27      47.150906      47.150906      47.150906      0.80022731     173.54042     -79.292479      944.23638    
    751000   1502000        405.01755      52.109479      6372.2979      6292.7343      4345.0021      1947.7322      1524.6545      1517.573       2679.8078      0             -3774.3031      0              0             -131.56299      104693.99      47.131064      47.131064      47.131064      0.80123841    -29.246329      604.63566     -419.0609     
    751500   1503000        410.07477      563.22916      7300.2102      6428.6973      4399.2556      2029.4417      1494.3844      1498.1398      2751.0173      0             -3714.0999      0              0             -129.82031      106099.37      47.34102       47.34102       47.34102       0.79062524     851.32126     -42.84833       881.21456    
    752000   1504000        406.29647     -297.38319      5792.074       6254.3887      4358.7222      1895.6664      1438.2616      1424.9351      2745.5662      0             -3713.0964      0              0             -129.21415      106597.1       47.414932      47.414932      47.414932      0.78693364    -474.81034     -554.45053      137.1113     
    752500   1505000        408.67017      359.24941      6908.7145      6364.5804      4384.1871      1980.3932      1554.0335      1480.0233      2779.8877      0             -3833.5513      0              0             -132.6238       103856.58      47.005066      47.005066      47.005066      0.80769892     14.3075        370.378        693.06272    
    753000   1506000        403.21573     -52.662811      6208.8171      6289.2031      4325.6723      1963.5308      1494.2114      1505.3749      2755.2166      0             -3791.2721      0              0             -131.59964      104664.83      47.126688      47.126688      47.126688      0.80146164    -571.23295     -607.61874      1020.8633    
    753500   1507000        411.32201      558.31593      7180.9002      6331.2472      4412.6359      1918.6113      1445.999       1516.723       2740.29        0             -3784.4006      0              0             -131.99876      104348.36      47.079143      47.079143      47.079143      0.80389228     234.87699      663.11199      776.95881    
    754000   1508000        400.30429      492.29792      6985.194       6227.1775      4294.4386      1932.739       1462.3036      1454.0899      2756.2403      0             -3739.8948      0              0             -130.46101      105578.32      47.263395      47.263395      47.263395      0.7945272      1416.3825     -186.06843      246.57966    
    754500   1509000        402.20422      137.66269      6393.4318      6183.7827      4314.8209      1868.9617      1445.4838      1499.1523      2679.6809      0             -3755.3552      0              0             -131.90296      104424.15      47.090537      47.090537      47.090537      0.80330886     133.4821       323.44277     -43.93682     
    755000   1510000        415.55846      255.48437      6750.2686      6357.9975      4458.0843      1899.9132      1454.7746      1480.8549      2671.6464      0             -3707.3626      0              0             -130.8306       105280.06      47.218847      47.218847      47.218847      0.79677806    -182.86677     -293.1882       1242.5081    
    755500   1511000        405.07466      27.187386      6226.4354      6185.2176      4345.6148      1839.6029      1428.5945      1476.4195      2704.2826      0             -3769.6938      0              0             -132.49944      103954.05      47.019767      47.019767      47.019767      0.80694155    -1061.4985      1021.2098      121.85083    
    756000   1512000        410.93106     -216.65112      6063.5972      6398.526       4408.4419      1990.0841      1532.3567      1511.3679      2691.3392      0             -3744.9798      0              0             -129.93909      106002.39      47.326591      47.326591      47.326591      0.79134859     55.116223     -576.89234     -128.17723    
    756500   1513000        414.90299     -333.8567       5934.3218      6445.9237      4451.0525      1994.8712      1494.5147      1513.4385      2747.2673      0             -3760.3494      0              0             -131.08692      105074.2       47.18805       47.18805       47.18805       0.79833909    -122.89552     -435.13194     -443.54265    
    757000   1514000        410.32611     -652.24966      5328.0576      6332.2376      4401.952       1930.2855      1494.95        1414.8507      2762.0912      0             -3741.6064      0              0             -130.47692      105565.45      47.261474      47.261474      47.261474      0.79462405    -418.04293     -898.27922     -640.42684    
    757500   1515000        414.453       -36.747176      6386.913       6443.938       4446.225       1997.713       1493.86        1469.2392      2707.5622      0             -3672.9484      0              0             -129.44651      106405.75      47.386544      47.386544      47.386544      0.78834875     97.367245      446.61149     -654.22026    
    758000   1516000        410.30717     -180.07217      6025.1104      6300.8933      4401.7488      1899.1445      1472.1449      1453.0153      2707.5033      0             -3733.519       0              0             -131.16276      105013.45      47.178955      47.178955      47.178955      0.79880092    -524.74679     -224.18784      208.71813    
    758500   1517000        414.66908     -226.23436      6025.5427      6377.0542      4448.5431      1928.5111      1462.8154      1453.3227      2711.5198      0             -3699.1469      0              0             -129.28565      106538.15      47.406189      47.406189      47.406189      0.78736909     293.77096     -306.61317     -665.86086    
    759000   1518000        403.74676      0.73163405     6254.9266      6253.793       4331.3691      1922.4239      1467.0148      1501.6072      2698.498       0             -3744.6963      0              0             -129.648        106240.39      47.361984      47.361984      47.361984      0.78957582    -216.60615      152.91         65.891049    
    759500   1519000        409.0534      -5.5330309      6322.2742      6330.8756      4388.2985      1942.5771      1440.4233      1506.2451      2692.2743      0             -3696.3655      0              0             -129.21907      106593.04      47.41433       47.41433       47.41433       0.78696358     866.64281     -363.85085     -519.39106    
    760000   1520000        409.12379      25.222011      6442.5659      6403.3762      4389.0536      2014.3226      1465.9264      1527.1051      2713.4318      0             -3692.1407      0              0             -129.28235      106540.87      47.406593      47.406593      47.406593      0.78734895    -626.33321      295.84958      406.14967    
    760500   1521000        413.97894      648.36578      7400.3713      6408.5241      4441.1393      1967.3848      1558.1762      1424.0375      2718.3556      0             -3733.1844      0              0             -131.31269      104893.55      47.160991      47.160991      47.160991      0.79971405     943.78472      352.5986       648.71403    
    761000   1522000        415.31394      91.332509      6507.9145      6367.1032      4455.4611      1911.6421      1510.857       1452.8389      2712.5727      0             -3764.6266      0              0             -130.29247      105714.89      47.283765      47.283765      47.283765      0.79350078     13.45328       71.795599      188.74865    
    761500   1523000        420.57354     -598.70716      5419.5429      6328.0961      4511.8857      1816.2104      1472.7745      1480.4491      2651.1643      0             -3788.1776      0              0             -132.37179      104054.3       47.034877      47.034877      47.034877      0.80616412    -752.93597     -303.1038      -740.0817     
    762000   1524000        403.42444      169.94468      6549.416       6290.4652      4327.9113      1962.5539      1508.2107      1497.0144      2738.9009      0             -3781.5721      0              0             -131.83227      104480.14      47.098952      47.098952      47.098952      0.80287839    -342.08637      24.33335       827.58706    
    762500   1525000        415.54626     -117.12537      6067.3441      6247.4289      4457.9534      1789.4755      1442.9437      1466.7017      2634.9314      0             -3755.1014      0              0             -130.64879      105426.57      47.24074       47.24074       47.24074       0.79567081    -380.15295      156.52587     -127.74903    
    763000   1526000        406.78236      208.50159      6557.5868      6240.0563      4363.9348      1876.1214      1477.1217      1466.0989      2723.006       0             -3790.1052      0              0             -131.90316      104423.99      47.090513      47.090513      47.090513      0.80331009    -188.82748      539.52523      274.80701    
    763500   1527000        417.64534      685.93171      7402.0738      6357.2414      4480.4722      1876.7691      1474.7858      1479.3024      2689.3521      0             -3766.6712      0              0             -131.87595      104445.53      47.093752      47.093752      47.093752      0.80314438     920.69375      874.26867      262.83271    
    764000   1528000        419.51624      270.26804      6867.5265      6452.2865      4500.5431      1951.7434      1514.4996      1487.3945      2691.7302      0             -3741.881       0              0             -130.74552      105348.57      47.229087      47.229087      47.229087      0.79625991    -457.97476      1043.3899      225.38899    
    764500   1529000        413.92906      612.35427      7134.6775      6203.0591      4440.6042      1762.4549      1448.3279      1446.3779      2645.0857      0             -3777.3366      0              0             -132.03712      104318.05      47.074583      47.074583      47.074583      0.80412591     1221.2042      114.60711      501.25144    
    765000   1530000        395.87698      97.919745      6243.2413      6093.0372      4246.9426      1846.0946      1445.6333      1446.7509      2734.8493      0             -3781.139       0              0             -130.95429      105180.62      47.203976      47.203976      47.203976      0.79753134     25.462157      594.64047     -326.34339    
    765500   1531000        415.3769       264.58634      6666.1064      6265.8947      4456.1366      1809.7581      1503.7524      1462.2644      2697.3818      0             -3853.6405      0              0             -132.80334      103716.17      46.983874      46.983874      46.983874      0.80879232     616.86219      96.081519      80.815319    
    766000   1532000        405.25629      827.50117      7552.8489      6309.4256      4347.5633      1961.8623      1550.6617      1526.3555      2717.0729      0             -3832.2278      0              0             -133.68448      103032.56      46.88042       46.88042       46.88042       0.81415859     477.60583      1873.7797      131.11801    
    766500   1533000        405.11238     -271.39028      5896.2994      6312.8863      4346.0194      1966.8668      1515.7255      1453.9418      2765.9756      0             -3768.7761      0              0             -130.86397      105253.22      47.214834      47.214834      47.214834      0.79698125    -392.45444     -353.80924     -67.90715     
    767000   1534000        421.88809      124.50149      6662.4901      6474.7498      4525.9881      1948.7616      1539.3362      1482.9553      2756.7914      0             -3830.3213      0              0             -133.21351      103396.83      46.935603      46.935603      46.935603      0.8112903     -310.78462      407.40792      276.88118    
    767500   1535000        403.04798     -226.95673      5915.6579      6264.5598      4323.8726      1940.6872      1494.4632      1536.2042      2652.5584      0             -3742.5387      0              0             -130.66856      105410.62      47.238358      47.238358      47.238358      0.79579118    -205.23318     -767.22765      291.59064    
    768000   1536000        406.24493     -688.47052      5233.5559      6295.6412      4358.1693      1937.4719      1550.2441      1447.1281      2675.5432      0             -3735.4435      0              0             -130.21388      105778.69      47.293276      47.293276      47.293276      0.79302215    -484.76059     -389.98577     -1190.6652    
    768500   1537000        419.18866      1000.0444      8002.9574      6482.8988      4497.0289      1985.8699      1547.2788      1487.9152      2694.1719      0             -3743.4959      0              0             -132.15705      104223.38      47.060339      47.060339      47.060339      0.80485629     570.57561      1495.6692      933.88837    
    769000   1538000        407.79403     -314.70161      5860.1037      6344.4634      4374.7881      1969.6753      1532.0306      1454.2662      2722.9299      0             -3739.5513      0              0             -130.51558      105534.17      47.256807      47.256807      47.256807      0.79485953    -1001.2326     -135.20681      192.33454    
    769500   1539000        404.38958     -261.63438      5830.6826      6227.2691      4338.2652      1889.0039      1566.1081      1443.5698      2696.2441      0             -3816.9182      0              0             -132.52209      103936.28      47.017088      47.017088      47.017088      0.80707949     152.16511     -534.8715      -402.19674    
    770000   1540000        419.6229      -777.02265      5213.6711      6393.4128      4501.6874      1891.7254      1550.7969      1455.1078      2719.6389      0             -3833.8183      0              0             -132.30557      104106.38      47.042722      47.042722      47.042722      0.80576085    -536.59044     -1474.8648     -319.61271    
    770500   1541000        411.74627      99.644801      6393.3357      6242.3921      4417.1874      1825.2048      1515.3249      1420.4377      2704.7695      0             -3815.3274      0              0             -132.60849      103868.57      47.006875      47.006875      47.006875      0.80760567     74.212205      286.31205     -61.589852    
    771000   1542000        408.84879      54.247372      6397.0375      6314.0893      4386.1034      1927.9859      1528.6575      1440.9692      2757.8385      0             -3799.4793      0              0             -131.37209      104846.12      47.153883      47.153883      47.153883      0.80007578     1638.9037     -851.68472     -624.47687    
    771500   1543000        419.27351      128.27856      6628.3955      6430.5111      4497.9391      1932.572       1569.3234      1431.2205      2704.0618      0             -3772.0338      0              0             -130.21883      105774.67      47.292677      47.292677      47.292677      0.79305226     276.79836     -312.56155      420.59885    
    772000   1544000        409.05831     -810.60946      5099.6021      6343.844       4388.3511      1955.4928      1530.7074      1471.1932      2687.6688      0             -3734.0766      0              0             -130.86944      105248.82      47.214176      47.214176      47.214176      0.79701456    -1563.6943     -401.29745     -466.83661    
    772500   1545000        398.03969     -124.21822      5936.6403      6126.8178      4270.1441      1856.6737      1478.7305      1463.7646      2714.6089      0             -3800.4303      0              0             -131.20716      104977.91      47.173632      47.173632      47.173632      0.79907136    -621.46087      637.36515     -388.55895    
    773000   1546000        400.55901     -841.10794      4909.3811      6211.0347      4297.1711      1913.8636      1509.2988      1436.132       2712.9369      0             -3744.504       0              0             -129.80388      106112.81      47.343018      47.343018      47.343018      0.79052515    -1057.2615     -489.7272      -976.33517    
    773500   1547000        410.52571     -217.93713      5978.8187      6314.0228      4404.0933      1909.9295      1493.0355      1471.2582      2705.8998      0             -3760.264       0              0             -130.60307      105463.48      47.246252      47.246252      47.246252      0.79539235     257.87864     -280.04869     -631.64134    
    774000   1548000        414.77308     -89.076335      6286.5343      6422.0579      4449.6587      1972.3991      1492.2465      1489.5181      2791.1807      0             -3800.5462      0              0             -132.03193      104322.14      47.075199      47.075199      47.075199      0.80409433    -50.003918     -82.897618     -134.32747    
    774500   1549000        414.33373     -479.06217      5627.9166      6369.4644      4444.9455      1924.5189      1448.674       1488.7734      2685.0753      0             -3698.0037      0              0             -129.77292      106138.12      47.346782      47.346782      47.346782      0.79033663    -490.92595     -894.48297     -51.777582    
    775000   1550000        409.59933     -231.15401      5954.1078      6313.3005      4394.1551      1919.1454      1481.0792      1485.0869      2658.4586      0             -3705.4793      0              0             -129.27223      106549.21      47.40783       47.40783       47.40783       0.78728734    -152.31202      539.46545     -1080.6154    
    775500   1551000        423.33422      538.10069      7179.6414      6362.7234      4541.5022      1821.2212      1431.1205      1457.3468      2709.5028      0             -3776.7489      0              0             -132.31724      104097.2       47.04134       47.04134       47.04134       0.8058319      190.96815      1303.5837      119.75019    
    776000   1552000        404.73665      30.888979      6339.3741      6292.0672      4341.9886      1950.0786      1477.7032      1514.0692      2719.9801      0             -3761.6739      0              0             -131.16278      105013.44      47.178952      47.178952      47.178952      0.79880104     447.18626      301.21903     -655.73836    
    776500   1553000        408.12576     -431.64601      5664.1931      6327.3554      4378.3468      1949.0086      1540.2822      1486.1583      2638.5847      0             -3716.0166      0              0             -130.74925      105345.56      47.228638      47.228638      47.228638      0.79628264    -816.73627      143.39622     -621.59798    
    777000   1554000        417.50513     -345.11597      5840.5462      6369.8759      4478.9681      1890.9078      1491.4989      1480.5499      2688.9782      0             -3770.1191      0              0             -130.9695       105168.41      47.202149      47.202149      47.202149      0.79762395    -201.71672     -296.5747      -537.05648    
    777500   1555000        402.71379      104.55041      6386.6992      6225.5519      4320.2875      1905.2644      1471.6589      1512.449       2661.5155      0             -3740.359       0              0             -130.32695      105686.92      47.279595      47.279595      47.279595      0.79371075     415.77315      130.67924     -232.80116    
    778000   1556000        406.16379      1024.5614      7846.9574      6267.556       4357.2989      1910.2571      1490.9264      1481.4297      2669.9016      0             -3732.0006      0              0             -130.30973      105700.89      47.281678      47.281678      47.281678      0.79360586     1183.4534      790.77451      1099.4564    
    778500   1557000        400.21816     -559.63963      5229.9158      6081.2178      4293.5146      1787.7033      1461.2977      1452.0622      2670.9564      0             -3796.613       0              0             -132.05539      104303.61      47.072411      47.072411      47.072411      0.8042372     -734.78799     -21.948824     -922.18207    
    779000   1558000        424.93152      848.33063      7777.8608      6471.8915      4558.6379      1913.2536      1461.4519      1443.0705      2757.724       0             -3748.9928      0              0             -130.48588      105558.19      47.260392      47.260392      47.260392      0.79467866     536.11344      1220.9022      787.97626    
    779500   1559000        421.92218      867.636        7866.2711      6527.7452      4526.3539      2001.3913      1493.0046      1521.2561      2738.2338      0             -3751.1033      0              0             -130.20934      105782.38      47.293826      47.293826      47.293826      0.79299447     642.49514      755.85037      1204.5625    
    780000   1560000        408.02471     -190.82993      6023.9529      6319.9835      4377.2628      1942.7208      1500.5144      1458.7325      2702.5367      0             -3719.0628      0              0             -129.49148      106368.8       47.381058      47.381058      47.381058      0.78862263    -888.02261      338.7994      -23.266573    
    780500   1561000        411.58625      451.96835      7037.1706      6344.1118      4415.4707      1928.6411      1516.1807      1442.8766      2731.9286      0             -3762.3447      0              0             -130.9994       105144.4       47.198557      47.198557      47.198557      0.79780609     445.43805      46.619531      863.84747    
    781000   1562000        411.19125      480.54386      7120.8346      6378.6709      4411.2332      1967.4378      1513.4827      1448.108       2725.5452      0             -3719.6981      0              0             -130.06628      105898.73      47.311159      47.311159      47.311159      0.79212321     111.4194       248.65766      1081.5545    
    781500   1563000        412.042        411.43335      7026.6818      6393.2125      4420.3599      1972.8526      1491.302       1443.8774      2759.4673      0             -3721.7942      0              0             -130.46838      105572.36      47.262505      47.262505      47.262505      0.79457204     90.290206      354.61113      789.39871    
    782000   1564000        407.40925     -744.85407      5158.2274      6301.8955      4370.6601      1931.2354      1466.3716      1496.3088      2723.6183      0             -3755.0633      0              0             -130.82856      105281.71      47.219093      47.219093      47.219093      0.79676559    -206.55483     -1152.3198     -875.68762    
    782500   1565000        410.21869      322.46175      6908.5848      6412.2408      4400.7996      2011.4411      1500.8517      1449.8542      2784.8588      0             -3724.1235      0              0             -130.5049       105542.81      47.258096      47.258096      47.258096      0.79479447     740.51893     -418.62232      645.48865    
    783000   1566000        413.14777      232.33911      6811.2663      6451.2949      4432.2225      2019.0723      1465.8911      1510.6772      2747.424       0             -3704.9199      0              0             -129.65391      106235.54      47.361264      47.361264      47.361264      0.78961185     585.48309     -315.97145      427.50568    
    783500   1567000        410.23069      374.22548      6932.8515      6357.0387      4400.9284      1956.1103      1461.5169      1426.6137      2791.8647      0             -3723.8851      0              0             -130.55195      105504.77      47.252418      47.252418      47.252418      0.79508102    -252.14626      1256.3628      118.45989    
    784000   1568000        408.83063      22.751231      6400.682       6365.9428      4385.9086      1980.0342      1493.2037      1477.0585      2789.5292      0             -3779.7572      0              0             -131.55781      104698.11      47.131683      47.131683      47.131683      0.80120687    -324.31396      472.97339     -80.40574     
    784500   1569000        401.94024     -413.8912       5717.1828      6358.079       4311.9889      2046.0901      1467.7881      1517.5973      2743.8322      0             -3683.1276      0              0             -129.72684      106175.83      47.352388      47.352388      47.352388      0.79005596    -874.82206      525.0415      -891.89303    
    785000   1570000        410.27337      142.53398      6665.339       6445.5826      4401.3862      2044.1964      1501.7641      1497.8878      2775.9292      0             -3731.3847      0              0             -130.28916      105717.57      47.284165      47.284165      47.284165      0.79348061    -302.3541       520.80519      209.15086    
    785500   1571000        410.8582       313.64153      6833.1496      6345.4574      4407.6602      1937.7972      1465.0727      1480.6077      2679.7851      0             -3687.6683      0              0             -129.1871       106619.42      47.418241      47.418241      47.418241      0.78676887     511.59877     -31.093137      460.41895    
    786000   1572000        411.34845      483.07837      7308.2378      6564.5802      4412.9196      2151.6606      1545.1987      1475.3363      2835.6322      0             -3704.5067      0              0             -130.48961      105555.18      47.259942      47.259942      47.259942      0.79470135     360.81666      597.3704       491.04807    
    786500   1573000        412.81027      749.46782      7441.9234      6300.5454      4428.6019      1871.9434      1474.4387      1455.6888      2707.1801      0             -3765.3643      0              0             -131.90306      104424.07      47.090526      47.090526      47.090526      0.80330946     32.174903      786.32124      1429.9073    
    787000   1574000        400.6282       397.22686      6777.552       6165.2408      4297.9135      1867.3274      1498.1784      1440.4299      2675.4039      0             -3746.6849      0              0             -130.31601      105695.79      47.280917      47.280917      47.280917      0.79364414     35.959434     -145.77546      1301.4966    
    787500   1575000        412.0284      -334.68029      5915.456       6426.5026      4420.214       2006.2886      1563.8596      1486.2063      2725.1353      0             -3768.9125      0              0             -131.55307      104701.88      47.132248      47.132248      47.132248      0.80117802    -164.33912     -396.91378     -442.78797    
    788000   1576000        412.12318     -859.21101      5029.6533      6344.6982      4421.2309      1923.4673      1504.1663      1433.8183      2756.9259      0             -3771.4432      0              0             -131.24738      104945.75      47.168813      47.168813      47.168813      0.79931627    -558.57961     -478.84738     -1540.206     
    788500   1577000        404.75718     -26.513583      6090.5661      6131.1041      4342.2089      1788.8953      1453.4621      1425.4052      2679.6305      0             -3769.6026      0              0             -131.38247      104837.84      47.15264       47.15264       47.15264       0.80013903     58.271238      660.37391     -798.1859     
    789000   1578000        411.30603     -5.9311003      6318.5008      6327.5315      4412.4645      1915.0671      1526.5799      1471.9892      2711.8726      0             -3795.3746      0              0             -131.93025      104402.54      47.08729       47.08729       47.08729       0.80347509    -740.60934     -340.18305      1062.9991    
    789500   1579000        406.25564      194.52386      6555.3119      6259.4112      4358.2843      1901.1269      1616.2757      1476.923       2592.4274      0             -3784.4992      0              0             -132.05601      104303.12      47.072338      47.072338      47.072338      0.80424098    -130.99111      375.03554      339.52715    
    790000   1580000        406.67882     -133.84758      5977.3616      6182.2219      4362.8241      1819.3979      1521.8373      1431.5125      2659.248       0             -3793.2         0              0             -131.24536      104947.36      47.169055      47.169055      47.169055      0.79930398    -55.068016      59.116265     -405.59099    
    790500   1581000        410.24176      762.80818      7470.4594      6298.5723      4401.0471      1897.5252      1534.6169      1470.3115      2640.2386      0             -3747.6418      0              0             -130.75578      105340.31      47.227852      47.227852      47.227852      0.79632238     686.25283      203.99923      1398.1725    
    791000   1582000        409.84235      683.71751      7167.2053      6127.6261      4396.7622      1730.8638      1483.8202      1416.1348      2637.437       0             -3806.5282      0              0             -132.1145       104256.95      47.06539       47.06539       47.06539       0.80459717     655.79953      1071.8282      323.52477    
    791500   1583000        411.77569      812.62537      7596.6347      6346.4084      4417.503       1928.9054      1543.4247      1493.7418      2638.8254      0             -3747.0866      0              0             -130.56691      105492.69      47.250614      47.250614      47.250614      0.79517211     444.58529      1203.1974      790.09341    
    792000   1584000        403.42324      24.183105      6100.0492      6062.9319      4327.8984      1735.0335      1491.132       1375.824       2656.4876      0             -3788.4101      0              0             -130.8783       105241.69      47.21311       47.21311       47.21311       0.79706855     133.61633      175.71691     -236.78392    
    792500   1585000        421.49382     -828.71797      5205.8378      6475.2959      4521.7584      1953.5375      1582.859       1449.3303      2679.3635      0             -3758.0152      0              0             -131.13533      105035.41      47.182243      47.182243      47.182243      0.79863391    -1110.1302     -904.97168     -471.05208    
    793000   1586000        410.0437      -561.18076      5453.4128      6312.2645      4398.9224      1913.3422      1528.0491      1458.2376      2719.0965      0             -3792.041       0              0             -131.25502      104939.63      47.167897      47.167897      47.167897      0.79936284    -751.79377     -421.16673     -510.58177    
    793500   1587000        417.48384      214.67481      6818.4732      6486.1451      4478.7396      2007.4055      1589.6086      1479.4813      2655.0934      0             -3716.7779      0              0             -129.76136      106147.57      47.348187      47.348187      47.348187      0.79026623     345.11299      158.45733      140.4541     
    794000   1588000        409.66612     -379.74746      5658.6654      6235.1668      4394.8717      1840.2952      1499.0251      1521.3655      2657.8788      0             -3837.9743      0              0             -132.32011      104094.94      47.041         47.041         47.041         0.80584935    -1007.6744     -173.15406      41.586073    
    794500   1589000        410.11653      41.184185      6301.4861      6239.4768      4399.7036      1839.7732      1513.0529      1478.6932      2681.9576      0             -3833.9305      0              0             -133.41514      103240.56      46.911947      46.911947      46.911947      0.81251827    -823.85276      673.38665      274.01867    
    795000   1590000        418.36953      345.92692      6891.5033      6369.2774      4488.2412      1881.0361      1538.566       1413.2443      2736.595       0             -3807.3691      0              0             -133.06299      103513.79      46.953294      46.953294      46.953294      0.81037363     181.84577      697.89724      158.03775    
    795500   1591000        406.45793      244.98701      6708.7898      6333.5136      4360.4544      1973.0592      1529.3362      1486.8715      2715.9588      0             -3759.1072      0              0             -131.13646      105034.51      47.182107      47.182107      47.182107      0.7986408      79.153167      582.68625      73.121596    
    796000   1592000        407.04768     -349.27069      5700.4001      6235.6971      4366.7812      1868.9159      1496.1905      1457.7742      2673.0047      0             -3758.0534      0              0             -131.0686       105088.9       47.19025       47.19025       47.19025       0.79822747    -438.44996     -202.48151     -406.88059    
    796500   1593000        411.9605       521.15235      7183.9757      6385.8313      4419.4856      1966.3456      1530.2041      1519.0061      2684.7914      0             -3767.656       0              0             -131.16398      105012.48      47.178808      47.178808      47.178808      0.79880835     624.30087      560.89612      378.26008    
    797000   1594000        416.20156     -603.44513      5507.5619      6428.4531      4464.9834      1963.4697      1607.1923      1476.9145      2660.2503      0             -3780.8874      0              0             -131.6318       104639.26      47.12285       47.12285       47.12285       0.80165747    -547.13861     -561.8617      -701.3351     
    797500   1595000        410.79705      66.17666       6319.0065      6218.6349      4407.0042      1811.6306      1511.0535      1455.0596      2684.8306      0             -3839.313       0              0             -132.44185      103999.26      47.026582      47.026582      47.026582      0.80659077    -197.53177     -117.72571      513.78745    
    798000   1596000        412.68791     -227.91348      6000.6639      6347.2068      4427.2892      1919.9176      1559.804       1515.2199      2673.952       0             -3829.0583      0              0             -132.11266      104258.4       47.065609      47.065609      47.065609      0.80458598    -5.7739617      25.6414       -703.60788    
    798500   1597000        411.14987     -227.55162      5961.2908      6306.7592      4410.7892      1895.97        1524.6696      1468.5959      2722.1823      0             -3819.4778      0              0             -132.31314      104100.43      47.041826      47.041826      47.041826      0.80580691    -288.04272      24.282514     -418.89465    
    799000   1598000        423.0506       45.535302      6341.8901      6274.0633      4538.4595      1735.6039      1484.3693      1433.411       2695.7305      0             -3877.9069      0              0             -134.85859      102135.54      46.743973      46.743973      46.743973      0.82130909    -271.90143      390.94572      17.56162     
    799500   1599000        406.94917     -758.60206      5008.6689      6162.8571      4365.7244      1797.1328      1525.8621      1431.5787      2649.0677      0             -3809.3756      0              0             -132.02881      104324.61      47.07557       47.07557       47.07557       0.80407535    -1163.1139     -1196.7915      84.099128    
    800000   1600000        406.7173      -113.72469      5993.9905      6164.7831      4363.2369      1801.5461      1529.6059      1436.4083      2710.9211      0             -3875.3892      0              0             -133.75719      102976.55      46.871924      46.871924      46.871924      0.81460142    -371.57696      63.086852     -32.683975    
    800500   1601000        405.69864     -76.703276      5942.4527      6058.3329      4352.3088      1706.0241      1503.7543      1419.1138      2617.274       0             -3834.118       0              0             -132.96461      103590.38      46.964871      46.964871      46.964871      0.80977449     229.08984     -546.15059      86.950919    
    801000   1602000        405.61677     -707.87261      5072.256       6156.2678      4351.4305      1804.8373      1521.942       1440.5293      2638.4462      0             -3796.0803      0              0             -131.17543      105003.31      47.177435      47.177435      47.177435      0.79887809    -577.70035     -444.3225      -1101.595     
    801500   1603000        412.77036      38.170565      6501.991       6443.5291      4428.1737      2015.3554      1592.9901      1475.2544      2711.0897      0             -3763.9789      0              0             -131.15565      105019.14      47.179807      47.179807      47.179807      0.79875765    -147.48543      448.98301     -186.98588    
    802000   1604000        408.63495      684.41659      7325.1494      6277.3714      4383.8093      1893.5621      1516.7074      1449.9174      2730.5533      0             -3803.6161      0              0             -131.21474      104971.85      47.172723      47.172723      47.172723      0.79911753     617.08988     -184.10448      1620.2644    
    802500   1605000        407.82699      148.64328      6600.6937      6373.761       4375.1416      1998.6194      1572.2733      1460.4274      2731.3813      0             -3765.4626      0              0             -131.57692      104682.91      47.129402      47.129402      47.129402      0.80132321    -617.94267      331.73161      732.1409     
    803000   1606000        407.92241     -109.81494      6105.8891      6271.7039      4376.1653      1895.5387      1527.2535      1503.1536      2660.0305      0             -3794.899       0              0             -133.03606      103534.74      46.956462      46.956462      46.956462      0.81020962    -32.931007     -274.26958     -22.244223    
    803500   1607000        407.66259      110.60871      6462.2981      6294.8847      4373.378       1921.5067      1553.0867      1453.3962      2715.7225      0             -3800.6987      0              0             -132.71821      103782.7       46.993918      46.993918      46.993918      0.80827384    -317.96444      430.73692      219.05367    
    804000   1608000        404.63723      318.64369      6799.9619      6315.5549      4340.9221      1974.6329      1538.075       1479.0025      2754.9927      0             -3797.4373      0              0             -132.13758      104238.73      47.06265       47.06265       47.06265       0.80473774     89.952896      580.81069      285.1675     
    804500   1609000        403.33083      386.1242       6837.5289      6245.0207      4326.907       1918.1137      1490.168       1472.6173      2752.8892      0             -3797.5608      0              0             -130.90734      105218.35      47.209618      47.209618      47.209618      0.79724541    -486.71762     -139.35542      1784.4456    
    805000   1610000        414.97645      173.60156      6531.1704      6269.1408      4451.8405      1817.3003      1482.3558      1458.8449      2689.9353      0             -3813.8356      0              0             -133.08672      103495.33      46.950504      46.950504      46.950504      0.81051813     259.88322     -126.73792      387.65938    
    805500   1611000        408.25378      101.85946      6373.7765      6218.0534      4379.7201      1838.3333      1508.7242      1426.63        2708.8396      0             -3805.8605      0              0             -131.39529      104827.61      47.151107      47.151107      47.151107      0.80021711    -265.64075     -274.08312      845.30224    
    806000   1612000        404.96711     -878.64287      5054.4629      6406.2633      4344.461       2061.8022      1569.3672      1540.7058      2694.861       0             -3743.1318      0              0             -130.56633      105493.15      47.250683      47.250683      47.250683      0.79516862    -456.10261     -1066.71       -1113.116     
    806500   1613000        410.53978     -116.98397      6064.2459      6242.3852      4404.2442      1838.141       1487.1876      1451.4961      2698.3388      0             -3798.8814      0              0             -131.91615      104413.7       47.088967      47.088967      47.088967      0.80338923    -447.61874     -39.469195      136.13603    
    807000   1614000        423.85614      415.61162      6982.5775      6355.6499      4547.1013      1808.5486      1515.5912      1391.5983      2720.843       0             -3819.484       0              0             -133.16855      103431.74      46.940885      46.940885      46.940885      0.81101649    -240.50988      112.20118      1375.1436    
    807500   1615000        406.09586      749.29488      7285.2302      6155.9171      4356.5701      1799.347       1497.3468      1443.7798      2655.1205      0             -3796.9         0              0             -133.28148      103344.1       46.927623      46.927623      46.927623      0.81170424     773.49199      158.88234      1315.5103    
    808000   1616000        404.94228     -561.70574      5353.9107      6218.6774      4344.1946      1874.4828      1455.4078      1437.4914      2735.4078      0             -3753.8242      0              0             -130.47919      105563.61      47.2612        47.2612        47.2612        0.7946379     -837.95107     -1090.4885      243.32231    
    808500   1617000        408.36929      240.04568      6589.13        6219.4115      4380.9593      1838.4521      1458.9241      1461.202       2671.0639      0             -3752.7379      0              0             -130.42294      105609.14      47.267993      47.267993      47.267993      0.79429532    -644.43812      301.30743      1063.2677    
    809000   1618000        413.06499      250.0839       6663.5956      6281.5355      4431.3345      1850.2009      1468.9837      1477.1281      2691.1985      0             -3787.1093      0              0             -131.48777      104753.88      47.140049      47.140049      47.140049      0.80078033     400.49028     -356.69787      706.45929    
    809500   1619000        412.67602      500.08597      7179.9603      6403.5694      4427.1616      1976.4077      1496.2429      1424.3268      2763.9858      0             -3708.1479      0              0             -129.38847      106453.49      47.393629      47.393629      47.393629      0.78799524     33.709359      654.94577      811.60278    
    810000   1620000        419.34365      191.21533      6835.5367      6540.8925      4498.6916      2042.2009      1552.3814      1489.0728      2709.0708      0             -3708.3241      0              0             -130.36355      105657.25      47.27517       47.27517       47.27517       0.79393364     181.10799      273.99716      118.54083    
    810500   1621000        412.51548      645.62043      7393.4336      6407.4642      4425.4394      1982.0248      1529.5483      1486.2526      2733.0912      0             -3766.8672      0              0             -131.53617      104715.33      47.134267      47.134267      47.134267      0.80107507     189.16334      250.12296      1497.575     
    811000   1622000        403.22365      676.89974      7312.5415      6278.8941      4325.7573      1953.1368      1490.9646      1506.1278      2727.2446      0             -3771.2002      0              0             -131.5477       104706.15      47.13289       47.13289       47.13289       0.8011453      1020.6182      594.68577      415.39524    
    811500   1623000        407.6619       265.95746      6756.4117      6351.9223      4373.3706      1978.5518      1473.8154      1513.3512      2761.5216      0             -3770.1364      0              0             -132.07983      104284.31      47.069508      47.069508      47.069508      0.80438601     275.87058      222.78834      299.21345    
    812000   1624000        408.62405     -287.75195      5938.3574      6378.0204      4383.6924      1994.328       1521.6157      1487.8793      2753.9426      0             -3769.1096      0              0             -131.47092      104767.3       47.142063      47.142063      47.142063      0.80067772    -18.798599     -580.41944     -264.03781    
    812500   1625000        414.97471      367.99934      6937.0211      6377.3348      4451.8219      1925.5129      1487.9031      1525.1165      2696.9942      0             -3784.5009      0              0             -132.07897      104284.99      47.06961       47.06961       47.06961       0.80438082     68.743304      573.45605      461.79865    
    813000   1626000        414.62052      144.46471      6505.2569      6284.5016      4448.0222      1836.4794      1460.6104      1483.003       2669.2792      0             -3776.4133      0              0             -131.45647      104778.82      47.143791      47.143791      47.143791      0.80058968     320.02973      377.69318     -264.32878    
    813500   1627000        403.13597     -252.23857      5730.5562      6117.1201      4324.8167      1792.3035      1466.2723      1464.7069      2640.1063      0             -3778.7821      0              0             -131.07552      105083.34      47.189418      47.189418      47.189418      0.79826967     444.53603     -402.14986     -799.10188    
    814000   1628000        410.67917     -231.15924      5986.9269      6345.1653      4405.7396      1939.4257      1467.4457      1499.9719      2635.9123      0             -3663.9042      0              0             -129.61955      106263.7       47.365448      47.365448      47.365448      0.78940259    -149.28007     -706.21284      162.01519    
    814500   1629000        403.64851      295.82619      6639.1755      6184.5912      4330.3151      1854.2761      1472.5991      1462.7615      2687.381       0             -3768.4655      0              0             -130.72348      105366.33      47.231741      47.231741      47.231741      0.79612568     458.47956     -81.028813      510.02781    
    815000   1630000        418.92637     -226.09286      6177.0939      6525.2736      4494.215       2031.0586      1451.8574      1560.6712      2771.5209      0             -3752.9909      0              0             -130.44118      105594.37      47.26579       47.26579       47.26579       0.79440639    -339.08635     -44.405804     -294.78642    
    815500   1631000        416.79515     -450.50551      5673.4258      6360.9531      4471.3514      1889.6017      1462.9855      1462.5951      2770.9652      0             -3806.9441      0              0             -131.62595      104643.91      47.123548      47.123548      47.123548      0.80162186    -322.51381     -853.26918     -175.73353    
    816000   1632000        414.39101     -482.16615      5712.0046      6452.0791      4445.5599      2006.5191      1483.2213      1528.6005      2753.116       0             -3758.4188      0              0             -130.87377      105245.33      47.213654      47.213654      47.213654      0.79704098    -801.25279      50.189295     -695.43494    
    816500   1633000        406.51046     -382.23159      5672.7418      6262.6784      4361.018       1901.6604      1404.5995      1506.5698      2751.5997      0             -3761.1085      0              0             -130.15253      105828.55      47.300705      47.300705      47.300705      0.79264851    -333.48057     -383.5558      -429.65839    
    817000   1634000        415.05321      240.28647      6745.3723      6377.1799      4452.664       1924.5158      1459.8813      1471.031       2752.2907      0             -3758.6872      0              0             -131.0949       105067.81      47.187093      47.187093      47.187093      0.79838769     249.76353      21.549931      449.54595    
    817500   1635000        408.06185      989.63446      7756.0481      6245.5479      4377.6611      1867.8867      1425.9286      1469.9855      2757.2591      0             -3785.2865      0              0             -131.60894      104657.44      47.125579      47.125579      47.125579      0.80151824     543.16458      1201.8243      1223.9145    
    818000   1636000        411.82104      470.4835       7016.6539      6291.774       4417.9895      1873.7844      1414.4532      1497.5303      2705.0684      0             -3743.2675      0              0             -130.37962      105644.23      47.273228      47.273228      47.273228      0.79403148     917.8426       276.75222      216.85569    
    818500   1637000        414.96372     -97.555231      6206.0084      6355.4347      4451.704       1903.7307      1439.4386      1485.2435      2755.1597      0             -3776.1111      0              0             -131.14599      105026.88      47.180965      47.180965      47.180965      0.79869882    -827.36081      275.5278       259.16732    
    819000   1638000        402.94908      390.77504      6773.7505      6172.7854      4322.8117      1849.9737      1433.1296      1493.5201      2719.9728      0             -3796.6489      0              0             -130.61976      105450         47.244239      47.244239      47.244239      0.79549401     490.97357      745.06864     -63.717099    
    819500   1639000        411.73447     -496.83491      5529.7162      6290.9231      4417.0608      1873.8622      1444.4025      1494.3951      2701.244       0             -3766.1793      0              0             -131.1115       105054.5       47.185101      47.185101      47.185101      0.7984888     -424.09814     -54.335845     -1012.0708    
    820000   1640000        412.97363     -52.270561      6344.3228      6425.2615      4430.3544      1994.907       1441.3915      1528.4121      2704.3842      0             -3679.2807      0              0             -129.7276       106175.2       47.352295      47.352295      47.352295      0.7900606      214.14783     -361.02447     -9.9350396    
    820500   1641000        403.63258     -154.37028      6085.0739      6323.6257      4330.1443      1993.4814      1459.0216      1486.9965      2761.1872      0             -3713.7239      0              0             -129.99073      105960.28      47.320323      47.320323      47.320323      0.7916631      148.13176     -224.97633     -386.26628    
    821000   1642000        403.20593     -24.326109      6275.1861      6312.3864      4325.5671      1986.8193      1463.4582      1539.6509      2719.1948      0             -3735.4846      0              0             -131.35821      104857.2       47.155543      47.155543      47.155543      0.79999126     136.607        269.83519     -479.42052    
    821500   1643000        409.01299      1034.2259      7741.8974      6164.0339      4387.865       1776.169       1425.5112      1434.7865      2682.604       0             -3766.7327      0              0             -131.66712      104611.19      47.118636      47.118636      47.118636      0.80187259     1212.9906      1036.1303      853.55674    
    822000   1644000        413.06191     -577.9009       5426.7589      6317.9217      4431.3014      1886.6202      1444.2172      1477.6658      2707.0192      0             -3742.282       0              0             -130.26499      105737.19      47.28709       47.28709       47.28709       0.79333339    -352.43851     -462.32858     -918.93561    
    822500   1645000        411.01458      111.87264      6360.2046      6189.89        4409.3378      1780.5522      1414.5478      1412.8837      2703.6117      0             -3750.491       0              0             -131.94812      104388.4       47.085164      47.085164      47.085164      0.80358392    -345.1547       269.74636      411.02626    
    823000   1646000        416.32142      251.59319      6659.0442      6275.7595      4466.2693      1809.4901      1454.6139      1462.2213      2674.7782      0             -3782.1233      0              0             -131.85867      104459.22      47.095809      47.095809      47.095809      0.80303913    -48.839736     -213.15493      1016.7742    
    823500   1647000        413.93824      41.51609       6329.5457      6265.998       4440.7027      1825.2953      1473.5412      1465.6845      2654.1203      0             -3768.0507      0              0             -131.23433      104956.18      47.170376      47.170376      47.170376      0.79923681    -241.50013     -23.067248      389.11565    
    824000   1648000        413.21009     -313.95395      5938.5252      6422.0025      4432.8911      1989.1114      1499.761       1492.8091      2737.3135      0             -3740.7723      0              0             -130.44313      105592.79      47.265554      47.265554      47.265554      0.7944183     -996.08784      34.704276      19.5217      
    824500   1649000        417.46676     -797.59112      5206.9698      6425.4173      4478.5564      1946.8609      1473.8761      1441.7976      2813.6323      0             -3782.4451      0              0             -131.49367      104749.18      47.139345      47.139345      47.139345      0.80081623    -594.63421     -203.42183     -1594.7173    
    825000   1650000        409.68921     -299.41747      5817.309       6277.9842      4395.1194      1882.8648      1464.072       1460.6346      2732.9939      0             -3774.8358      0              0             -130.56105      105497.42      47.25132       47.25132       47.25132       0.79513644    -324.65251     -416.86896     -156.73095    
    825500   1651000        403.11026     -1000.5422      4595.0202      6135.6045      4324.5409      1811.0636      1436.8442      1451.0799      2708.7192      0             -3785.5797      0              0             -130.46118      105578.18      47.263374      47.263374      47.263374      0.79452823    -1449.1204     -1209.962      -342.54417    
    826000   1652000        408.69586      464.58365      6942.795       6234.3341      4384.4627      1849.8714      1443.8403      1495.9527      2701.7793      0             -3791.7009      0              0             -131.72839      104562.53      47.11133       47.11133       47.11133       0.80224573     1085.2406      214.13642      94.373929    
    826500   1653000        412.15211     -597.2472       5523.8863      6441.1194      4421.5412      2019.5781      1572.1652      1464.3418      2733.8055      0             -3750.7344      0              0             -130.79941      105305.17      47.2226        47.2226        47.2226        0.7965881     -594.76974     -1106.2344     -90.737488    
    827000   1654000        421.28643     -492.62518      5562.8015      6320.3763      4519.5335      1800.8428      1471.4392      1426.3129      2686.6126      0             -3783.5219      0              0             -130.62383      105446.71      47.243749      47.243749      47.243749      0.79551881    -918.61204     -98.709711     -460.55379    
    827500   1655000        408.74538     -523.74988      5440.6909      6242.2069      4384.994       1857.2129      1504.0423      1419.7802      2721.1928      0             -3787.8025      0              0             -131.26324      104933.07      47.166913      47.166913      47.166913      0.79941285    -271.26566     -1286.4826     -13.501412    
    828000   1656000        402.0719       106.35838      6312.3757      6148.6035      4313.4014      1835.2021      1438.0673      1436.2531      2709.911       0             -3749.0293      0              0             -130.45563      105582.67      47.264044      47.264044      47.264044      0.79449443     98.77836       43.365557      176.93121    
    828500   1657000        409.20048      216.573        6671.8361      6340.3281      4389.8763      1950.4518      1503.9934      1483.3938      2704.0358      0             -3740.9712      0              0             -131.23256      104957.59      47.170588      47.170588      47.170588      0.79922606     425.65484      612.91435     -388.85019    
    829000   1658000        410.21895      140.25864      6476.9277      6262.9804      4400.8024      1862.178       1435.8155      1466.4352      2742.9086      0             -3782.9812      0              0             -131.69039      104592.7       47.11586       47.11586       47.11586       0.80201432    -143.27826      257.18763      306.86655    
    829500   1659000        417.16102     -169.81123      6232.7677      6489.0044      4475.2765      2013.7279      1568.2158      1520.5989      2744.7229      0             -3819.8096      0              0             -133.124        103466.34      46.94612       46.94612       46.94612       0.81074522    -507.10842     -333.73728      331.41202    
    830000   1660000        406.79517      36.831951      6373.3784      6317.4086      4364.0723      1953.3363      1490.8659      1524.1389      2733.8964      0             -3795.5649      0              0             -132.19108      104196.55      47.0563        47.0563        47.0563        0.80506356     54.607638      354.64335     -298.75514    
    830500   1661000        410.41792      120.35513      6451.7468      6267.5096      4402.9369      1864.5727      1475.2633      1463.2452      2704.5825      0             -3778.5183      0              0             -131.22565      104963.12      47.171416      47.171416      47.171416      0.79918394    -36.369851      692.70779     -295.27256    
    831000   1662000        410.80986      510.6946       7071.7294      6282.7183      4407.1417      1875.5766      1480.8015      1449.48        2694.0356      0             -3748.7404      0              0             -130.01981      105936.58      47.316795      47.316795      47.316795      0.79184019     1507.0766     -435.16965      460.1769     
    831500   1663000        401.84762     -251.64716      5717.4684      6107.9066      4310.9953      1796.9113      1444.5948      1445.8823      2650.0135      0             -3743.5793      0              0             -129.47061      106385.95      47.383605      47.383605      47.383605      0.78849547     289.85037     -482.56068     -562.23118    
    832000   1664000        421.05632     -215.24752      6176.3483      6507.2316      4517.065       1990.1666      1488.845       1503.3848      2730.2335      0             -3732.2967      0              0             -130.67564      105404.91      47.237505      47.237505      47.237505      0.7958343     -503.42877      383.87094     -526.18473    
    832500   1665000        413.0029       181.81517      6628.299       6349.4963      4430.6684      1918.828       1462.3398      1477.9709      2741.1309      0             -3762.6136      0              0             -130.99795      105145.57      47.198731      47.198731      47.198731      0.79779724    -387.69928      707.68085      225.46395    
    833000   1666000        401.15748     -163.39406      5971.0602      6221.6184      4303.5915      1918.0269      1492.6471      1453.8756      2727.3724      0             -3755.8683      0              0             -130.99634      105146.86      47.198925      47.198925      47.198925      0.79778742    -309.72308      302.0459      -482.50499    
    833500   1667000        405.4512       1060.0868      7985.676       6351.3953      4349.6543      2001.741       1512.1186      1459.931       2755.3025      0             -3725.6111      0              0             -130.30052      105708.36      47.282792      47.282792      47.282792      0.79354977     1293.5986      392.03828      1494.6236    
    834000   1668000        420.65627     -148.43093      6150.7223      6377.7992      4512.7733      1865.0259      1472.7392      1417.4361      2723.9085      0             -3749.0579      0              0             -131.30549      104899.3       47.161854      47.161854      47.161854      0.79967017    -65.965946      400.31049     -779.63732    
    834500   1669000        412.97133     -138.85224      6066.3334      6282.5194      4430.3297      1852.1897      1460.027       1402.6359      2677.61        0             -3688.0832      0              0             -129.01989      106757.61      47.438718      47.438718      47.438718      0.78575052     165.89415     -432.53069     -149.92018    
    835000   1670000        417.55952      141.43793      6616.5217      6399.2579      4479.5515      1919.7064      1512.2179      1443.5391      2713.644       0             -3749.6947      0              0             -130.77053      105328.43      47.226077      47.226077      47.226077      0.79641218     483.73698     -441.77195      382.34876    
    835500   1671000        415.8639       392.83695      7039.4363      6434.1968      4461.3611      1972.8358      1456.1962      1504.2109      2737.6103      0             -3725.1817      0              0             -130.38166      105642.58      47.272982      47.272982      47.272982      0.79404391     618.29554      388.32778      171.88754    
    836000   1672000        406.88376      77.930118      6383.0648      6263.8589      4365.0227      1898.8362      1468.1319      1483.0769      2719.3308      0             -3771.7033      0              0             -131.32246      104885.75      47.159822      47.159822      47.159822      0.79977353     124.67816     -312.76884      421.88104    
    836500   1673000        409.40873      980.27948      7882.8926      6382.7007      4392.1104      1990.5903      1504.5183      1528.3929      2741.4712      0             -3783.7922      0              0             -131.26062      104935.16      47.167227      47.167227      47.167227      0.79939693     1272.3982      1160.2052      508.23497    
    837000   1674000        415.27016     -650.63586      5472.3817      6488.5604      4454.9914      2033.569       1537.4912      1475.5621      2739.3387      0             -3718.823       0              0             -128.61727      107091.79      47.488165      47.488165      47.488165      0.78329855    -173.36203     -738.07493     -1040.4706    
    837500   1675000        417.24203      535.64881      7127.1896      6304.7276      4476.1456      1828.582       1422.8336      1459.393       2738.8696      0             -3792.5142      0              0             -130.82647      105283.38      47.219344      47.219344      47.219344      0.79675292     1126.8985      860.38148     -380.33355    
    838000   1676000        416.46497      366.13501      6905.7345      6351.0684      4467.8093      1883.2591      1464.1192      1452.3944      2766.2163      0             -3799.4708      0              0             -132.59924      103875.81      47.007968      47.007968      47.007968      0.80754934     418.88867     -122.27421      801.79056    
    838500   1677000        412.35238      407.80428      6917.7141      6296.9595      4423.6897      1873.2699      1481.8021      1492.9503      2677.988       0             -3779.4705      0              0             -131.96636      104373.98      47.082995      47.082995      47.082995      0.803695       71.269382      474.19661      677.94684    
    839000   1678000        408.19412     -413.21033      5669.381       6303.2373      4379.0801      1924.1571      1511.2175      1492.1554      2677.5403      0             -3756.756       0              0             -130.95188      105182.56      47.204266      47.204266      47.204266      0.79751664    -105.81951     -688.30646     -445.50504    
    839500   1679000        415.94652     -598.27264      5384.0312      6300.2788      4462.2473      1838.0315      1486.6029      1455.1273      2676.0582      0             -3779.7569      0              0             -131.16491      105011.73      47.178697      47.178697      47.178697      0.79881402    -1618.4194      439.94678     -616.3453     
    840000   1680000        418.08252      243.36385      6678.8009      6307.3923      4485.1622      1822.2301      1477.4923      1460.4507      2696.3765      0             -3812.0894      0              0             -131.62412      104645.36      47.123767      47.123767      47.123767      0.8016107      36.31042       71.88161       621.89951    
    840500   1681000        411.45843      438.66037      6945.3462      6276.4929      4414.0995      1862.3934      1494.9292      1450.3995      2703.8812      0             -3786.8164      0              0             -131.74341      104550.61      47.109539      47.109539      47.109539      0.80233722    -204.66691      221.08114      1299.5669    
    841000   1682000        416.87902      348.68674      6960.9384      6430.2035      4472.2512      1957.9523      1489.7734      1602.5635      2666.0041      0             -3800.3889      0              0             -131.97422      104367.76      47.08206       47.08206       47.08206       0.80374286     445.62575      555.76269      44.671767    
    841500   1683000        405.01644     -683.08033      5216.2238      6269.8293      4344.9902      1924.839       1474.8253      1503.8918      2719.2915      0             -3773.1695      0              0             -130.23423      105762.16      47.290812      47.290812      47.290812      0.79314606    -391.87613     -969.05296     -688.31191    
    842000   1684000        411.50183      176.23382      6550.6434      6281.9681      4414.565       1867.4031      1425.2812      1519.2515      2705.963       0             -3783.0926      0              0             -131.76282      104535.21      47.107226      47.107226      47.107226      0.80245541    -1.4791496      548.21818     -18.037572    
    842500   1685000        408.36873      688.00806      7256.3375      6208.2513      4380.9534      1827.2979      1454.0777      1471.6907      2694.3586      0             -3792.8291      0              0             -131.8645       104454.6       47.095115      47.095115      47.095115      0.80307466     87.896316      1473.2966      502.83125    
    843000   1686000        407.90346     -253.01786      5901.6818      6284.3319      4375.9619      1908.37        1491.3403      1482.3931      2745.1364      0             -3810.4999      0              0             -132.82529      103699.04      46.981287      46.981287      46.981287      0.80892598     100.62449     -920.01765      60.339591    
    843500   1687000        416.30893     -303.00372      5961.7019      6428.0251      4466.1353      1961.8898      1476.9973      1508.516       2729.3547      0             -3752.9782      0              0             -130.52459      105526.89      47.25572       47.25572       47.25572       0.79491437    -634.40601     -193.53228     -81.072863    
    844000   1688000        416.20883      178.20867      6643.4918      6366.8494      4465.0615      1901.7879      1465.4897      1440.4444      2705.808       0             -3709.9542      0              0             -129.40214      106442.24      47.391961      47.391961      47.391961      0.78807849     155.29015      525.02055     -145.6847     
    844500   1689000        411.21966      141.21014      6516.0143      6299.7855      4411.538       1888.2475      1421.8853      1510.4827      2720.0917      0             -3764.2121      0              0             -131.18486      104995.76      47.176305      47.176305      47.176305      0.79893553     451.24285      842.16583     -869.77825    
    845000   1690000        400.66655      99.812866      6362.7154      6207.9405      4298.3249      1909.6156      1465.3162      1441.0499      2712.544       0             -3709.2944      0              0             -129.54404      106325.64      47.374649      47.374649      47.374649      0.78894273    -1423.9608      402.58462      1320.8148    
    845500   1691000        410.34221     -55.030381      6289.309       6374.3801      4402.1247      1972.2554      1438.7716      1514.0071      2732.2896      0             -3712.8129      0              0             -129.94264      105999.5       47.32616       47.32616       47.32616       0.7913702      76.277156     -46.943287     -194.42501    
    846000   1692000        414.26467     -388.59408      5704.7961      6298.8352      4444.2046      1854.6307      1413.5879      1457.6511      2752.7645      0             -3769.3728      0              0             -131.40518      104819.72      47.149924      47.149924      47.149924      0.80027733    -388.87101     -730.40812     -46.5031      
    846500   1693000        410.62963     -382.75632      5687.0984      6280.8715      4405.2081      1875.6633      1418.0486      1471.1029      2697.0067      0             -3710.4948      0              0             -129.48911      106370.75      47.381348      47.381348      47.381348      0.78860818     19.056514     -387.39876     -779.92672    
    847000   1694000        406.12098     -22.003227      6166.0828      6199.9716      4356.8396      1843.132       1433.4064      1449.8148      2693.4414      0             -3733.5305      0              0             -130.4249       105607.55      47.267756      47.267756      47.267756      0.79430727    -552.96624      165.49306      321.46351    
    847500   1695000        415.90835      171.19628      6683.1353      6416.4429      4461.8379      1954.6051      1463.147       1502.9324      2732.4922      0             -3743.9664      0              0             -128.94816      106816.98      47.447511      47.447511      47.447511      0.78531372     56.157735     -26.217569      483.64867    
    848000   1696000        408.03255      306.54543      6842.9352      6371.5262      4377.3468      1994.1794      1476.7299      1520.0337      2725.5222      0             -3728.1065      0              0             -130.62562      105445.27      47.243534      47.243534      47.243534      0.79552967     1017.82        297.16151     -395.3452     
    848500   1697000        418.17792     -52.785632      6392.0816      6473.6245      4486.1857      1987.4388      1521.0793      1473.0215      2710.8891      0             -3717.551       0              0             -130.03521      105924.03      47.314926      47.314926      47.314926      0.79193402    -523.83117      14.253363      351.22091    
    849000   1698000        407.02879     -561.76814      5408.4717      6268.0534      4366.5786      1901.4748      1434.7325      1499.6034      2720.134       0             -3752.995       0              0             -131.28082      104919.01      47.164807      47.164807      47.164807      0.79951995    -183.55424     -394.90118     -1106.849     
    849500   1699000        407.69164      502.85533      7142.7672      6369.8364      4373.6896      1996.1468      1501.8977      1531.7822      2718.0446      0             -3755.5777      0              0             -130.68742      105395.41      47.236085      47.236085      47.236085      0.79590607    -438.20231      480.62829      1466.14      
    850000   1700000        410.3324      -545.13278      5430.2344      6269.123       4402.0194      1867.1035      1465.1131      1475.9312      2677.1812      0             -3751.122       0              0             -130.53573      105517.88      47.254375      47.254375      47.254375      0.79498226    -882.92469     -1285.3247      532.85105    
    850500   1701000        416.35657      591.68187      7392.3856      6476.2773      4466.6463      2009.631       1476.6708      1477.1512      2811.7588      0             -3755.9497      0              0             -129.73968      106165.31      47.350825      47.350825      47.350825      0.79013419     1233.2687      565.7058      -23.928947    
    851000   1702000        399.28288      34.386157      6277.915       6224.365       4283.481       1940.884       1400.368       1485.7582      2727.4084      0             -3672.6505      0              0             -128.98979      106782.51      47.442406      47.442406      47.442406      0.78556725    -548.31897     -312.84292      964.32035    
    851500   1703000        403.25252     -706.66531      5232.3066      6305.2937      4326.0669      1979.2268      1459.4002      1535.669       2756.4516      0             -3772.2941      0              0             -132.2972       104112.97      47.043715      47.043715      47.043715      0.80570985    -714.71141     -785.3563      -619.92822    
    852000   1704000        403.78994      68.770083      6316.886       6211.3275      4331.8324      1879.4951      1431.5613      1498.659       2704.4673      0             -3755.1925      0              0             -130.86928      105248.95      47.214195      47.214195      47.214195      0.7970136      199.44781     -99.535788      106.39823    
    852500   1705000        411.40596      298.89038      6855.6713      6394.0132      4413.5366      1980.4766      1486.124       1495.9831      2699.4347      0             -3701.0653      0              0             -130.05374      105908.94      47.312679      47.312679      47.312679      0.79204685    -591.6115       703.85129      784.43136    
    853000   1706000        412.53661      345.78285      7069.011       6536.54        4425.6661      2110.8739      1527.1177      1529.5284      2783.4402      0             -3729.2123      0              0             -130.44843      105588.5       47.264914      47.264914      47.264914      0.79445058     1069.3364      606.25652     -638.24433    
    853500   1707000        412.07629      684.41744      7432.7581      6384.4228      4420.7278      1963.695       1447.7473      1543.7358      2714.4892      0             -3742.2773      0              0             -131.14515      105027.55      47.181066      47.181066      47.181066      0.7986937      1035.1738      1327.5604     -309.48187    
    854000   1708000        411.60622      227.33845      6693.1692      6346.6777      4415.6849      1930.9928      1423.6445      1532.6473      2752.043       0             -3777.342       0              0             -131.79886      104506.62      47.102931      47.102931      47.102931      0.80267492    -178.16012      814.61423      45.561246    
    854500   1709000        410.9729      -808.55287      4975.6568      6214.9732      4408.8908      1806.0824      1422.481       1550.9164      2649.4836      0             -3816.7987      0              0             -131.05621      105098.82      47.191736      47.191736      47.191736      0.79815206    -417.25341     -849.33036     -1159.0748    
    855000   1710000        412.89348     -171.96232      6037.0305      6299.4033      4429.4945      1869.9087      1500.3093      1481.8436      2698.1537      0             -3810.3979      0              0             -131.65758      104618.77      47.119774      47.119774      47.119774      0.80181448    -485.67909     -353.1063       322.89844    
    855500   1711000        415.04624      260.6912       6624.8274      6227.9351      4452.5892      1775.3458      1428.12        1447.6819      2716.0975      0             -3816.5535      0              0             -131.9426       104392.77      47.085821      47.085821      47.085821      0.80355029     252.95827      575.15609     -46.040751    
    856000   1712000        416.85257      123.7457       6591.7647      6401.2023      4471.9674      1929.2349      1456.1998      1498.6475      2698.5929      0             -3724.2052      0              0             -130.44405      105592.05      47.265443      47.265443      47.265443      0.79442388     393.44065      139.71452     -161.91808    
    856500   1713000        406.3922      -38.260908      6211.2888      6270.5242      4359.7492      1910.775       1431.8169      1442.9576      2744.017       0             -3708.0166      0              0             -129.7493       106157.45      47.349655      47.349655      47.349655      0.79019275    -233.20187     -160.26004      278.67919    
    857000   1714000        410.55599     -227.8782       5890.7164      6239.2417      4404.4181      1834.8237      1478.8959      1443.3672      2678.4414      0             -3765.8808      0              0             -131.34084      104871.07      47.157622      47.157622      47.157622      0.79988547    -15.331883     -525.22869     -143.07401    
    857500   1715000        406.04328     -218.62703      5908.9492      6246.3548      4356.0061      1890.3487      1477.3293      1432.6049      2697.4224      0             -3717.0078      0              0             -130.16162      105821.17      47.299605      47.299605      47.299605      0.79270383    -422.90785      217.89827     -450.8715     
    858000   1716000        410.96169     -194.18117      5897.5337      6192.9318      4408.7704      1784.1614      1434.297       1459.7025      2733.1672      0             -3843.0053      0              0             -132.04769      104309.7       47.073327      47.073327      47.073327      0.80419028    -485.48965     -602.74526      505.69141    
    858500   1717000        408.48648      596.77962      7156.5586      6233.5046      4382.2165      1851.2881      1423.5696      1430.5028      2721.6258      0             -3724.41        0              0             -129.87281      106056.49      47.33464       47.33464       47.33464       0.79094495     472.8851       616.78662      700.66714    
    859000   1718000        413.21229      40.143214      6437.5485      6376.5509      4432.9148      1943.6361      1460.193       1492.3064      2762.3183      0             -3771.1816      0              0             -132.19978      104189.69      47.055268      47.055268      47.055268      0.80511653     156.508        244.91638     -280.99473    
    859500   1719000        404.17912     -554.94963      5406.7111      6257.5997      4336.0075      1921.5922      1426.9735      1509.9599      2745.5867      0             -3760.9279      0              0             -131.01236      105134.01      47.197001      47.197001      47.197001      0.79788497    -318.23999     -691.84399     -654.76492    
    860000   1720000        414.09152     -98.529587      6178.8323      6329.3966      4442.3471      1887.0495      1462.8713      1461.1074      2693.4259      0             -3730.3551      0              0             -131.45474      104780.2       47.143998      47.143998      47.143998      0.80057914    -757.63607     -213.01981      675.06712    
    860500   1721000        405.95775     -335.62043      5740.1049      6257.8841      4355.0886      1902.7956      1465.3805      1464.6482      2705.7706      0             -3733.0037      0              0             -130.20723      105784.09      47.294081      47.294081      47.294081      0.79298165    -366.52163      585.85901     -1226.1987    
    861000   1722000        420.35898      414.44714      6957.1258      6320.129       4509.584       1810.545       1438.6546      1452.5015      2692.666       0             -3773.2771      0              0             -130.69631      105388.24      47.235015      47.235015      47.235015      0.79596017     782.58981     -26.936437      487.68805    
    861500   1723000        417.19694     -530.62447      5483.1965      6295.3399      4475.6618      1819.6781      1467.6515      1456.3578      2722.5431      0             -3826.8743      0              0             -131.24596      104946.88      47.168982      47.168982      47.168982      0.79930766    -1322.417      -125.1621      -144.29434    
    862000   1724000        410.40963     -243.97257      5839.5237      6217.2079      4402.848       1814.3599      1450.6999      1461.745       2639.4894      0             -3737.5744      0              0             -129.76082      106148.02      47.348254      47.348254      47.348254      0.79026289    -172.9872       118.43989     -677.37041    
    862500   1725000        406.96364      549.04031      7162.0102      6315.5549      4365.8796      1949.6753      1493.7469      1491.9266      2701.1552      0             -3737.1533      0              0             -130.29614      105711.91      47.283321      47.283321      47.283321      0.79352312     1196.7983     -30.817878      481.14045    
    863000   1726000        409.85772     -170.8073       5984.4228      6247.0074      4396.9271      1850.0803      1427.7959      1460.6574      2695.9037      0             -3734.2766      0              0             -130.66779      105411.24      47.23845       47.23845       47.23845       0.79578651    -71.230096      56.373651     -497.56546    
    863500   1727000        425.38948      140.82321      6636.5619      6420.0706      4563.5508      1856.5198      1438.354       1421.7915      2754.9222      0             -3758.5479      0              0             -130.66678      105412.06      47.238573      47.238573      47.238573      0.79578033     243.62114      145.61559      33.232911    
    864000   1728000        404.7096       33.520994      6421.0358      6369.1988      4341.6984      2027.5004      1505.3496      1576.5997      2668.238       0             -3722.6869      0              0             -129.89977      106034.47      47.331365      47.331365      47.331365      0.79110916    -3.6537093     -517.51489      621.73158    
    864500   1729000        412.9517       24.295756      6284.0967      6247           4430.1191      1816.8809      1442.5772      1430.6965      2721.1568      0             -3777.5496      0              0             -131.56077      104695.75      47.131329      47.131329      47.131329      0.80122491     697.09444      288.05593     -912.2631     
    865000   1730000        420.835       -760.21737      5213.0886      6377.8518      4514.6906      1863.1611      1443.775       1467.2231      2714.9102      0             -3762.7471      0              0             -131.1087       105056.75      47.185438      47.185438      47.185438      0.79847171    -682.74754     -1193.1034     -404.80115    
    865500   1731000        412.40558     -218.57765      6010.7492      6344.8963      4424.2604      1920.6359      1466.2584      1479.7873      2732.5305      0             -3757.9403      0              0             -131.40125      104822.85      47.150394      47.150394      47.150394      0.80025338    -387.0073      -187.33571     -81.389931    
    866000   1732000        409.96471      150.47367      6428.4896      6199.7724      4398.075       1801.6975      1437.269       1479.4155      2676.8509      0             -3791.8379      0              0             -132.15792      104222.69      47.060235      47.060235      47.060235      0.80486164    -58.482095     -66.198897      576.10201    
    866500   1733000        401.38305     -397.1683       5553.0508      6159.9599      4306.0114      1853.9484      1486.5188      1440.4711      2713.015       0             -3786.0565      0              0             -131.45658      104778.73      47.143778      47.143778      47.143778      0.80059036    -221.96843     -1276.035       306.4985     
    867000   1734000        406.71385     -281.82813      5902.0975      6334.7674      4363.1999      1971.5675      1475.0754      1500.7623      2725.859       0             -3730.1293      0              0             -130.84556      105268.03      47.217048      47.217048      47.217048      0.79686914     60.565743     -161.97969     -744.07043    
    867500   1735000        402.47708     -515.80366      5406.3416      6189.0925      4317.7481      1871.3445      1485.9814      1437.7625      2737.1527      0             -3789.5522      0              0             -132.3708       104055.08      47.034994      47.034994      47.034994      0.80615807    -742.89651     -425.63127     -378.88319    
    868000   1736000        406.76347     -124.68551      6028.4999      6219.2348      4363.7322      1855.5025      1462.9339      1443.1278      2712.9147      0             -3763.4739      0              0             -131.31589      104890.99      47.160608      47.160608      47.160608      0.79973355    -534.12539     -212.93155      373.00041    
    868500   1737000        407.28173      263.85766      6642.9007      6240.3775      4369.292       1871.0855      1471.5645      1419.1434      2763.7311      0             -3783.3535      0              0             -131.67706      104603.29      47.117451      47.117451      47.117451      0.80193309     311.94099     -171.37021      651.00221    
    869000   1738000        409.62508      130.48947      6610.8144      6408.4376      4394.4314      2014.0062      1477.1564      1512.8459      2747.4378      0             -3723.4339      0              0             -129.52275      106343.13      47.377246      47.377246      47.377246      0.78881303    -0.61547288     20.152717      371.93117    
    869500   1739000        402.70312      910.87055      7661.299       6259.9827      4320.1731      1939.8096      1492.7136      1470.6067      2708.2028      0             -3731.7135      0              0             -130.57254      105488.14      47.249934      47.249934      47.249934      0.79520642     865.78854      1456.3964      410.42674    
    870000   1740000        403.02969      319.80929      6753.9316      6265.113       4323.6765      1941.4366      1548.8248      1442.1594      2712.6172      0             -3762.1648      0              0             -131.42402      104804.7       47.147671      47.147671      47.147671      0.80039203     281.48448     -240.67172      918.61512    
    870500   1741000        409.27747     -711.16998      5287.487       6374.1445      4390.7023      1983.4422      1505.3903      1466.9513      2776.4476      0             -3765.347       0              0             -131.46559      104771.55      47.142701      47.142701      47.142701      0.80064524    -601.49087     -871.50887     -660.51018    
    871000   1742000        402.73714      19.255967      6248.3346      6218.6711      4320.538       1898.1331      1447.3938      1448.4928      2709.6658      0             -3707.4194      0              0             -130.39886      105628.64      47.270903      47.270903      47.270903      0.79414866     386.08268     -162.37205     -165.94273    
    871500   1743000        406.99163      78.370628      6386.0856      6266.0134      4366.1799      1899.8335      1503.6089      1497.4338      2624.353       0             -3725.5623      0              0             -131.11188      105054.2       47.185056      47.185056      47.185056      0.79849108    -537.92816      312.76144      460.2786     
    872000   1744000        411.21701     -439.45445      5697.4621      6362.8134      4411.5095      1951.3039      1474.2164      1548.0641      2726.3121      0             -3797.2887      0              0             -132.67656      103815.28      46.998834      46.998834      46.998834      0.80802024    -651.74702     -451.89946     -214.71686    
    872500   1745000        403.24576     -167.99378      6052.5507      6312.5333      4325.9945      1986.5388      1485.2167      1508.5811      2720.6237      0             -3727.8826      0              0             -129.80169      106114.6       47.343284      47.343284      47.343284      0.79051181    -207.03219     -180.29662     -116.65253    
    873000   1746000        412.33679      202.42795      6658.5415      6347.8654      4423.5225      1924.3429      1459.3972      1511.1845      2697.5017      0             -3743.7404      0              0             -130.88626      105235.29      47.212153      47.212153      47.212153      0.79711701     175.41226      616.32322     -184.45163    
    873500   1747000        416.70983     -76.096723      6290.3597      6408.7452      4470.4361      1938.3091      1458.0426      1478.0827      2720.6416      0             -3718.4578      0              0             -129.12163      106673.48      47.426254      47.426254      47.426254      0.78637018    -36.027994      18.769924     -211.0321     
    874000   1748000        406.35632      150.91333      6399.2251      6167.857       4359.3644      1808.4926      1399.9686      1482.7324      2656.5889      0             -3730.7973      0              0             -131.02537      105123.57      47.195439      47.195439      47.195439      0.79796419    -652.66488      543.2429       562.16196    
    874500   1749000        415.45302     -273.57792      5907.6974      6329.2744      4456.9532      1872.3213      1439.8933      1484.4265      2649.8933      0             -3701.8919      0              0             -130.35733      105662.29      47.275922      47.275922      47.275922      0.79389575     225.92712     -1015.0379     -31.622991    
    875000   1750000        418.36517      180.14506      6765.3121      6487.1648      4488.1945      1998.9703      1468.1406      1491.3405      2767.5446      0             -3728.0554      0              0             -130.10049      105870.88      47.307011      47.307011      47.307011      0.79233158     695.67829     -491.75111      336.50799    
    875500   1751000        413.26728     -189.44401      5951.1262      6244.5315      4433.5047      1811.0268      1421.1391      1436.0962      2662.6001      0             -3708.8086      0              0             -129.70126      106196.77      47.355501      47.355501      47.355501      0.78990017     155.26285      48.136377     -771.73126    
    876000   1752000        401.0947       541.08709      6993.219       6163.0465      4302.918       1860.1285      1429.054       1485.4979      2690.3579      0             -3744.7813      0              0             -130.92729      105202.32      47.207221      47.207221      47.207221      0.79736689     933.42645      453.40033      236.43448    
    876500   1753000        403.39203      837.57918      7618.2662      6325.2796      4327.5636      1997.716       1491.1402      1460.8168      2777.0333      0             -3731.2742      0              0             -130.12574      105850.34      47.303951      47.303951      47.303951      0.79248536     384.73271      1473.6181      654.38675    
    877000   1754000        423.39494     -559.43463      5560.5732      6421.1521      4542.1536      1878.9985      1496.1465      1452.9997      2676.2305      0             -3746.3781      0              0             -130.58401      105478.87      47.248551      47.248551      47.248551      0.79527628    -376.09011     -689.83247     -612.3813     
    877500   1755000        414.84958      69.006837      6480.1741      6375.0129      4450.4795      1924.5334      1485.4575      1462.5976      2749.2875      0             -3772.8092      0              0             -131.81598      104493.05      47.100892      47.100892      47.100892      0.80277918     114.11931      64.513892      28.387311    
    878000   1756000        405.87993      67.632326      6211.1943      6108.3999      4354.2536      1754.1463      1460.9201      1445.1736      2646.0185      0             -3797.9659      0              0             -132.16494      104217.15      47.059402      47.059402      47.059402      0.80490438     212.20203     -224.17387      214.86882    
    878500   1757000        410.95056      102.55274      6643.2474      6485.033       4408.6511      2076.3819      1546.1065      1492.4119      2766.3257      0             -3728.4622      0              0             -130.2065       105784.69      47.294169      47.294169      47.294169      0.7929772      313.88391     -185.78268      179.55699    
    879000   1758000        413.25781     -295.56367      5877.7454      6330.7051      4433.4031      1897.302       1452.0209      1517.4046      2675.6097      0             -3747.7332      0              0             -131.07592      105083.03      47.189371      47.189371      47.189371      0.79827205    -884.10138      391.88183     -394.47145    
    879500   1759000        401.59026     -69.654337      6019.5176      6125.3981      4308.2343      1817.1638      1487.7118      1469.9563      2689.0992      0             -3829.6035      0              0             -132.14893      104229.78      47.061302      47.061302      47.061302      0.80480686    -478.92729     -32.619898      302.58418    
    880000   1760000        411.63579      310.71606      6824.7445      6350.3935      4416.0021      1934.3914      1467.7353      1510.9122      2735.7369      0             -3779.9931      0              0             -131.58162      104679.16      47.12884       47.12884       47.12884       0.80135187     359.49729      532.44236      40.208521    
    880500   1761000        407.25263     -39.135273      6153.3071      6212.1948      4368.9799      1843.2149      1440.3231      1508.5024      2726.8851      0             -3832.4958      0              0             -133.49798      103176.5       46.902241      46.902241      46.902241      0.81302279    -34.140237      188.13453     -271.40011    
    881000   1762000        418.36044     -810.86062      5147.7966      6391.1568      4488.1437      1903.0131      1451.1984      1441.7373      2793.2533      0             -3783.1759      0              0             -131.00281      105141.67      47.198148      47.198148      47.198148      0.79782682    -1378.6814     -635.23287     -418.66763    
    881500   1763000        400.37748      9.6445138      6274.7482      6260.022       4295.2237      1964.7983      1502.8711      1485.6885      2765.2766      0             -3789.0379      0              0             -131.55923      104696.98      47.131514      47.131514      47.131514      0.80121549    -538.7646       370.83527      196.86288    
    882000   1764000        406.23831      646.52374      7300.0066      6315.5392      4358.0984      1957.4408      1497.9893      1491.5432      2737.6537      0             -3769.7455      0              0             -131.92117      104409.74      47.088371      47.088371      47.088371      0.80341975     1108.7967      635.85937      194.9151     
    882500   1765000        407.0657      -235.78775      5923.0274      6285.929       4366.9745      1918.9545      1459.4941      1475.1413      2721.1346      0             -3736.8154      0              0             -130.51599      105533.84      47.256757      47.256757      47.256757      0.79486202     354.81232     -314.25051     -747.92505    
    883000   1766000        418.28693      69.585385      6625.8854      6517.8009      4487.3551      2030.4458      1502.7509      1457.7568      2769.6356      0             -3699.6975      0              0             -129.3261       106504.83      47.401247      47.401247      47.401247      0.78761541     700.18084     -824.20748      332.7828     
    883500   1767000        423.98129      475.13226      7203.5016      6476.5023      4548.4439      1928.0584      1526.6883      1501.2985      2646.408       0             -3746.3364      0              0             -131.28402      104916.45      47.164424      47.164424      47.164424      0.79953946     1040.9346      167.75711      216.70506    
    884000   1768000        399.40799     -304.18199      5923.4847      6392.5487      4284.8231      2107.7255      1540.1842      1512.5273      2768.5628      0             -3713.5489      0              0             -130.26652      105735.95      47.286905      47.286905      47.286905      0.79334269    -152.13864      113.56257     -873.9699     
    884500   1769000        412.1075       92.745779      6486.5158      6343.2938      4421.0626      1922.2312      1489.2679      1436.8507      2686.3616      0             -3690.2491      0              0             -130.08159      105886.27      47.309303      47.309303      47.309303      0.79221646     539.61098     -378.91089      117.53724    
    885000   1770000        406.55664      804.27103      7617.0168      6377.9355      4361.5134      2016.4222      1479.5838      1495.3047      2778.4405      0             -3736.9068      0              0             -130.38692      105638.31      47.272346      47.272346      47.272346      0.79407594     740.72632      1297.1003      374.98646    
    885500   1771000        412.61037     -320.68091      5824.5125      6316.8106      4426.4574      1890.3532      1534.3652      1455.787       2650.1932      0             -3749.9922      0              0             -130.85078      105263.83      47.21642       47.21642       47.21642       0.79690095     1055.3446     -1673.6443     -343.74301    
    886000   1772000        408.3079      -543.10965      5592.1892      6436.1771      4380.3007      2055.8763      1530.5998      1561.8541      2677.1162      0             -3713.6938      0              0             -129.26552      106554.74      47.40865       47.40865       47.40865       0.78724647    -492.10713     -1134.5451     -2.6767824    
    886500   1773000        420.23545     -144.06547      6207.8504      6431.8671      4508.2588      1923.6083      1499.1638      1484.4619      2626.7045      0             -3686.7219      0              0             -129.18463      106621.46      47.418543      47.418543      47.418543      0.78675384    -176.11425     -141.21998     -114.86218    
    887000   1774000        410.19889      397.09242      6946.6097      6334.5466      4400.5872      1933.9594      1519.652       1447.7109      2703.9916      0             -3737.3951      0              0             -130.3247       105688.74      47.279867      47.279867      47.279867      0.79369706     605.58379      608.14212     -22.448641    
    887500   1775000        411.8973      -465.76537      5627.0934      6352.7597      4418.8076      1933.9521      1515.1201      1476.8927      2684.5534      0             -3742.6141      0              0             -128.93227      106830.15      47.44946       47.44946       47.44946       0.78521694    -606.85863     -71.605627     -718.83185    
    888000   1776000        412.6079       210.79722      6720.4134      6395.6876      4426.4309      1969.2567      1476.4421      1488.9553      2727.9586      0             -3724.0993      0              0             -130.40057      105627.26      47.270696      47.270696      47.270696      0.79415907     513.37316     -50.803324      169.82182    
    888500   1777000        406.67648     -48.889916      6231.0419      6306.3805      4362.799       1943.5816      1471.9212      1496.0189      2723.8439      0             -3748.2024      0              0             -130.35661      105662.88      47.276009      47.276009      47.276009      0.79389135    -593.55879      876.2085      -429.31946    
    889000   1778000        399.75177      827.24009      7570.6206      6299.8952      4288.5112      2011.3841      1543.0984      1520.2758      2698.8094      0             -3750.7996      0              0             -130.77094      105328.1       47.226027      47.226027      47.226027      0.79641468     1371.3732      462.67094      647.6761     
    889500   1779000        421.93529      357.02967      6866.6243      6323.9255      4526.4945      1797.431       1498.3885      1428.4588      2677.9538      0             -3807.3701      0              0             -132.15294      104226.62      47.060826      47.060826      47.060826      0.8048313      614.655        429.9292       26.504798    
    890000   1780000        406.58182      115.09775      6511.534       6336.2034      4361.7835      1974.4199      1513.909       1523.6595      2732.7514      0             -3795.9         0              0             -131.86834      104451.56      47.094657      47.094657      47.094657      0.80309806    -898.50163      1285.0665     -41.271662    
    890500   1781000        403.89107     -285.96446      5867.6294      6304.9901      4332.9173      1972.0728      1494.5685      1498.2493      2721.6902      0             -3742.4352      0              0             -131.34201      104870.13      47.157482      47.157482      47.157482      0.79989259    -749.82516      100.8998      -208.96801    
    891000   1782000        403.82615      61.01749       6368.5887      6275.4942      4332.2209      1943.2733      1479.5313      1521.4449      2725.059       0             -3782.762       0              0             -131.66236      104614.97      47.119204      47.119204      47.119204      0.80184357     325.42904     -246.36557      103.98899    
    891500   1783000        418.38318      257.37015      6805.1145      6412.604       4488.3877      1924.2163      1538.3334      1479.7556      2684.8915      0             -3778.7643      0              0             -131.71593      104572.43      47.112816      47.112816      47.112816      0.80216982     797.23479      232.74533     -257.86967    
    892000   1784000        412.43941      83.910754      6420.5198      6291.8127      4424.6233      1867.1893      1494.7531      1466.5274      2670.6898      0             -3764.7809      0              0             -130.96229      105174.2       47.203015      47.203015      47.203015      0.79758003    -213.52987     -463.54115      928.80329    
    892500   1785000        403.92631     -981.44874      4724.5878      6236.5469      4333.2953      1903.2516      1522.7983      1439.1726      2703.9611      0             -3762.6804      0              0             -130.39441      105632.25      47.271441      47.271441      47.271441      0.79412156    -770.10902     -926.97848     -1247.2587    
    893000   1786000        406.13515      801.84343      7384.8576      6161.7258      4356.9917      1804.7342      1469.2668      1454.9498      2677.7197      0             -3797.2021      0              0             -131.68845      104594.24      47.116092      47.116092      47.116092      0.80200249     482.11097      1393.0919      530.3274     
    893500   1787000        403.38279     -690.11315      5091.6601      6150.9214      4327.4646      1823.4569      1465.6714      1420.6791      2682.7764      0             -3745.6701      0              0             -130.87254      105246.32      47.213802      47.213802      47.213802      0.79703348     112.6081      -1263.1384     -919.80919    
    894000   1788000        418.95403     -837.49841      5166.708       6454.3058      4494.5117      1959.7941      1504.9257      1472.4808      2742.2905      0             -3759.903       0              0             -130.65774      105419.35      47.239662      47.239662      47.239662      0.7957253     -619.63901     -1625.2291     -267.62713    
    894500   1789000        417.45874      17.771774      6369.5581      6342.7031      4478.4703      1864.2327      1497.4337      1462.1399      2736.4583      0             -3831.7991      0              0             -132.93396      103614.26      46.96848       46.96848       46.96848       0.80958784     156.5241       151.88029     -255.08907    
    895000   1790000        403.36384      61.830553      6358.6698      6263.9259      4327.2612      1936.6647      1493.2297      1489.6601      2737.6713      0             -3783.8965      0              0             -131.09407      105068.47      47.187192      47.187192      47.187192      0.79838264     127.31528     -678.16435      736.34073    
    895500   1791000        404.56036     -116.73297      5950.9355      6128.2301      4340.0974      1788.1327      1498.4317      1400.449       2700.2062      0             -3810.9543      0              0             -132.26027      104142.04      47.048092      47.048092      47.048092      0.80548497     335.97847     -771.11711      84.939724    
    896000   1792000        409.21581      462.0613       6979.1222      6275.8004      4390.0408      1885.7596      1508.2077      1475.5564      2685.7464      0             -3783.751       0              0             -131.97052      104370.69      47.082501      47.082501      47.082501      0.8037203      189.91943     -72.762751      1269.0272    
    896500   1793000        407.26722     -64.178548      6054.3206      6151.4668      4369.1365      1782.3303      1484.2792      1431.9054      2686.7559      0             -3820.6101      0              0             -132.70748      103791.09      46.995185      46.995185      46.995185      0.8082085      427.81782     -374.13988     -246.21359    
    897000   1794000        411.78846      23.907173      6301.3469      6264.9179      4417.64        1847.2779      1524.8135      1496.7591      2608.9924      0             -3783.2871      0              0             -131.82948      104482.35      47.099285      47.099285      47.099285      0.80286137     619.67295      250.67163     -798.62306    
    897500   1795000        408.85093     -436.27108      5690.1923      6359.0499      4386.1263      1972.9236      1502.2752      1509.5147      2708.4623      0             -3747.3285      0              0             -131.02497      105123.88      47.195486      47.195486      47.195486      0.7979618     -445.96798     -459.06313     -403.78214    
    898000   1796000        424.86143      577.90094      7192.3369      6292.6956      4557.886       1734.8097      1448.5775      1392.8559      2625.8068      0             -3732.4305      0              0             -129.03733      106743.17      47.436579      47.436579      47.436579      0.78585678     685.39319      105.98813      942.32149    
    898500   1797000        417.99499      193.85052      6659.7946      6361.1714      4484.2232      1876.9482      1527.1028      1423.0735      2694.9923      0             -3768.2204      0              0             -130.39914      105628.41      47.270869      47.270869      47.270869      0.79415036    -64.422348      45.944039      600.02988    
    899000   1798000        410.18781     -183.35099      6032.2956      6313.8802      4400.4683      1913.4119      1523.9691      1509.1803      2649.103       0             -3768.8405      0              0             -130.79936      105305.21      47.222607      47.222607      47.222607      0.79658776     473.7884      -364.16892     -659.67246    
    899500   1799000        410.13485     -353.94421      5792.7085      6336.0669      4399.9002      1936.1667      1504.0659      1461.3806      2698.3517      0             -3727.6315      0              0             -130.85182      105262.99      47.216295      47.216295      47.216295      0.79690728    -470.27082     -406.9304      -184.6314     
    900000   1800000        393.07921     -156.04463      5861.0116      6101.4873      4216.9283      1884.559       1461.9586      1434.9997      2707.7697      0             -3720.169       0              0             -130.34937      105668.74      47.276884      47.276884      47.276884      0.79384728    -139.79569      212.93647     -541.27466    
    900500   1801000        408.28203     -605.96005      5371.5682      6290.3765      4380.0232      1910.3533      1514.7805      1499.0579      2703.4192      0             -3806.9043      0              0             -132.48003      103969.29      47.022064      47.022064      47.022064      0.80682331    -815.39783     -277.09951     -725.38281    
    901000   1802000        409.09313      331.96396      6687.6938      6182.8942      4388.7246      1794.1696      1479.9877      1434.6457      2682.6348      0             -3803.0986      0              0             -132.10015      104268.27      47.067094      47.067094      47.067094      0.80450978    -149.92804      297.75402      848.06591    
    901500   1803000        412.61254     -422.32855      5834.7249      6488.0743      4426.4806      2061.5936      1596.4647      1515.0905      2682.0854      0             -3732.047       0              0             -129.84831      106076.5       47.337617      47.337617      47.337617      0.79079576    -219.79147     -240.50505     -806.68914    
    902000   1804000        409.20115      155.71249      6479.7506      6241.1327      4389.8835      1851.2492      1515.7697      1417.8102      2670.8655      0             -3753.1962      0              0             -131.08463      105076.04      47.188325      47.188325      47.188325      0.79832514     187.41026      133.66247      146.06473    
    902500   1805000        405.38905      295.46071      6740.8612      6287.418       4348.9876      1938.4304      1498.3975      1511.75        2720.2533      0             -3791.9704      0              0             -130.89052      105231.87      47.211641      47.211641      47.211641      0.79714296     122.93629     -213.95823      977.40408    
    903000   1806000        416.7506      -56.534614      6207.3565      6293.4348      4470.8735      1822.5613      1500.1525      1456.9157      2667.3226      0             -3801.8295      0              0             -131.93262      104400.67      47.087008      47.087008      47.087008      0.80348953    -785.58124      186.28394      429.69346    
    903500   1807000        409.10636     -547.17882      5598.6608      6437.8206      4388.8666      2048.954       1502.7765      1563.4428      2747.757       0             -3765.0224      0              0             -130.98332      105157.31      47.200489      47.200489      47.200489      0.79770812    -211.3249      -1257.5777     -172.63383    
    904000   1808000        410.41647     -212.71238      5924.9382      6251.4284      4402.9213      1848.5071      1489.3578      1476.6509      2636.2668      0             -3753.7684      0              0             -130.87415      105245.03      47.213609      47.213609      47.213609      0.79704329    -346.68521     -571.96654      280.51459    
    904500   1809000        418.28738      174.71736      6585.7094      6315.8299      4487.36        1828.47        1464.9576      1461.2262      2621.6066      0             -3719.3204      0              0             -130.04617      105915.11      47.313597      47.313597      47.313597      0.79200076    -564.58236      1355.9338     -267.19941    
    905000   1810000        414.99068     -362.56785      5783.9927      6340.7899      4451.9932      1888.7967      1480.2212      1455.3006      2700.4932      0             -3747.2182      0              0             -130.8048       105300.83      47.221952      47.221952      47.221952      0.79662092     121.3388      -758.55001     -450.49233    
    905500   1811000        413.79073      223.28423      6697.1906      6357.1231      4439.1202      1918.0029      1501.1811      1478.3398      2707.8105      0             -3769.3286      0              0             -131.89377      104431.42      47.091631      47.091631      47.091631      0.80325291     145.79134      163.0572       361.00415    
    906000   1812000        412.34622      274.30735      6580.6626      6159.5688      4423.6236      1735.9451      1468.6338      1412.9436      2637.7055      0             -3783.3377      0              0             -130.85488      105260.53      47.215926      47.215926      47.215926      0.79692594    -219.56203      750.19324      292.29084    
    906500   1813000        410.58098     -478.28587      5717.1731      6452.8728      4404.6863      2048.1866      1477.3601      1529.8556      2749.677       0             -3708.706       0              0             -130.59253      105471.99      47.247523      47.247523      47.247523      0.79532816    -1225.4288     -281.3719       71.943055    
    907000   1814000        411.67467      32.042884      6341.0046      6291.7909      4416.4193      1875.3716      1434.5503      1493.0715      2690.1765      0             -3742.4267      0              0             -130.79063      105312.24      47.223657      47.223657      47.223657      0.7965346      902.63193     -582.35736     -224.14591    
    907500   1815000        421.85231     -801.01413      5154.6741      6395.7882      4525.6043      1870.184       1503.2649      1385.8556      2705.8994      0             -3724.836       0              0             -129.64621      106241.86      47.362202      47.362202      47.362202      0.78956492    -741.63623     -1056.0351     -605.37109    
    908000   1816000        410.01238     -542.20574      5454.2471      6293.9084      4398.5863      1895.3221      1503.0156      1423.5014      2683.7045      0             -3714.8995      0              0             -129.71534      106185.24      47.353787      47.353787      47.353787      0.78998593    -1477.0752     -19.70013      -129.84193    
    908500   1817000        416.54408     -136.42348      6153.7654      6363.4757      4468.658       1894.8178      1501.1001      1481.7016      2664.6705      0             -3752.6545      0              0             -130.67745      105403.45      47.237287      47.237287      47.237287      0.79584532    -167.59245      166.39463     -408.07263    
    909000   1818000        418.6941       104.0869       6429.7933      6271.0473      4491.7232      1779.3241      1447.5045      1436.8624      2668.3423      0             -3773.3851      0              0             -131.71181      104575.69      47.113306      47.113306      47.113306      0.80214475    -278.08816      821.67475     -231.32589    
    909500   1819000        425.71152      29.11621       6521.7167      6477.2321      4567.0056      1910.2265      1501.6442      1457.6056      2723.8376      0             -3772.861       0              0             -131.47901      104760.86      47.141097      47.141097      47.141097      0.80072694     575.39519     -810.17237      322.1258     
    910000   1820000        407.01723      39.830506      6321.7061      6260.1429      4366.4545      1893.6883      1500.4209      1437.3151      2682.6546      0             -3726.7022      0              0             -129.96477      105981.45      47.323473      47.323473      47.323473      0.791505      -119.99015      404.77925     -165.29757    
    910500   1821000        419.30718      409.91462      7057.4847      6430.6794      4498.3003      1932.3791      1492.4596      1493.8897      2719.5354      0             -3773.5056      0              0             -131.36876      104848.78      47.154281      47.154281      47.154281      0.80005551     440.97887      637.72158      151.04342    
    911000   1822000        409.21986      116.21346      6508.0699      6331.5405      4390.0842      1941.4562      1520.3471      1509.1585      2672.6894      0             -3760.7388      0              0             -132.24241      104156.1       47.050211      47.050211      47.050211      0.80537618     286.42277     -491.12489      553.3425     
    911500   1823000        411.49563     -342.38504      5910.7347      6442.4815      4414.4986      2027.9829      1523.3589      1511.3518      2694.9987      0             -3701.7264      0              0             -129.34249      106491.33      47.399244      47.399244      47.399244      0.78771524    -535.08157     -234.5053      -257.56823    
    912000   1824000        409.93596      520.19271      7115.5045      6318.6075      4397.7665      1920.8409      1503.67        1458.7263      2706.2469      0             -3747.8023      0              0             -131.12738      105041.78      47.183196      47.183196      47.183196      0.7985855      879.03383      190.34952      491.19477    
    912500   1825000        414.42861      1386.0911      8501.4783      6373.9871      4445.9633      1928.0238      1492.1226      1467.4446      2706.9931      0             -3738.5365      0              0             -130.8746       105244.67      47.213555      47.213555      47.213555      0.79704601     1197.3433      1672.7192      1288.2108    
    913000   1826000        411.07468      140.38051      6494.0397      6280.3004      4409.9826      1870.3178      1454.5649      1450.4662      2752.4501      0             -3787.1634      0              0             -131.93315      104400.25      47.086945      47.086945      47.086945      0.80349272     614.08257     -913.61084      720.66981    
    913500   1827000        407.41709     -618.40557      5159.903       6104.1879      4370.7442      1733.4438      1447.6435      1468.9252      2619.0898      0             -3802.2148      0              0             -131.55328      104701.71      47.132224      47.132224      47.132224      0.80117928    -651.27136     -302.81699     -901.12836    
    914000   1828000        411.24008      128.20348      6479.2202      6281.7902      4411.7571      1870.0331      1453.5234      1476.867       2677.0303      0             -3737.3876      0              0             -130.44217      105593.57      47.26567       47.26567       47.26567       0.79441244     939.8521      -955.02868      399.78701    
    914500   1829000        419.49814      267.50437      6697.3128      6287.7903      4500.3489      1787.4414      1480.0176      1407.3762      2673.0302      0             -3772.9826      0              0             -131.2153       104971.4       47.172656      47.172656      47.172656      0.79912094     690.90645     -67.636068      179.24273    
    915000   1830000        413.06564      248.29224      6631.11        6250.2086      4431.3414      1818.8672      1432.3875      1499.1845      2677.0975      0             -3789.8023      0              0             -130.94292      105189.76      47.205343      47.205343      47.205343      0.79746207     39.52159       1369.5197     -664.16459    
    915500   1831000        414.63723     -211.04399      6015.7689      6339.1485      4448.2014      1890.9471      1491.1659      1468.0804      2684.2931      0             -3752.5923      0              0             -131.09673      105066.34      47.186874      47.186874      47.186874      0.79839882     384.65857     -457.06261     -560.72794    
    916000   1832000        410.86967     -537.07601      5575.0129      6410.8503      4407.7833      2003.067       1504.2916      1463.4927      2737.5625      0             -3702.2797      0              0             -129.07595      106711.23      47.431848      47.431848      47.431848      0.78609198    -579.91816     -620.57759     -410.73227    
    916500   1833000        415.94593     -742.19033      5164.4523      6315.947       4462.2411      1853.7059      1390.5538      1528.155       2640.8475      0             -3705.8504      0              0             -129.47464      106382.64      47.383113      47.383113      47.383113      0.78852004    -620.71929     -1203.6545     -402.19715    
    917000   1834000        410.81667      490.41245      7081.6329      6330.1816      4407.2147      1922.9669      1458.6476      1505.3135      2720.5184      0             -3761.5126      0              0             -131.09677      105066.31      47.186868      47.186868      47.186868      0.79839908     1290.7549      712.58504     -532.10252    
    917500   1835000        408.94799      388.61859      6913.4853      6312.6188      4387.1676      1925.4512      1446.8126      1446.6064      2749.3131      0             -3717.2809      0              0             -129.92028      106017.74      47.328875      47.328875      47.328875      0.79123405     74.236069      808.9054       282.71429    
    918000   1836000        404.08412     -43.021596      6226.8844      6293.292       4334.9883      1958.3037      1437.2522      1464.1672      2795.458       0             -3738.5737      0              0             -130.13677      105841.37      47.302615      47.302615      47.302615      0.79255252     624.23891     -617.92109     -135.38261    
    918500   1837000        417.30535      171.22505      6642.4822      6379.7291      4476.8249      1902.9043      1502.4548      1424.7853      2719.0805      0             -3743.4164      0              0             -130.9034       105221.51      47.210092      47.210092      47.210092      0.79722143    -58.926974      349.32911      223.27301    
    919000   1838000        410.66478      290.96132      6783.083       6327.7862      4405.5853      1922.2009      1458.1017      1444.0385      2716.7143      0             -3696.6536      0              0             -128.37251      107295.98      47.518328      47.518328      47.518328      0.78180788     262.08014      527.08551      83.718302    
    919500   1839000        422.96561      172.30612      6817.778       6549.4823      4537.5477      2011.9347      1498.5657      1456.7517      2756.684       0             -3700.0667      0              0             -129.00854      106766.99      47.440108      47.440108      47.440108      0.78568145    -128.23516      471.02729      174.12623    
    920000   1840000        415.67892      603.63294      7315.1011      6379.2863      4459.3766      1919.9097      1438.5307      1528.3252      2658.1972      0             -3705.1434      0              0             -129.57297      106301.91      47.371124      47.371124      47.371124      0.78911887     1466.7981     -190.2254       534.32606    
    920500   1841000        408.23125      392.91027      6760.6537      6155.8663      4379.4785      1776.3878      1395.0492      1427.3411      2670.6603      0             -3716.6627      0              0             -130.50346      105543.98      47.25827       47.25827       47.25827       0.7947857      258.01676      499.08393      421.63011    
    921000   1842000        405.52138     -1058.337       4676.2517      6327.2314      4350.4072      1976.8242      1431.3088      1530.801       2716.8025      0             -3702.0882      0              0             -128.76968      106965.04      47.469423      47.469423      47.469423      0.78422675    -667.03222     -1687.4566     -820.52228    
    921500   1843000        408.05122     -506.96394      5483.0123      6264.801       4377.5471      1887.2539      1430.4728      1489.7915      2694.2911      0             -3727.3016      0              0             -130.2624       105739.29      47.287404      47.287404      47.287404      0.7933176     -174.98378      128.70734     -1474.6154    
    922000   1844000        411.21678     -117.63756      6223.3171      6404.2515      4411.5071      1992.7445      1475.0121      1473.0385      2809.7587      0             -3765.0648      0              0             -130.60391      105462.8       47.246151      47.246151      47.246151      0.79539747     214.43319     -913.54891      346.20304    
    922500   1845000        413.90356     -42.586345      6303.0051      6368.8429      4440.3306      1928.5123      1425.1124      1546.9893      2724.1726      0             -3767.762       0              0             -129.9351       106005.65      47.327075      47.327075      47.327075      0.7913243     -777.26769      14.591607      634.91705    
    923000   1846000        409.89224     -394.01928      5699.8237      6315.6674      4397.2975      1918.3699      1430.1694      1469.1765      2709.5831      0             -3690.5591      0              0             -128.52224      107170.97      47.499867      47.499867      47.499867      0.7827198     -896.51438     -423.61406      138.0706     
    923500   1847000        405.56549     -246.00059      5895.4614      6274.7377      4350.8804      1923.8573      1454.4572      1468.0553      2751.8824      0             -3750.5376      0              0             -130.29023      105716.71      47.284036      47.284036      47.284036      0.79348711     745.05134     -948.14847     -534.90466    
    924000   1848000        421.53768      42.414666      6471.4944      6405.9822      4522.229       1883.7531      1483.0661      1490.5441      2641.3739      0             -3731.2308      0              0             -130.05432      105908.47      47.312609      47.312609      47.312609      0.79205037     410.95117     -546.91254      263.20536    
    924500   1849000        411.56617     -401.49038      5775.7098      6398.9143      4415.2553      1983.659       1479.3955      1476.7338      2723.3557      0             -3695.8259      0              0             -129.41242      106433.78      47.390705      47.390705      47.390705      0.78814113    -713.34884     -514.71249      23.590181    
    925000   1850000        404.89104      135.9235       6524.2036      6315.0522      4343.6449      1971.4073      1494.597       1449.6913      2750.6353      0             -3723.5163      0              0             -130.54649      105509.19      47.253077      47.253077      47.253077      0.79504775     369.06345      105.87161     -67.164548    
    925500   1851000        400.30655      61.055413      6329.9749      6236.3417      4294.4628      1941.879       1467.5645      1460.9983      2736.5866      0             -3723.2705      0              0             -130.98632      105154.9       47.200128      47.200128      47.200128      0.7977264      257.87364     -397.26141      322.55401    
    926000   1852000        411.83496      204.77441      6749.2694      6433.9876      4418.1388      2015.8488      1518.3072      1482.8991      2729.0117      0             -3714.3692      0              0             -130.46924      105571.66      47.262401      47.262401      47.262401      0.7945773     -195.75052      264.16422      545.90954    
    926500   1853000        405.35732      436.8353       6945.6658      6275.5566      4348.6471      1926.9095      1489.851       1435.7392      2723.9565      0             -3722.6371      0              0             -130.9494       105184.56      47.204564      47.204564      47.204564      0.79750152     1218.8813     -57.065728      148.69036    
    927000   1854000        417.79304      33.0877        6496.0206      6445.0107      4482.0567      1962.954       1510.9361      1485.4943      2684.1598      0             -3717.6362      0              0             -130.29961      105709.09      47.282901      47.282901      47.282901      0.79354424     323.36753      418.27731     -642.38174    
    927500   1855000        412.49174     -72.703942      6231.0126      6342.0792      4425.1847      1916.8944      1508.5049      1484.8321      2702.0588      0             -3778.5014      0              0             -131.49404      104748.88      47.1393        47.1393        47.1393        0.80081851    -184.03667     -317.13204      283.05689    
    928000   1856000        410.82694     -164.65289      6159.3164      6411.4201      4407.3249      2004.0952      1542.9983      1477.3498      2757.2027      0             -3773.4555      0              0             -131.19628      104986.62      47.174935      47.174935      47.174935      0.79900511    -448.02498     -264.95622      219.02252    
    928500   1857000        412.21503      115.52083      6558.452       6378.7104      4422.2162      1956.4942      1507.0549      1500.494       2675.4988      0             -3726.5535      0              0             -129.10501      106687.22      47.42829       47.42829       47.42829       0.78626892     1188.9053     -1292.7965      450.4537     
    929000   1858000        417.19722      436.87928      7105.2642      6435.6482      4475.6648      1959.9833      1489.5129      1465.4758      2755.0588      0             -3750.0642      0              0             -131.05903      105096.56      47.191398      47.191398      47.191398      0.79816922     78.157812      571.03432      661.44573    
    929500   1859000        411.56091     -561.3125       5626.602       6501.4473      4415.1989      2086.2484      1546.4077      1486.3024      2738.6617      0             -3685.1235      0              0             -128.88573      106868.73      47.455171      47.455171      47.455171      0.78493349    -520.10339     -1095.6328     -68.201283    
    930000   1860000        420.37461      1169.1926      8250.4768      6458.3984      4509.7517      1948.6468      1480.1279      1471.9623      2757.0476      0             -3760.491       0              0             -131.05706      105098.15      47.191634      47.191634      47.191634      0.79815722     2115.8546      217.69451      1174.0287    
    930500   1861000        413.54751      1073.9794      8025.6938      6355.5349      4436.511       1919.0239      1430.7329      1507.592       2719.4383      0             -3738.7394      0              0             -129.17233      106631.61      47.420048      47.420048      47.420048      0.78667894     1638.6157      890.20389      693.1185     
    931000   1862000        417.78691     -384.47379      5897.8551      6490.8475      4481.9909      2008.8566      1547.4491      1448.1656      2733.4019      0             -3720.1601      0              0             -130.24136      105756.37      47.289949      47.289949      47.289949      0.79318951    -480.23498     -805.10414      131.91775    
    931500   1863000        400.89219      216.05437      6544.8767      6216.5331      4300.7456      1915.7875      1509.8446      1526.1745      2673.4178      0             -3793.6494      0              0             -132.18003      104205.26      47.057612      47.057612      47.057612      0.80499625     213.41104      614.81864     -180.06657    
    932000   1864000        415.39045      121.23083      6552.5393      6367.2279      4456.2819      1910.946       1496.6299      1460.18        2715.5232      0             -3761.3871      0              0             -131.41416      104812.55      47.148849      47.148849      47.148849      0.80033203    -147.25091      36.671296      474.27211    
    932500   1865000        413.80423     -272.71408      5849.9274      6271.1339      4439.265       1831.8689      1501.4502      1454.576       2620.1959      0             -3744.3533      0              0             -130.06004      105903.81      47.311915      47.311915      47.311915      0.79208521    -805.75323     -6.8779779     -5.5110203    
    933000   1866000        409.01076      567.10429      7178.2732      6308.4673      4387.841       1920.6263      1496.4239      1495.6083      2713.8505      0             -3785.2563      0              0             -130.97004      105167.97      47.202083      47.202083      47.202083      0.79762727     247.73406      126.86045      1326.7183    
    933500   1867000        405.68012      4.2410958      6179.9847      6173.4617      4352.1102      1821.3515      1468.2225      1450.5047      2646.9399      0             -3744.3156      0              0             -130.60613      105461         47.245883      47.245883      47.245883      0.79541101    -28.964416      249.03288     -207.34518    
    934000   1868000        407.80588     -518.54755      5535.5228      6327.3658      4374.9151      1952.4507      1534.1356      1463.5175      2728.8326      0             -3774.035       0              0             -131.54696      104706.74      47.132978      47.132978      47.132978      0.80114079    -889.07737     -230.78426     -435.78101    
    934500   1869000        408.87217     -1142.1001      4426.946       6187.4661      4386.3542      1801.1119      1513.7911      1400.9062      2661.398       0             -3774.9835      0              0             -130.31504      105696.58      47.281035      47.281035      47.281035      0.79363822    -1037.5271     -460.16899     -1928.6042    
    935000   1870000        412.56311     -752.33928      5180.9299      6337.3286      4425.9503      1911.3782      1510.1423      1504.8302      2688.8016      0             -3792.3958      0              0             -130.68855      105394.5       47.235949      47.235949      47.235949      0.79591293    -540.66102     -517.4414      -1198.9154    
    935500   1871000        415.09898     -18.142245      6286.3115      6313.9317      4453.155       1860.7767      1482.4239      1484.2735      2684.4403      0             -3790.361       0              0             -131.94607      104390.03      47.085408      47.085408      47.085408      0.80357141    -290.94772     -275.73247      512.25345    
    936000   1872000        397.85632      108.04398      6312.7478      6147.6864      4268.1769      1879.5094      1521.5084      1494.7407      2667.1961      0             -3803.9358      0              0             -131.48802      104753.68      47.14002       47.14002       47.14002       0.80078182    -476.94005      392.68892      408.38307    
    936500   1873000        409.64325     -262.12596      5888.9027      6294.2805      4394.6263      1899.6542      1505.9587      1496.1491      2662.2075      0             -3764.661       0              0             -129.8917       106041.06      47.332345      47.332345      47.332345      0.79106001    -244.07266      241.0453      -783.35053    
    937000   1874000        417.85895     -16.356631      6377.5968      6402.6012      4482.7638      1919.8373      1518.5363      1488.3411      2709.7362      0             -3796.7763      0              0             -131.40435      104820.38      47.150023      47.150023      47.150023      0.80027227     408.27712     -208.20844     -249.13858    
    937500   1875000        410.46408     -212.04875      5866.3464      6189.8675      4403.4321      1786.4354      1466.9512      1451.8754      2657.9087      0             -3790.2999      0              0             -131.66323      104614.28      47.119101      47.119101      47.119101      0.80184886    -335.4687      -864.11943      563.44189    
    938000   1876000        408.47673      237.1528       6598.6         6238.4784      4382.1119      1856.3664      1439.6987      1472.6924      2730.1859      0             -3786.2106      0              0             -132.28495      104122.61      47.045167      47.045167      47.045167      0.80563525     970.67556      66.871782     -326.08895    
    938500   1877000        429.01064      428.56946      7129.285       6480.4262      4602.3984      1878.0279      1515.9912      1448.3859      2695.2334      0             -3781.5826      0              0             -132.67907      103813.32      46.998539      46.998539      46.998539      0.80803548     181.0634       514.85864      589.78633    
    939000   1878000        396.77395      768.1719       7296.9383      6123.4416      4256.5653      1866.8762      1511.0508      1464.8922      2647.7653      0             -3756.8321      0              0             -131.49459      104748.44      47.139234      47.139234      47.139234      0.80082187     1091.2541      530.47333      682.78826    
    939500   1879000        410.3188      -693.50047      5243.0669      6295.9568      4401.8736      1894.0832      1474.3661      1483.8865      2735.8276      0             -3799.997       0              0             -132.31077      104102.29      47.042107      47.042107      47.042107      0.80579248    -399.99535     -1313.881      -366.62511    
    940000   1880000        412.05236     -424.85899      5567.6712      6213.807       4420.4711      1793.336       1500.3607      1400.1527      2702.028       0             -3809.2053      0              0             -132.08464      104280.51      47.068937      47.068937      47.068937      0.80441533    -1014.448       381.15045     -641.27938    
    940500   1881000        399.17058     -70.163562      6060.379       6168.5957      4282.2762      1886.3195      1506.217       1478.3451      2646.0007      0             -3744.2433      0              0             -130.24127      105756.45      47.28996       47.28996       47.28996       0.79318894     197.52251     -112.86154     -295.15166    
    941000   1882000        404.76539      16.418389      6310.8729      6285.7891      4342.2969      1943.4921      1451.165       1549.7395      2729.7554      0             -3787.1678      0              0             -131.48239      104758.17      47.140693      47.140693      47.140693      0.80074752    -363.77686     -106.69834      519.73037    
    941500   1883000        404.65665      689.25518      7243.9025      6200.8772      4341.1304      1859.7468      1491.1318      1522.9715      2702.9946      0             -3857.3511      0              0             -132.74451      103762.13      46.990814      46.990814      46.990814      0.80843406     189.51107      2100.3907     -222.13621    
    942000   1884000        407.60358      616.18758      7064.1546      6126.8582      4372.7449      1754.1134      1433.4226      1489.0823      2634.0463      0             -3802.4378      0              0             -132.05881      104300.91      47.072005      47.072005      47.072005      0.80425805     1133.7068     -141.98185      856.83775    
    942500   1885000        414.60745      127.74453      6472.3277      6279.536       4447.8819      1831.6541      1472.8741      1506.3174      2687.2775      0             -3834.8149      0              0             -133.10226      103483.25      46.948676      46.948676      46.948676      0.81061278     453.05247     -9.9881581     -59.830708    
    943000   1886000        407.13744      231.82378      6537.7352      6183.173       4367.7441      1815.4288      1448.6198      1448.0687      2684.0268      0             -3765.2864      0              0             -131.33997      104871.77      47.157727      47.157727      47.157727      0.79988015     50.476097      650.10575     -5.110522     
    943500   1887000        405.8201      -486.15362      5465.2628      6205.6486      4353.6118      1852.0368      1447.0225      1466.9102      2724.7151      0             -3786.6111      0              0             -131.90062      104426         47.090815      47.090815      47.090815      0.80329463    -164.62148     -773.17229     -520.6671     
    944000   1888000        420.69963     -52.849071      6317.1125      6397.6773      4513.2385      1884.4388      1543.7112      1408.8262      2710.8635      0             -3778.9621      0              0             -131.77209      104527.86      47.106122      47.106122      47.106122      0.80251184     55.782875     -84.38233      -129.94776    
    944500   1889000        411.50774      70.667334      6483.9079      6374.7131      4414.6285      1960.0846      1488.5611      1501.1756      2710.3054      0             -3739.9574      0              0             -130.00137      105951.61      47.319032      47.319032      47.319032      0.79172791     97.497333     -738.86753      853.3722     
    945000   1890000        410.98678      598.37368      7184.319       6268.4762      4409.0396      1859.4366      1505.0775      1445.9419      2655.3621      0             -3746.945       0              0             -131.24504      104947.62      47.169093      47.169093      47.169093      0.79930203     975.09258      1059.0574     -239.02895    
    945500   1891000        412.76058      472.20417      7186.7031      6463.0758      4428.0689      2035.0069      1567.0558      1529.8802      2692.5603      0             -3754.4894      0              0             -131.08295      105077.38      47.188527      47.188527      47.188527      0.79831492     496.78143      531.45045      388.38062    
    946000   1892000        401.74096     -165.75228      5961.0855      6215.579       4309.851       1905.728       1558.0773      1421.7145      2703.6602      0             -3777.724       0              0             -130.83204      105278.9       47.218674      47.218674      47.218674      0.79678683     47.589886     -612.33437      67.48764     
    946500   1893000        409.52959     -1057.1765      4745.4962      6376.0477      4393.407       1982.6407      1569.1974      1458.4319      2691.7172      0             -3736.7058      0              0             -130.23998      105757.49      47.290116      47.290116      47.290116      0.79318111    -1256.0633     -1030.2284     -885.23771    
    947000   1894000        412.49422      179.7601       6654.1078      6378.7297      4425.2113      1953.5185      1520.9795      1457.7007      2744.8411      0             -3770.003       0              0             -131.12797      105041.31      47.183126      47.183126      47.183126      0.79858909     1125.6661     -620.79443      34.408656    
    947500   1895000        421.32272     -569.70578      5562.9227      6443.5948      4519.9229      1923.6719      1481.4564      1555.7504      2628.0773      0             -3741.6121      0              0             -129.94744      105995.57      47.325576      47.325576      47.325576      0.79139949    -685.21511     -193.85752     -830.04472    
    948000   1896000        413.52777      171.28729      6626.6855      6359.2545      4436.2992      1922.9554      1491.0279      1532.7496      2612.01        0             -3712.8321      0              0             -128.66036      107055.93      47.482864      47.482864      47.482864      0.78356094    -384.56114      544.80254      353.62046    
    948500   1897000        405.95797      122.66277      6430.2599      6239.9436      4355.0909      1884.8527      1472.3274      1486.8445      2628.6242      0             -3702.9434      0              0             -129.46965      106386.74      47.383721      47.383721      47.383721      0.78848967     686.10579     -424.41797      106.30047    
    949000   1898000        410.14677      305.7601       6747.4297      6278.1871      4400.0281      1878.159       1448.6169      1455.3514      2708.4302      0             -3734.2395      0              0             -130.89249      105230.28      47.211403      47.211403      47.211403      0.79715498     448.14682      651.22799     -182.09451    
    949500   1899000        407.50124      2.8824627      6263.6429      6259.18        4371.647       1887.533       1457.2047      1453.141       2723.126       0             -3745.9387      0              0             -129.74136      106163.94      47.350621      47.350621      47.350621      0.7901444     -91.750044     -396.15606      496.55349    
    950000   1900000        410.84281      310.33884      6717.4825      6237.8457      4407.4951      1830.3507      1418.9856      1470.3831      2667.5194      0             -3726.5374      0              0             -129.97357      105974.27      47.322406      47.322406      47.322406      0.79155857     309.32066      268.28015      353.41569    
    950500   1901000        404.38584      352.00668      6945.0191      6403.7087      4338.2251      2065.4836      1527.9436      1493.4114      2772.3115      0             -3728.183       0              0             -130.62788      105443.45      47.243261      47.243261      47.243261      0.79554345    -219.2096       820.78282      454.44682    
    951000   1902000        405.06505      240.80114      6644.8821      6277.3349      4345.5117      1931.8232      1452.3729      1559.6809      2701.3304      0             -3781.5609      0              0             -131.60636      104659.49      47.125886      47.125886      47.125886      0.80150254     431.69756      655.39346     -364.68762    
    951500   1903000        406.18132     -901.95067      4817.0978      6199.4482      4357.487       1841.9612      1485.8698      1462.9134      2670.9063      0             -3777.7283      0              0             -131.0678       105089.53      47.190345      47.190345      47.190345      0.79822263    -1296.4066     -802.20677     -607.23867    
    952000   1904000        400.86243      60.71371       6336.2548      6243.6741      4300.4263      1943.2478      1504.8239      1504.3166      2717.6504      0             -3783.5431      0              0             -131.734        104558.08      47.110661      47.110661      47.110661      0.80227988     403.50748     -191.73248     -29.633874    
    952500   1905000        406.45987     -517.63187      5621.7669      6417.4834      4360.4752      2057.0081      1542.6666      1544.4223      2725.5561      0             -3755.6369      0              0             -130.67546      105405.06      47.237527      47.237527      47.237527      0.79583319    -692.38982     -918.49489      57.989103    
    953000   1906000        412.367        22.957732      6371.1585      6335.82        4423.8465      1911.9735      1465.6703      1468.7274      2752.6253      0             -3775.0495      0              0             -130.50065      105546.25      47.258609      47.258609      47.258609      0.79476859     94.889767      996.73347     -1022.75      
    953500   1907000        413.57241      327.16571      6724.3988      6220.1258      4436.7781      1783.3477      1472.2711      1406.0307      2649.5878      0             -3744.5419      0              0             -130.3267       105687.12      47.279625      47.279625      47.279625      0.79370924     541.83613      509.28749     -69.626477    
    954000   1908000        405.11642      178.06907      6401.2666      6130.5854      4346.0628      1784.5226      1513.0529      1473.5225      2618.1109      0             -3820.1637      0              0             -132.14837      104230.22      47.061369      47.061369      47.061369      0.80480345     31.723287      615.00417     -112.52024    
    954500   1909000        413.84072      32.361397      6340.8095      6291.387       4439.6565      1851.7305      1528.1826      1457.5783      2632.8996      0             -3766.9299      0              0             -131.53277      104718.04      47.134674      47.134674      47.134674      0.80105434     87.047321     -307.99645      318.03332    
    955000   1910000        409.46851      1104.1243      7922.3998      6250.0287      4392.7517      1857.2769      1482.6518      1450.5143      2734.271       0             -3810.1601      0              0             -132.62233      103857.73      47.00524       47.00524       47.00524       0.80768994     1158.4893      1313.9871      839.89643    
    955500   1911000        411.72907      360.77684      6843.9048      6297.9184      4417.0028      1880.9156      1487.8185      1409.3697      2769.4243      0             -3785.6969      0              0             -132.73584      103768.92      46.991838      46.991838      46.991838      0.80838121     226.85182      560.62653      294.85217    
    956000   1912000        414.52409     -530.19671      5567.6473      6382.7103      4446.9877      1935.7226      1513.383       1464.2513      2736.7652      0             -3778.6769      0              0             -130.67039      105409.14      47.238137      47.238137      47.238137      0.79580234    -1021.6966     -13.19558      -555.69796    
    956500   1913000        404.183        253.09747      6628.1909      6238.823       4336.049       1902.774       1526.9598      1421.3208      2685.3461      0             -3730.8527      0              0             -130.57472      105486.37      47.249671      47.249671      47.249671      0.79521971    -75.871833      573.86773      261.29651    
    957000   1914000        408.88037     -345.98277      5797.6369      6332.4119      4386.4422      1945.9697      1529.0336      1465.0053      2692.349       0             -3740.4181      0              0             -129.96151      105984.11      47.323869      47.323869      47.323869      0.79148513    -78.463658     -855.69794     -103.78671    
    957500   1915000        402.67836     -688.13103      5117.1554      6161.4305      4319.9074      1841.5232      1494.9736      1459.1776      2702.7867      0             -3815.4147      0              0             -132.3694       104056.18      47.03516       47.03516       47.03516       0.80614954    -445.13801     -728.09881     -891.15627    
    958000   1916000        406.18567     -391.61433      5793.9844      6398           4357.5336      2040.4664      1562.2645      1457.0363      2730.8969      0             -3709.7313      0              0             -130.23922      105758.11      47.290209      47.290209      47.290209      0.79317645    -713.88367     -5.8962015     -455.06311    
    958500   1917000        398.25218      20.622584      6269.4461      6237.6125      4272.4237      1965.1888      1539.1705      1419.1394      2765.6495      0             -3758.7706      0              0             -130.1331       105844.35      47.303059      47.303059      47.303059      0.79253018    -66.324066      45.3004        82.891418    
    959000   1918000        415.14045     -279.69471      6052.1359      6481.9211      4453.6         2028.3212      1549.1047      1458.8535      2783.5063      0             -3763.1432      0              0             -130.72666      105363.78      47.231359      47.231359      47.231359      0.79614501    -472.92561     -304.61629     -61.542243    
    959500   1919000        407.12263     -112.44844      6094.0403      6265.4444      4367.5853      1897.8591      1491.7227      1459.0039      2745.9361      0             -3798.8036      0              0             -131.78431      104518.16      47.104665      47.104665      47.104665      0.80258629     458.22267     -322.50892     -473.05909    
    960000   1920000        411.21938     -237.0192       6045.492       6410.3891      4411.5349      1998.8542      1508.6347      1477.0761      2730.5148      0             -3717.3713      0              0             -130.48017      105562.82      47.261082      47.261082      47.261082      0.79464385    -857.41685      0.21518192     146.14407    
    960500   1921000        396.61996      60.016359      6122.4136      6030.7231      4254.9133      1775.8098      1462.9912      1422.1113      2701.0834      0             -3810.376       0              0             -131.48518      104755.94      47.14036       47.14036       47.14036       0.80076453     122.67493      262.17951     -204.80536    
    961000   1922000        413.9378      -101.66731      6191.8789      6348.0759      4440.698       1907.3779      1517.907       1452.6199      2671.8836      0             -3735.0326      0              0             -130.74948      105345.38      47.228611      47.228611      47.228611      0.796284       123.65557      186.53937     -615.19686    
    961500   1923000        401.57753     -526.45368      5326.6945      6134.7917      4308.0978      1826.6939      1458.4902      1441.9746      2709.0279      0             -3782.7987      0              0             -130.86634      105251.31      47.214548      47.214548      47.214548      0.7969957     -164.9321      -933.28546     -481.14348    
    962000   1924000        419.59198      725.52976      7503.2618      6393.7644      4501.3557      1892.4087      1460.0143      1459.4111      2709.2482      0             -3736.2649      0              0             -131.35914      104856.46      47.155432      47.155432      47.155432      0.79999691     666.37265      778.59274      731.62391    
    962500   1925000        417.61974     -155.15296      6149.9722      6389.0389      4480.1976      1908.8413      1527.3586      1433.0872      2682.4299      0             -3734.0344      0              0             -130.36844      105653.29      47.274579      47.274579      47.274579      0.7939634     -271.49056      131.99535     -325.96366    
    963000   1926000        411.51172      265.99553      6675.9065      6268.2041      4414.6712      1853.5329      1453.2578      1407.5599      2757.0067      0             -3764.2915      0              0             -131.05766      105097.67      47.191562      47.191562      47.191562      0.79816087    -415.09442      960.46765      252.61336    
    963500   1927000        404.97483     -853.70271      4903.3989      6203.9442      4344.5438      1859.4004      1493.4236      1423.757       2741.767       0             -3799.5471      0              0             -131.85983      104458.3       47.095671      47.095671      47.095671      0.80304621    -904.79742     -776.90381     -879.40689    
    964000   1928000        410.36272     -222.48657      6010.1281      6349.0525      4402.3448      1946.7077      1508.9096      1511.7287      2751.1315      0             -3825.0621      0              0             -131.86587      104453.52      47.094952      47.094952      47.094952      0.80308301    -487.16999      60.417625     -240.70735    
    964500   1929000        400.28612     -89.270733      5997.4353      6132.7271      4294.2436      1838.4836      1466.3214      1490.2126      2684.4858      0             -3802.5362      0              0             -132.54665      103917.03      47.014185      47.014185      47.014185      0.80722904    -137.28457     -237.38733      106.8597     
    965000   1930000        408.36835      526.75293      7106.4236      6302.4614      4380.9493      1921.5122      1548.5726      1403.7238      2752.8949      0             -3783.6791      0              0             -131.6142       104653.25      47.124951      47.124951      47.124951      0.80155027     1288.6893      211.86579      79.703664    
    965500   1931000        396.0604      -441.90892      5427.8512      6102.8496      4248.9104      1853.9392      1432.0986      1472.6011      2744.8677      0             -3795.6283      0              0             -131.51079      104735.54      47.137299      47.137299      47.137299      0.8009205     -462.9649      -77.937837     -784.82403    
    966000   1932000        403.2034      -109.17791      6169.5755      6336.9696      4325.54        2011.4295      1509.7818      1514.4892      2745.9436      0             -3758.785       0              0             -131.01651      105130.67      47.196502      47.196502      47.196502      0.79791026     268.18206     -598.92568      3.2098932    
    966500   1933000        417.5723      -223.03662      6045.9966      6386.159       4479.6887      1906.4703      1549.0471      1417.067       2709.4709      0             -3769.1147      0              0             -131.71076      104576.53      47.113432      47.113432      47.113432      0.80213834    -1245.2892      344.05357      232.12579    
    967000   1934000        412.60822     -133.12659      6102.9031      6308.0589      4426.4343      1881.6246      1447.8612      1543.7956      2622.7226      0             -3732.7548      0              0             -130.3504       105667.9       47.276759      47.276759      47.276759      0.79385358    -412.38575     -471.13793      484.14391    
    967500   1935000        417.9983      -189.8997       6139.4585      6432.1306      4484.2587      1947.8718      1540.9791      1444.4027      2703.9937      0             -3741.5036      0              0             -130.339        105677.15      47.278139      47.278139      47.278139      0.7937841     -398.1705       156.90334     -328.43194    
    968000   1936000        400.06894     -288.3673       5764.2713      6207.4671      4291.9138      1915.5533      1502.7865      1446.9013      2715.7644      0             -3749.8988      0              0             -130.70186      105383.77      47.234346      47.234346      47.234346      0.79599398     488.02379     -404.77634     -948.34934    
    968500   1937000        402.40492      479.64995      7036.5266      6290.3957      4316.974       1973.4217      1493.8861      1500.1333      2676.7731      0             -3697.3708      0              0             -129.13404      106663.23      47.424735      47.424735      47.424735      0.78644574     677.7931       683.58729      77.569442    
    969000   1938000        407.74234      65.250999      6367.039       6266.1066      4374.2335      1891.8731      1485.7804      1407.7735      2716.4439      0             -3718.1247      0              0             -129.86374      106063.9       47.335742      47.335742      47.335742      0.79088971    -231.79099      745.1996      -317.65561    
    969500   1939000        412.99313      60.319154      6436.0194      6343.529       4430.5637      1912.9654      1486.6942      1486.6422      2714.3034      0             -3774.6745      0              0             -131.00562      105139.41      47.19781       47.19781       47.19781       0.79784396    -166.62997      106.51083      241.0766     
    970000   1940000        405.73169     -506.37664      5524.3506      6310.1092      4352.6633      1957.4458      1497.0389      1478.9918      2685.8571      0             -3704.442       0              0             -129.45413      106399.5       47.385615      47.385615      47.385615      0.78839511    -114.80172     -611.64332     -792.68489    
    970500   1941000        420.13932     -576.87919      5549.4454      6443.9415      4507.2275      1936.714       1471.657       1449.7131      2726.2768      0             -3710.933       0              0             -129.5501       106320.67      47.373911      47.373911      47.373911      0.78897961    -598.7085      -449.4601      -682.46897    
    971000   1942000        397.66092     -288.37104      5790.6639      6235.3909      4266.0807      1969.3102      1528.6334      1475.4741      2696.6982      0             -3731.4955      0              0             -130.25353      105746.49      47.288476      47.288476      47.288476      0.79326361     262.25501     -699.96143     -427.40669    
    971500   1943000        413.16369      23.092549      6506.4825      6471.0667      4432.3934      2038.6733      1522.8992      1500.1076      2764.3691      0             -3748.7026      0              0             -130.98042      105159.64      47.200837      47.200837      47.200837      0.79769045     297.45752      32.985952     -261.16582    
    972000   1944000        406.8083      -85.136196      6165.311       6295.5386      4364.2132      1931.3254      1479.6989      1507.6015      2680.838       0             -3736.813       0              0             -131.32355      104884.87      47.159691      47.159691      47.159691      0.79978019    -460.11128     -196.15548      400.85818    
    972500   1945000        416.00127      490.09488      7294.0062      6540.2639      4462.8348      2077.4292      1601.2141      1431.5752      2783.8618      0             -3739.2219      0              0             -130.61367      105454.92      47.244974      47.244974      47.244974      0.79545692     657.78977      327.45191      485.04297    
    973000   1946000        409.12611     -15.242364      6264.5764      6287.957       4389.0785      1898.8785      1501.293       1452.4404      2662.7485      0             -3717.6034      0              0             -130.9569       105178.53      47.203662      47.203662      47.203662      0.79754725    -376.51363      411.5556      -80.769057    
    973500   1947000        407.07634      872.82619      7753.4548      6428.0753      4367.0886      2060.9866      1551.3247      1515.9553      2754.4002      0             -3760.6936      0              0             -132.28752      104120.59      47.044862      47.044862      47.044862      0.80565089     1108.5515      1569.2368     -59.309743    
    974000   1948000        411.85572     -599.96469      5421.4725      6336.962       4418.3615      1918.6005      1537.2376      1465.4689      2710.8511      0             -3794.9572      0              0             -131.6448       104628.93      47.121299      47.121299      47.121299      0.80173663    -1175.4359     -484.23331     -140.22485    
    974500   1949000        408.2831       149.15654      6489.2935      6261.7818      4380.0347      1881.7472      1489.0151      1501.7645      2677.4405      0             -3786.473       0              0             -131.69519      104588.89      47.115288      47.115288      47.115288      0.80204353     163.90491      149.25978      134.30492    
    975000   1950000        414.36601      79.041022      6459.7951      6339.3269      4445.2918      1894.0352      1502.4855      1493.4397      2688.8367      0             -3790.7267      0              0             -131.79888      104506.61      47.102929      47.102929      47.102929      0.80267504    -351.55276      271.18205      317.49378    
    975500   1951000        409.48433      170.96623      6509.6633      6249.5054      4392.9214      1856.5839      1478.8981      1481.9233      2720.2676      0             -3824.505       0              0             -132.00932      104340.01      47.077887      47.077887      47.077887      0.8039566     -26.253082      1116.5545     -577.40277    
    976000   1952000        403.78301     -158.42654      5950.3526      6191.1895      4331.758       1859.4314      1469.0566      1493.5584      2691.2296      0             -3794.4132      0              0             -132.14062      104236.33      47.062289      47.062289      47.062289      0.80475627    -459.76173     -41.102951      25.585051    
    976500   1953000        407.24802     -304.90983      5754.5279      6214.6702      4368.9305      1845.7397      1492.0501      1490.6154      2700.1946      0             -3837.1204      0              0             -133.10999      103477.24      46.947767      46.947767      46.947767      0.81065988    -9.0293867     -460.2945      -445.40559    
    977000   1954000        407.96884     -261.15105      5919.981       6320.7956      4376.6633      1944.1323      1497.7344      1506.9298      2688.4943      0             -3749.0262      0              0             -130.88192      105238.78      47.212675      47.212675      47.212675      0.79709059     72.05011       142.64675     -998.14999    
    977500   1955000        408.40931      462.50314      7006.7213      6298.0084      4381.3886      1916.6198      1548.5997      1453.3011      2675.2876      0             -3760.5686      0              0             -131.09186      105070.24      47.187458      47.187458      47.187458      0.79836916     96.908281      268.6727       1021.9285    
    978000   1956000        403.21859      201.53888      6481.0072      6169.9894      4325.703       1844.2864      1505.3109      1444.7344      2661.7829      0             -3767.5418      0              0             -130.16821      105815.81      47.298806      47.298806      47.298806      0.79274399     12.063824      529.45524      63.097583    
    978500   1957000        410.25786     -107.24847      6072.8047      6235.1376      4401.2198      1833.9178      1453.4894      1509.7857      2680.4285      0             -3809.7858      0              0             -132.71377      103786.17      46.994441      46.994441      46.994441      0.80824686    -28.734852     -285.10701     -7.9035333    
    979000   1958000        408.76206      948.48082      7725.5351      6290.307       4385.173       1905.134       1480.8903      1515.4283      2717.1259      0             -3808.3105      0              0             -132.75136      103756.78      46.990006      46.990006      46.990006      0.80847576     737.36066      1790.1274      317.95441    
    979500   1959000        407.99808     -223.35806      5980.0666      6324.0137      4376.9771      1947.0366      1500.4804      1522.2549      2679.7956      0             -3755.4943      0              0             -130.44918      105587.89      47.264824      47.264824      47.264824      0.79445514    -344.00886     -788.20983      462.14453    
    980000   1960000        414.38393      161.2894       6636.2211      6391.0014      4445.484       1945.5174      1512.168       1498.42        2738.0084      0             -3803.0789      0              0             -132.12403      104249.42      47.064259      47.064259      47.064259      0.80465522    -550.53953      559.09065      475.31707    
    980500   1961000        409.64287      196.55935      6528.0517      6227.8971      4394.6222      1833.2749      1469.58        1491.1724      2643.4301      0             -3770.9076      0              0             -131.54676      104706.9       47.133002      47.133002      47.133002      0.80113958     1008.531       15.127571     -433.9805     
    981000   1962000        415.22801      568.79911      7265.6062      6389.8249      4454.5392      1935.2857      1438.1748      1474.1102      2771.6549      0             -3748.6541      0              0             -130.46518      105574.94      47.262891      47.262891      47.262891      0.7945526      854.16561      358.92407      493.30764    
    981500   1963000        417.29291      68.285825      6483.7714      6379.5632      4476.6914      1902.8718      1467.3439      1503.7161      2720.3884      0             -3788.5766      0              0             -131.63162      104639.4       47.122872      47.122872      47.122872      0.80165638     57.634434     -709.16991      856.39295    
    982000   1964000        409.34145     -137.4659       5993.0641      6203.2327      4391.3887      1811.8441      1443.1771      1464.5096      2680.7906      0             -3776.6332      0              0             -131.38884      104832.75      47.151878      47.151878      47.151878      0.80017783    -150.94248     -208.36247     -53.092757    
    982500   1965000        414.16586      173.44483      6553.2617      6290.849       4443.1445      1847.7045      1452.1109      1477.6136      2720.8989      0             -3802.919       0              0             -132.77245      103740.3       46.987517      46.987517      46.987517      0.80860422    -342.70895      450.02374      413.01971    
    983000   1966000        413.4839       766.91943      7466.6907      6283.6024      4435.8286      1847.7739      1465.5932      1435.7897      2671.1701      0             -3724.7792      0              0             -130.21588      105777.07      47.293034      47.293034      47.293034      0.79303432     1259.3836      980.47369      60.901035    
    983500   1967000        409.11459      342.08516      6979.6427      6449.2608      4388.9549      2060.306       1487.502       1512.7223      2778.7047      0             -3718.623       0              0             -129.5618       106311.08      47.372486      47.372486      47.372486      0.78905083    -122.71192      470.29556      678.67185    
    984000   1968000        411.20626      357.01304      6895.5186      6348.2615      4411.3942      1936.8673      1482.8529      1453.1644      2753.7611      0             -3752.9111      0              0             -131.04607      105106.96      47.192954      47.192954      47.192954      0.79809027    -244.7192       650.81768      664.94062    
    984500   1969000        410.39019      771.39655      7415.0074      6222.7256      4402.6395      1820.0861      1420.7979      1398.6655      2710.1673      0             -3709.5446      0              0             -129.96612      105980.35      47.32331       47.32331       47.32331       0.7915132      552.44912      1641.3472      120.39331    
    985000   1970000        411.90804     -690.96179      5237.6741      6306.4235      4418.9228      1887.5006      1467.3784      1483.8361      2656.5815      0             -3720.2954      0              0             -129.87021      106058.61      47.334956      47.334956      47.334956      0.79092911    -882.45755     -249.66264     -940.76518    
    985500   1971000        405.52306     -574.46154      5454.1166      6347.7633      4350.4252      1997.3381      1484.8793      1475.0406      2695.6715      0             -3658.2533      0              0             -129.12979      106666.74      47.425255      47.425255      47.425255      0.78641986    -109.31241     -628.0436      -986.02862    
    986000   1972000        420.35504      451.42512      7262.1629      6557.5738      4509.5417      2048.032       1516.1389      1517.1016      2718.2372      0             -3703.4457      0              0             -128.70077      107022.31      47.477894      47.477894      47.477894      0.78380706     671.20852      554.08837      128.97846    
    986500   1973000        410.26578      293.1733       6860.7621      6405.4361      4401.3048      2004.1313      1473.5962      1520.0228      2729.756       0             -3719.2437      0              0             -129.34014      106493.27      47.399532      47.399532      47.399532      0.78770092     304.47037      170.85516      404.19436    
    987000   1974000        404.57063      341.75256      6719.2503      6185.1057      4340.2076      1844.8981      1405.0247      1441.7863      2675.2836      0             -3677.1965      0              0             -128.524        107169.51      47.49965       47.49965       47.49965       0.7827305     -135.39092      1013.6682      146.98039    
    987500   1975000        406.7275       30.524541      6376.9328      6329.8366      4363.3463      1966.4903      1496.2336      1491.5435      2715.0687      0             -3736.3555      0              0             -130.19508      105793.97      47.295553      47.295553      47.295553      0.79290761     328.63181     -42.994311     -194.06387    
    988000   1976000        412.26267     -815.92139      5136.1697      6397.5671      4422.7273      1974.8398      1439.249       1440.385       2777.3232      0             -3682.1175      0              0             -129.93548      106005.34      47.327029      47.327029      47.327029      0.79132661    -572.92199     -1603.0209     -271.82122    
    988500   1977000        411.43338      493.30553      7048.3217      6277.5532      4413.8307      1863.7225      1468.2538      1394.4859      2700.8021      0             -3699.8193      0              0             -128.56519      107135.17      47.494577      47.494577      47.494577      0.78298138     1312.9871     -131.84696      298.77642    
    989000   1978000        407.30363     -602.38167      5505.3363      6446.0929      4369.5271      2076.5659      1542.5087      1459.4455      2742.37        0             -3667.7584      0              0             -128.62512      107085.25      47.487199      47.487199      47.487199      0.78334636    -92.159784     -1009.2007     -705.7845     
    989500   1979000        410.34583      23.331494      6471.9832      6435.2684      4402.1635      2033.1049      1514.7807      1438.9665      2729.2265      0             -3649.8688      0              0             -127.65342      107900.39      47.607387      47.607387      47.607387      0.77742853     691.85751     -207.49827     -414.36475    
    990000   1980000        406.21944     -119.9087       6016.1348      6202.0437      4357.8959      1844.1478      1465.4367      1364.9113      2746.191       0             -3732.3913      0              0             -129.56332      106309.83      47.3723        47.3723        47.3723        0.7890601      477.66419     -291.99594     -545.39435    
    990500   1981000        423.10945      103.82698      6580.6882      6421.1928      4539.0909      1882.1019      1399.0563      1492.2646      2714.201       0             -3723.42        0              0             -130.76554      105332.45      47.226678      47.226678      47.226678      0.79638179     376.61452      211.00884     -276.14241    
    991000   1982000        408.57393      12.883239      6354.326       6334.1672      4383.1547      1951.0125      1452.3268      1417.0704      2752.2781      0             -3670.6628      0              0             -128.37817      107291.25      47.51763       47.51763       47.51763       0.78184235    -249.27698      786.53975     -498.61306    
    991500   1983000        411.08583     -772.78104      5088.1388      6292.8143      4410.1022      1882.7121      1483.0296      1419.6593      2672.1248      0             -3692.1016      0              0             -128.85989      106890.16      47.458343      47.458343      47.458343      0.78477611    -912.29923     -964.50673     -441.53715    
    992000   1984000        400.96339      408.48693      6957.5924      6320.1588      4301.5094      2018.6494      1470.8933      1473.7746      2722.6961      0             -3648.7146      0              0             -128.72845      106999.3       47.47449       47.47449       47.47449       0.78397566     676.56373      243.50239      305.39467    
    992500   1985000        414.68772      40.247226      6468.9087      6405.555       4448.743       1956.8119      1452.9128      1435.1869      2731.7712      0             -3663.0589      0              0             -127.61305      107934.53      47.612406      47.612406      47.612406      0.77718268    -719.31159     -19.269188      859.32245    
    993000   1986000        405.26538     -277.53204      5898.0764      6328.6539      4347.6608      1980.9931      1480.2104      1511.8858      2691.1455      0             -3702.2487      0              0             -129.47717      106380.57      47.382805      47.382805      47.382805      0.78853542    -164.8132       26.725516     -694.50843    
    993500   1987000        400.31893     -238.54347      5911.2313      6284.1336      4294.5956      1989.538       1493.8374      1461.2657      2720.129       0             -3685.6941      0              0             -128.50021      107189.35      47.502582      47.502582      47.502582      0.7825856     -171.54308     -366.80693     -177.28039    
    994000   1988000        409.49435      157.1292       6585.5179      6341.9118      4393.029       1948.8829      1462.8569      1504.4664      2708.0826      0             -3726.523       0              0             -129.56871      106305.4       47.371643      47.371643      47.371643      0.78909294    -463.69957      389.16123      545.92594    
    994500   1989000        412.84889     -256.81147      5970.3288      6364.3797      4429.0162      1935.3635      1484.3771      1506.6591      2686.5007      0             -3742.1734      0              0             -130.91621      105211.22      47.208553      47.208553      47.208553      0.7972994      621.99999     -1167.2945     -225.13992    
    995000   1990000        402.25978     -22.622489      6272.433       6307.4308      4315.4169      1992.0139      1436.6542      1476.5283      2816.7347      0             -3737.9034      0              0             -129.84674      106077.78      47.337808      47.337808      47.337808      0.79078618     212.60612     -94.397274     -186.07631    
    995500   1991000        400.08859     -1.9110117      6165.4413      6168.3812      4292.1246      1876.2566      1417.6351      1502.7787      2727.5619      0             -3771.719       0              0             -130.57489      105486.24      47.249651      47.249651      47.249651      0.79522073    -629.63573      535.87528      88.027414    
    996000   1992000        405.48025     -809.76581      5079.4302      6346.9987      4349.9659      1997.0328      1436.5922      1486.7745      2745.5871      0             -3671.921       0              0             -128.32739      107333.7       47.523896      47.523896      47.523896      0.78153312    -1292.6065     -236.96482     -899.72613    
    996500   1993000        414.73471     -349.46422      5963.3243      6504.3316      4449.2472      2055.0844      1551.4786      1526.2848      2684.9418      0             -3707.6208      0              0             -129.75705      106151.1       47.348712      47.348712      47.348712      0.79023998     467.14719     -119.97699     -1395.5629    
    997000   1994000        410.32905      1423.4013      8429.8718      6259.1323      4401.9835      1857.1488      1466.5647      1473.2531      2697.5682      0             -3780.2372      0              0             -131.71979      104569.36      47.112356      47.112356      47.112356      0.80219332     1050.7592      1192.5994      2026.8454    
    997500   1995000        417.77523     -159.07477      6159.6141      6401.5845      4481.8656      1919.7188      1481.5875      1477.3105      2767.8296      0             -3807.0088      0              0             -132.05978      104300.15      47.07189       47.07189       47.07189       0.80426391    -678.54369     -144.55961      345.87898    
    998000   1996000        410.55236      454.67624      7002.1764      6304.1463      4404.3792      1899.7671      1496.8196      1423.8052      2697.5531      0             -3718.4107      0              0             -130.8457       105267.91      47.217031      47.217031      47.217031      0.79687        564.00607      535.24325      264.77941    
    998500   1997000        404.78769     -599.44851      5234.6472      6151.4142      4342.5362      1808.878       1476.3537      1447.0601      2661.2823      0             -3775.8182      0              0             -131.34824      104865.15      47.156736      47.156736      47.156736      0.79993057    -471.89482     -608.30852     -718.14219    
    999000   1998000        412.14349      185.42453      6716.1825      6429.6441      4421.4488      2008.1953      1499.9877      1463.6746      2742.3879      0             -3697.8549      0              0             -129.99173      105959.47      47.320202      47.320202      47.320202      0.79166917     362.28931     -174.714        368.69828    
    999500   1999000        405.85647      307.05451      6716.781       6248.1512      4354.002       1894.1492      1505.602       1453.9428      2710.0939      0             -3775.4894      0              0             -131.6185       104649.83      47.124437      47.124437      47.124437      0.8015765      388.63286      547.853       -15.322324    
   1000000   2000000        414.17152      283.16235      6778.7377      6350.0704      4443.2053      1906.8651      1524.2353      1445.1013      2751.8268      0             -3814.2984      0              0             -132.69255      103802.77      46.996947      46.996947      46.996947      0.80811758     887.6364      -216.2031       178.05376    
Loop time of 528.582 on 1 procs for 1000000 steps with 3600 atoms

Performance: 326.913 ns/day, 0.073 hours/ns, 1891.855 timesteps/s, 6.811 Matom-step/s
98.5% CPU use with 1 MPI tasks x 1 OpenMP threads

MPI task timing breakdown:
Section |  min time  |  avg time  |  max time  |%varavg| %total
---------------------------------------------------------------
Pair    | 62.224     | 62.224     | 62.224     |   0.0 | 11.77
Bond    | 366.21     | 366.21     | 366.21     |   0.0 | 69.28
Neigh   | 0.11203    | 0.11203    | 0.11203    |   0.0 |  0.02
Comm    | 36.198     | 36.198     | 36.198     |   0.0 |  6.85
Output  | 0.10262    | 0.10262    | 0.10262    |   0.0 |  0.02
Modify  | 54.525     | 54.525     | 54.525     |   0.0 | 10.32
Other   |            | 9.211      |            |       |  1.74

Nlocal:           3600 ave        3600 max        3600 min
Histogram: 1 0 0 0 0 0 0 0 0 0
Nghost:          13399 ave       13399 max       13399 min
Histogram: 1 0 0 0 0 0 0 0 0 0
Neighs:              0 ave           0 max           0 min
Histogram: 1 0 0 0 0 0 0 0 0 0

Total # of neighbors = 0
Ave neighs/atom = 0
Ave special neighs/atom = 5.9666667
Neighbor list builds = 32588
Dangerous builds = 0
WARNING: No fixes with time integration, atoms won't move
For more information see https://docs.lammps.org/err0028 (src/verlet.cpp:60)


---------------------------------------------------------------------
      Device Time Info (average): 
---------------------------------------------------------------------
Data Transfer:   47.7026 s.
Neighbor copy:   2.5568 s.
Neighbor build:  21.3234 s.
Force calc:      139.3706 s.
Device Overhead: 48.0800 s.
CPU Neighbor:    3.5353 s.
CPU Cast/Pack:   18.4875 s.
CPU Driver_Time: 12.1068 s.
CPU Idle_Time:   4.3482 s.
Average split:   1.0000.
Max Mem / Proc:  37.66 MB.
Prefetch mode:   None.
Vector width:    32.
Lanes / atom:    4.
Pair block:      256.
Neigh block:     128.
Neigh mode:      Hybrid (binning on host) with subgroup support.
Neigh sorting:   Unavailable or disabled.
---------------------------------------------------------------------


--------------------------------------------------------------------------
- Using acceleration for lj/cut:
-  with 1 proc(s) per device.
-  with 1 thread(s) per proc.
-  Horizontal vector operations: ENABLED
-  Shared memory system: No
--------------------------------------------------------------------------
Device 0: NVIDIA A800 40GB Active, 108 CUs, 39/39 GB, 1.4 GHZ (Mixed Precision)
--------------------------------------------------------------------------

Initializing Device and compiling on process 0...Done.
Initializing Device 0 on core 0...Done.

Generated 1 of 1 mixed pair_coeff terms from arithmetic mixing rule
Setting up Verlet run ...
  Unit style    : real
  Current step  : 1000000
  Time step     : 2
Per MPI rank memory allocation (min/avg/max) = 14.62 | 14.62 | 14.62 Mbytes
   Step          Time           Temp          Press         Enthalpy        TotEng         KinEng         PotEng         E_bond        E_angle        E_dihed        E_impro         E_vdwl         E_coul         E_long         E_tail         Volume           Lx             Ly             Lz          Density          Pxx            Pyy            Pzz      
   1000000   2000000        414.17152      283.16234      6778.7377      6350.0704      4443.2053      1906.8651      1524.2353      1445.1013      2751.8268      0             -3814.2984      0              0             -132.69255      103802.77      46.996947      46.996947      46.996947      0.80811758     887.63642     -216.20316      178.05376    
Loop time of 1.092e-06 on 1 procs for 0 steps with 3600 atoms

91.6% CPU use with 1 MPI tasks x 1 OpenMP threads

MPI task timing breakdown:
Section |  min time  |  avg time  |  max time  |%varavg| %total
---------------------------------------------------------------
Pair    | 0          | 0          | 0          |   0.0 |  0.00
Bond    | 0          | 0          | 0          |   0.0 |  0.00
Neigh   | 0          | 0          | 0          |   0.0 |  0.00
Comm    | 0          | 0          | 0          |   0.0 |  0.00
Output  | 0          | 0          | 0          |   0.0 |  0.00
Modify  | 0          | 0          | 0          |   0.0 |  0.00
Other   |            | 1.092e-06  |            |       |100.00

Nlocal:           3600 ave        3600 max        3600 min
Histogram: 1 0 0 0 0 0 0 0 0 0
Nghost:          13373 ave       13373 max       13373 min
Histogram: 1 0 0 0 0 0 0 0 0 0
Neighs:              0 ave           0 max           0 min
Histogram: 1 0 0 0 0 0 0 0 0 0

Total # of neighbors = 0
Ave neighs/atom = 0
Ave special neighs/atom = 5.9666667
Neighbor list builds = 0
Dangerous builds = 0
System init for write_data ...


---------------------------------------------------------------------
      Device Time Info (average): 
---------------------------------------------------------------------
Data Transfer:   0.0001 s.
Neighbor copy:   0.0001 s.
Neighbor build:  0.0007 s.
Force calc:      0.0002 s.
Device Overhead: 0.0000 s.
CPU Neighbor:    0.0001 s.
CPU Cast/Pack:   0.0000 s.
CPU Driver_Time: 0.0000 s.
CPU Idle_Time:   0.0001 s.
Average split:   1.0000.
Max Mem / Proc:  37.37 MB.
Prefetch mode:   None.
Vector width:    32.
Lanes / atom:    4.
Pair block:      256.
Neigh block:     128.
Neigh mode:      Hybrid (binning on host) with subgroup support.
Neigh sorting:   Unavailable or disabled.
---------------------------------------------------------------------


--------------------------------------------------------------------------
- Using acceleration for lj/cut:
-  with 1 proc(s) per device.
-  with 1 thread(s) per proc.
-  Horizontal vector operations: ENABLED
-  Shared memory system: No
--------------------------------------------------------------------------
Device 0: NVIDIA A800 40GB Active, 108 CUs, 39/39 GB, 1.4 GHZ (Mixed Precision)
--------------------------------------------------------------------------

Initializing Device and compiling on process 0...Done.
Initializing Device 0 on core 0...Done.

Generated 1 of 1 mixed pair_coeff terms from arithmetic mixing rule
STAGE COMPLETE: Tg step T=410.0K P=1.0atm steps=1000000
Cuda driver error 4 in call at file '/home/alexzhao/lammps/lib/gpu/geryon/nvd_timer.h' in line 98.
Cuda driver error 4 in call at file '/home/alexzhao/lammps/lib/gpu/geryon/nvd_timer.h' in line 99.
Cuda driver error 4 in call at file '/home/alexzhao/lammps/lib/gpu/geryon/nvd_timer.h' in line 98.
Cuda driver error 4 in call at file '/home/alexzhao/lammps/lib/gpu/geryon/nvd_timer.h' in line 99.
Cuda driver error 4 in call at file '/home/alexzhao/lammps/lib/gpu/geryon/nvd_timer.h' in line 98.
Cuda driver error 4 in call at file '/home/alexzhao/lammps/lib/gpu/geryon/nvd_timer.h' in line 99.
