# ============================================================
# PolyJarvis LAMMPS Engine - NVT Born Matrix Template
# ============================================================
# Stage: NVT-Born (Stage 8, glassy polymers only)
# Purpose: Compute isothermal bulk modulus via Born + NVT stress
#   fluctuation method. Requires LAMMPS compiled with EXTRA-COMPUTE
#   (compute born/matrix numdiff).
#
# Formula:  K_T = K_Born + NkT/V − (V/kT)·Var(P)_NVT
#   K_Born  — from compute born/matrix numdiff (time-averaged)
#   NkT/V   — kinetic term (ideal gas contribution)
#   Var(P)  — variance of isotropic pressure in NVT (stress-fluctuation)
#
# Tunable parameters (injected by script_generator.py):
#   DATA_FILE        - .data or .restart file to read
#   READ_COMMAND     - "read_data" or "read_restart"
#   LOG_FILE         - log filename
#   LOG_APPEND       - "append" or "" (overwrite)
#   DUMP_FILE        - trajectory filename
#   LAST_DUMP_FILE   - final snapshot filename
#   WRITE_DATA_FILE  - output .data filename
#   RESTART_FILE_1   - restart checkpoint file 1
#   RESTART_FILE_2   - restart checkpoint file 2
#   RESTART_FREQ     - steps between restart writes
#   RESTART_BLOCK    - full restart command or empty
#   PAIR_STYLE_BLOCK - pair + kspace style lines
#   BOND_STYLE, ANGLE_STYLE, DIHEDRAL_STYLE, IMPROPER_STYLE
#   GPU_PACKAGE      - "package gpu 1 neigh no" or empty
#   T_START          - temperature (K) — constant for NVT-Born (300.0)
#   T_FINAL          - must equal T_START for production run
#   T_DAMP           - thermostat damping (fs), recommended 100*timestep
#   TIMESTEP         - integration timestep (fs), typically 1.0
#   N_STEPS          - number of MD steps (default 4000000 = 4 ns)
#   THERMO_FREQ      - thermo output frequency (steps)
#   DUMP_FREQ        - dump output frequency (steps)
#   SHAKE_BLOCK      - "fix shake..." or empty
#   UNSHAKE_BLOCK    - "unfix shake..." or empty
#   INIT_VELOCITY_BLOCK - "velocity all create..." or empty
#   BORN_NUMDIFF_DELTA  - finite-diff displacement for born/matrix (Å, default 0.0001)
#   BORN_EVERY          - sampling interval for fix ave/time (steps, default 10)
#   BORN_REPEAT         - number of samples per average block (default 100)
#   BORN_FREQ           - output/average frequency (steps, default 1000)
#   BORN_MATRIX_FILE    - output file for Born matrix averages
# ============================================================

log 08_nvt_born.log 
units real
atom_style full
boundary p p p

# --- Force Field Styles ---
pair_style lj/class2/coul/long 9.5 9.5
kspace_style pppm 1e-6
dielectric 1.000000
bond_style class2
angle_style class2
dihedral_style class2
improper_style class2
special_bonds lj/coul 0 0 1
pair_modify mix sixthpower tail yes
neighbor 2.0 bin
neigh_modify delay 0 every 1 check yes
neigh_modify one 4000
# GPU disabled (CPU run)

read_data /home/arz2/PolyJarvis/data/PEEK1/lammps/equil/npt_prod300/npt_prod300_out.data


# --- Thermo Output ---
# pxx pyy pzz are required for Var(P) in the Born bulk modulus analysis
thermo_style custom step time temp press enthalpy etotal ke pe ebond eangle edihed eimp evdwl ecoul elong etail vol lx ly lz density pxx pyy pzz
thermo_modify flush yes
thermo 1000

# --- Trajectory ---
dump dump_nvt_born all custom 5000 08_nvt_born.dump id type mol x y z ix iy iz vx vy vz

# --- Restart Checkpointing ---
restart 50000 08_nvt_born_1.rst 08_nvt_born_2.rst

# --- Initial Velocities (optional) ---
# Velocities read from data file

# --- SHAKE Constraints ---
fix shake_fix all shake 1e-4 1000 0 m 1.008

# --- NVT Thermostat (Nose-Hoover) ---
timestep 1
fix nvt_fix all nvt temp 300 300 100

# --- Born Matrix (EXTRA-COMPUTE package required) ---
# compute born/matrix numdiff syntax: numdiff delta virial_compute_ID
# delta = finite-difference strain displacement; virial_compute_ID = named pressure compute.
# Output vector (21 elements, Voigt notation, units: atm):
#   [1]=C11, [2]=C22, [3]=C33, [4]=C44, [5]=C55, [6]=C66,
#   [7]=C12, [8]=C13, ..., [12]=C23, ...
# K_Born = (C11+C22+C33 + 2*C12 + 2*C13 + 2*C23) / 9
compute born_press all pressure thermo_temp
compute born_matrix all born/matrix numdiff 0.0001 born_press
variable b11 equal c_born_matrix[1]
variable b22 equal c_born_matrix[2]
variable b33 equal c_born_matrix[3]
variable b12 equal c_born_matrix[7]
variable b13 equal c_born_matrix[8]
variable b23 equal c_born_matrix[12]
# Average Born elements every BORN_FREQ steps using BORN_REPEAT samples taken BORN_EVERY steps apart.
# Bulk modulus Born term: K_Born = (b11+b22+b33 + 2*b12+2*b13+2*b23) / 9
fix born_avg all ave/time 10 100 1000 v_b11 v_b22 v_b33 v_b12 v_b13 v_b23 file /home/arz2/PolyJarvis/data/PEEK1/lammps/mechanical/08_nvt_born/born_matrix.dat

run 4000000

# --- Cleanup ---
unfix nvt_fix
unfix born_avg
uncompute born_matrix
uncompute born_press
unfix shake_fix
undump dump_nvt_born

# --- Write Output ---
write_dump all custom 08_nvt_born_last.dump id type mol x y z xu yu zu vx vy vz modify sort id
write_data 08_nvt_born_out.data

print "STAGE COMPLETE: NVT-Born T=300K steps=4000000 born_matrix=/home/arz2/PolyJarvis/data/PEEK1/lammps/mechanical/08_nvt_born/born_matrix.dat"
quit
