LAMMPS (22 Jul 2025 - Update 3)
KOKKOS mode with Kokkos version 4.6.2 is enabled
  will use up to 1 GPU(s) per node
  using 1 OpenMP thread(s) per MPI task
Reading data file ...
  orthogonal box = (0 0 0) to (51.522057 51.522057 51.522057)
  1 by 1 by 1 MPI processor grid
  reading atoms ...
  8000 atoms
  scanning bonds ...
  4 = max bonds/atom
  scanning angles ...
  10 = max angles/atom
  scanning dihedrals ...
  16 = max dihedrals/atom
  scanning impropers ...
  7 = max impropers/atom
  orthogonal box = (0 0 0) to (51.522057 51.522057 51.522057)
  1 by 1 by 1 MPI processor grid
  reading bonds ...
  7990 bonds
  reading angles ...
  14820 angles
  reading dihedrals ...
  17070 dihedrals
  reading impropers ...
  9120 impropers
Finding 1-2 1-3 1-4 neighbors ...
  special bond factors lj:    0        0        1       
  special bond factors coul:  0        0        1       
     4 = max # of 1-2 neighbors
     6 = max # of 1-3 neighbors
     8 = max # of special neighbors
  special bonds CPU = 0.003 seconds
  read_data CPU = 0.130 seconds
PPPM Kokkos initialization ...
  using 12-bit tables for long-range coulomb
  G vector (1/distance) = 0.29918779
  grid = 36 36 36
  stencil order = 5
  estimated absolute RMS force accuracy = 0.00039937676
  estimated relative force accuracy = 1.2027113e-06
  using double precision cuFFT
  3d grid and FFT values/proc = 79507 46656
Generated 15 of 15 mixed pair_coeff terms from sixthpower/sixthpower mixing rule
Neighbor list info ...
  update: every = 1 steps, delay = 0 steps, check = yes
  max neighbors/atom: 4000, page size: 100000
  master list distance cutoff = 11.5
  ghost atom cutoff = 11.5
  binsize = 11.5, bins = 5 5 5
  1 neighbor lists, perpetual/occasional/extra = 1 0 0
  (1) pair lj/class2/coul/long/kk, perpetual
      attributes: full, newton off, kokkos_device
      pair build: full/bin/kk/device
      stencil: full/bin/3d
      bin: kk/device
Setting up cg/kk style minimization ...
  Unit style    : real
  Current step  : 0
WARNING: Fix MINIMIZE/kk not compatible with sending data in Kokkos communication (src/KOKKOS/comm_kokkos.cpp:767)
WARNING: Fix with atom-based arrays not compatible with sending data in Kokkos communication, switching to classic exchange/border communication (src/KOKKOS/comm_kokkos.cpp:780)
WARNING: Fix MINIMIZE/kk not compatible with Kokkos sorting on device (src/KOKKOS/atom_kokkos.cpp:212)
WARNING: Fix with atom-based arrays not compatible with Kokkos sorting on device, switching to classic host sorting (src/KOKKOS/atom_kokkos.cpp:218)
Per MPI rank memory allocation (min/avg/max) = 33.37 | 33.37 | 33.37 Mbytes
   Step          Time           Temp          Press          TotEng         PotEng         E_bond        E_angle        E_dihed        E_impro         E_vdwl         E_coul         E_long         Volume           Lx             Ly             Lz          Density    
         0   0              0              7413.6175      12613.782      12613.782      2800.7851      8230.477      -4906.1376     -76.972994      955.90099      13015.527     -7405.7975      136766.45      51.522057      51.522057      51.522057      0.60999999   
       500   500            0             -765.61677     -1661.807      -1661.807       71.514981      2537.7792     -6862.0875     -14.351389     -2434.8357      12589.927     -7549.7536      136766.45      51.522057      51.522057      51.522057      0.60999999   
      1000   1000           0             -654.58266     -2112.568      -2112.568       66.57499       2492.0753     -6928.5182     -14.346609     -2706.3793      12554.873     -7576.8474      136766.45      51.522057      51.522057      51.522057      0.60999999   
      1500   1500           0             -643.33235     -2291.6909     -2291.6909      65.569266      2468.1778     -6926.361      -14.436815     -2819.672       12524.508     -7589.4756      136766.45      51.522057      51.522057      51.522057      0.60999999   
      2000   2000           0             -626.71594     -2408.351      -2408.351       64.444455      2463.108      -6955.9022     -14.153366     -2884.7945      12513.578     -7594.631       136766.45      51.522057      51.522057      51.522057      0.60999999   
      2500   2500           0             -583.14738     -2483.5818     -2483.5818      64.305368      2447.0726     -6961.2519     -14.307902     -2921.3267      12499.706     -7597.7792      136766.45      51.522057      51.522057      51.522057      0.60999999   
      3000   3000           0             -631.94729     -2551.3807     -2551.3807      62.912621      2428.1944     -6987.6112     -14.498463     -2943.4104      12504.455     -7601.4229      136766.45      51.522057      51.522057      51.522057      0.60999999   
      3500   3500           0             -621.13823     -2603.9641     -2603.9641      62.075628      2418.615      -6992.7313     -14.432496     -2974.8871      12501.197     -7603.801       136766.45      51.522057      51.522057      51.522057      0.60999999   
      4000   4000           0             -598.77696     -2623.0431     -2623.0431      60.984953      2420.3905     -7007.3397     -14.396063     -2985.064       12504.836     -7602.4546      136766.45      51.522057      51.522057      51.522057      0.60999999   
      4342   4342           0             -598.57065     -2628.7318     -2628.7318      61.296353      2420.1402     -7008.6382     -14.395874     -2990.2793      12506.031     -7602.8863      136766.45      51.522057      51.522057      51.522057      0.60999999   
Loop time of 14.5231 on 1 procs for 4342 steps with 8000 atoms

99.9% CPU use with 1 MPI tasks x 1 OpenMP threads

Minimization stats:
  Stopping criterion = energy tolerance
  Energy initial, next-to-last, final = 
      12613.7821722246  -2628.73094282954  -2628.73175853036
  Force two-norm initial, final = 3037.9068 3.6152471
  Force max component initial, final = 144.91501 1.2380907
  Final line search alpha, max atom move = 0.023443172 0.029024773
  Iterations, force evaluations = 4342 8659

MPI task timing breakdown:
Section |  min time  |  avg time  |  max time  |%varavg| %total
---------------------------------------------------------------
Pair    | 2.3303     | 2.3303     | 2.3303     |   0.0 | 16.05
Bond    | 1.8978     | 1.8978     | 1.8978     |   0.0 | 13.07
Kspace  | 8.5364     | 8.5364     | 8.5364     |   0.0 | 58.78
Neigh   | 0.4405     | 0.4405     | 0.4405     |   0.0 |  3.03
Comm    | 0.12289    | 0.12289    | 0.12289    |   0.0 |  0.85
Output  | 0.026817   | 0.026817   | 0.026817   |   0.0 |  0.18
Modify  | 0          | 0          | 0          |   0.0 |  0.00
Other   |            | 1.168      |            |       |  8.04

Nlocal:           8000 ave        8000 max        8000 min
Histogram: 1 0 0 0 0 0 0 0 0 0
Nghost:          14382 ave       14382 max       14382 min
Histogram: 1 0 0 0 0 0 0 0 0 0
Neighs:              0 ave           0 max           0 min
Histogram: 1 0 0 0 0 0 0 0 0 0
FullNghs:  3.69351e+06 ave 3.69351e+06 max 3.69351e+06 min
Histogram: 1 0 0 0 0 0 0 0 0 0

Total # of neighbors = 3693514
Ave neighs/atom = 461.68925
Ave special neighs/atom = 5.7025
Neighbor list builds = 90
Dangerous builds = 0
System init for write_data ...
PPPM Kokkos initialization ...
  using 12-bit tables for long-range coulomb
  G vector (1/distance) = 0.29918779
  grid = 36 36 36
  stencil order = 5
  estimated absolute RMS force accuracy = 0.00039937676
  estimated relative force accuracy = 1.2027113e-06
  using double precision cuFFT
  3d grid and FFT values/proc = 79507 46656
Generated 15 of 15 mixed pair_coeff terms from sixthpower/sixthpower mixing rule
System init for write_restart ...
PPPM Kokkos initialization ...
  using 12-bit tables for long-range coulomb
  G vector (1/distance) = 0.29918779
  grid = 36 36 36
  stencil order = 5
  estimated absolute RMS force accuracy = 0.00039937676
  estimated relative force accuracy = 1.2027113e-06
  using double precision cuFFT
  3d grid and FFT values/proc = 79507 46656
Generated 15 of 15 mixed pair_coeff terms from sixthpower/sixthpower mixing rule
STAGE COMPLETE: minimization
